User:   esb@s66n12.grendel.cscaa.dk
Date:   Thu Nov  9 11:23:22 2017
Arch:   x86_64
Pid:    115555
Python: 2.7.13
gpaw:   /home/esb/DFT/gpaw_git/gpaw
_gpaw:  /home/esb/DFT/gpaw_git/build/bin.linux-x86_64-2.7/gpaw-python
ase:    /home/esb/DFT/ase_git/ase (version 3.15.0b1)
numpy:  /comm/swstack/core/python/2.7.13/lib/python2.7/site-packages/numpy (version 1.13.3)
scipy:  /comm/swstack/core/python/2.7.13/lib/python2.7/site-packages/scipy (version 0.19.1)
units:  Angstrom and eV
cores:  16
Extra parameters: {'blacs': True}

Input parameters:
  basis: dzp
  gpts: [80 80 48]
  kpts: [1 1 1]
  maxiter: 99
  mixer: {backend: pulay,
          beta: 0.05,
          method: separate,
          nmaxold: 5,
          weight: 75}
  mode: lcao
  nbands: -50
  occupations: {name: fermi-dirac,
                width: 0.1}
  poissonsolver: {eps: 1e-07,
                  name: fd,
                  nn: 3,
                  relax: GS}
  xc: PBE

System changes: positions, numbers, cell, pbc, initial_charges, initial_magmoms

Initialize ...

C-setup:
  name: Carbon
  id: 4aa54d4b901d75f77cc0ea3eec22967b
  Z: 6
  valence: 4
  core: 2
  charge: 0.0
  file: /home/esb/DFT/gpaw-setups-0.8.7929/C.PBE.gz
  cutoffs: 0.64(comp), 1.14(filt), 1.14(core), lmax=2
  valence states:
                energy  radius
    2s(2.00)   -13.751   0.635
    2p(2.00)    -5.284   0.635
    *s          13.461   0.635
    *p          21.927   0.635
    *d           0.000   0.635

  LCAO basis set for C:
    Name: dzp
    File: /home/esb/DFT/gpaw-setups-0.8.7929/C.dzp.basis.gz
    Number of radial functions: 5
    Number of spherical harmonics: 13
      l=0, rc=5.5469 Bohr: 2s-sz confined orbital
      l=1, rc=6.6719 Bohr: 2p-sz confined orbital
      l=0, rc=3.0312 Bohr: 2s-dz split-valence wave
      l=1, rc=3.7500 Bohr: 2p-dz split-valence wave
      l=2, rc=6.6719 Bohr: d-type Gaussian polarization

Reference energy: -24663.074771

Spin-paired calculation

Occupation numbers:
  Fermi-Dirac: width=0.1000 eV

Convergence criteria:
  Maximum total energy change: 0.0005 eV / electron
  Maximum integral of absolute density change: 0.0001 electrons
  Maximum integral of absolute eigenstate change: 4e-08 eV^2
  Maximum number of iterations: 99

Symmetries present (total): 1

  ( 1  0  0)
  ( 0  1  0)
  ( 0  0  1)

1 k-point (Gamma)
1 k-point in the irreducible part of the Brillouin zone
       k-points in crystal coordinates                weights
   0:     0.00000000    0.00000000    0.00000000          1/1

Wave functions: LCAO
  Diagonalizer: Serial LAPACK
  Atomic Correction: dense with blas
  Datatype: float
  Eigensolver: None

LCAO using direct dense diagonalizer

Densities:
  Coarse grid: 80*80*48 grid
  Fine grid: 160*160*96 grid
  Total Charge: 0.000000

Density mixing:
  Method: separate
  Backend: pulay
  Linear mixing parameter: 0.05
  Mixing with 5 old densities
  Damping of long wave oscillations: 75

Hamiltonian:
  XC and Coulomb potentials evaluated on a 160*160*96 grid
  Using the PBE Exchange-Correlation functional
  Interpolation: tri-quintic (5. degree polynomial)
  Poisson solver: Gauss-Seidel solver with 6 multi-grid levels
    Coarsest grid: 5 x 5 x 3 points
    Stencil: 6*3+1=19 point O(h^6) finite-difference Laplacian
    Max iterations: 1000
    Tolerance: 1.000000e-07

Total number of cores used: 16
Domain decomposition: 2 x 4 x 2

Number of atoms: 24
Number of atomic orbitals: 312
Number of bands in calculation: 98
Bands to converge: occupied states only
Number of valence electrons: 96

... initialized

Initializing position-dependent things.

Density initialized from atomic densities
   /       |          C                           |
 *         |   C C  C  C  C  CC  C                |
 |         | C  C  C C      C    C                |
 |         .---------C---C-----C------------------.
 |        /   C            C                     /
 |       /      C   C C  C                      /

Positions:
   0 C      9.854505    7.679203    5.669321
   1 C      5.991744   10.012670    6.296697
   2 C      8.917301    8.151583    4.950659
   3 C      6.569235    9.809763    5.185886
   4 C     10.399175    9.946771    4.636948
   5 C     11.048060    8.827978    4.617804
   6 C      7.743082   10.209563    4.987110
   7 C      9.020752    9.647616    4.845610
   8 C      5.655173    8.735896    5.357004
   9 C      3.635137    7.687604    5.621603
  10 C      6.342271    7.456986    5.312254
  11 C      4.231077    8.847378    5.537609
  12 C      3.277671    6.419539    5.686620
  13 C      5.226857    3.750034    4.871728
  14 C      7.828970    3.220959    4.710891
  15 C      6.624088    3.882990    4.994152
  16 C      4.350166    4.615233    5.185954
  17 C      9.021963    3.627017    4.817823
  18 C      6.970453    5.222670    5.556754
  19 C      4.450968    5.909206    5.726700
  20 C      5.927822    6.069831    5.971813
  21 C      8.311299    5.779283    5.572691
  22 C     10.734691    5.529216    5.162138
  23 C      9.477709    4.906592    5.165769

Unit cell:
           periodic     x           y           z      points  spacing
  1. axis:    yes   16.000000    0.000000    0.000000    80     0.2000
  2. axis:    yes    0.000000   16.000000    0.000000    80     0.2000
  3. axis:    yes    0.000000    0.000000   10.000000    48     0.2083

Effective grid spacing dv^(1/3) = 0.2027

                     log10-error:    total        iterations:
           time      wfs    density  energy       fermi  poisson
iter:   1  11:23:24          +inf  -168.074257    2      6
iter:   2  11:23:25         -0.88  -166.812282    3      3
iter:   3  11:23:25         -0.92  -165.731170    3      3
iter:   4  11:23:26         -0.97  -163.954456    33     4
iter:   5  11:23:27         -1.18  -163.371901    33     3
iter:   6  11:23:27         -1.42  -163.394390    4      3
iter:   7  11:23:28         -1.60  -163.328447    3      3
iter:   8  11:23:29         -1.78  -163.306906    3      2
iter:   9  11:23:29         -1.87  -163.285667    3      2
iter:  10  11:23:30         -2.04  -163.276138    3      2
iter:  11  11:23:30         -2.25  -163.269160    3      2
iter:  12  11:23:31         -2.49  -163.265599    3      2
iter:  13  11:23:32         -2.64  -163.264812    3      2
iter:  14  11:23:32         -2.88  -163.270136    2      1
iter:  15  11:23:33         -2.97  -163.267358    2      1
iter:  16  11:23:33         -3.19  -163.259322    2      1
iter:  17  11:23:34         -3.28  -163.260814    2      1
iter:  18  11:23:34         -3.48  -163.260977    2      1
iter:  19  11:23:35         -3.63  -163.260836    2      1
iter:  20  11:23:36         -3.71  -163.260941    2      1
iter:  21  11:23:36         -3.80  -163.262360    2      1
iter:  22  11:23:37         -3.97  -163.261945    2      1
iter:  23  11:23:37         -4.12  -163.262141    2      1

Converged after 23 iterations.

Dipole moment: (-0.646665, -0.366600, -0.132099) |e|*Ang

Energy contributions relative to reference atoms: (reference = -24663.074771)

Kinetic:       +145.964243
Potential:     -140.704095
External:        +0.000000
XC:            -171.274267
Entropy (-ST):   -0.345687
Local:           +2.924821
Free energy:   -163.434984
Extrapolated:  -163.262141

Fermi level: -4.65381

 Band  Eigenvalues  Occupancy
    0    -24.41750    2.00000
    1    -23.10502    2.00000
    2    -22.17305    2.00000
    3    -21.95624    2.00000
    4    -20.91863    2.00000
    5    -20.29100    2.00000
    6    -19.79952    2.00000
    7    -19.30600    2.00000
    8    -18.67660    2.00000
    9    -18.28074    2.00000
   10    -18.04755    2.00000
   11    -17.02260    2.00000
   12    -16.56211    2.00000
   13    -16.19909    2.00000
   14    -15.74197    2.00000
   15    -14.24653    2.00000
   16    -14.13818    2.00000
   17    -13.52551    2.00000
   18    -13.14829    2.00000
   19    -12.64548    2.00000
   20    -12.40789    2.00000
   21    -12.31758    2.00000
   22    -12.01770    2.00000
   23    -11.29299    2.00000
   24    -11.07222    2.00000
   25    -10.75205    2.00000
   26    -10.17557    2.00000
   27     -9.96239    2.00000
   28     -9.93438    2.00000
   29     -9.52021    2.00000
   30     -9.32214    2.00000
   31     -8.50600    2.00000
   32     -8.18549    2.00000
   33     -8.00855    2.00000
   34     -7.71744    2.00000
   35     -7.54311    2.00000
   36     -7.26987    2.00000
   37     -7.04947    2.00000
   38     -6.92418    2.00000
   39     -6.54953    2.00000
   40     -6.30104    2.00000
   41     -6.18656    2.00000
   42     -6.06947    2.00000
   43     -5.87266    1.99999
   44     -5.65272    1.99991
   45     -5.34424    1.99800
   46     -5.11340    1.98002
   47     -4.64720    0.96698
   48     -4.63582    0.91030
   49     -4.38994    0.13339
   50     -4.12696    0.01025
   51     -3.90320    0.00110
   52     -3.60660    0.00006
   53     -3.47011    0.00001
   54     -3.18625    0.00000
   55     -2.55250    0.00000
   56     -2.01161    0.00000
   57     -1.68065    0.00000
   58     -1.54975    0.00000
   59     -1.44599    0.00000
[...]
   83      8.21363    0.00000
   84      8.42089    0.00000
   85      8.73938    0.00000
   86      8.75627    0.00000
   87      8.86527    0.00000
   88      8.95635    0.00000
   89      9.09080    0.00000
   90      9.17504    0.00000
   91      9.29566    0.00000
   92      9.54296    0.00000
   93      9.66093    0.00000
   94      9.74090    0.00000
   95      9.80047    0.00000
   96      9.87373    0.00000
   97     10.04190    0.00000

Forces in eV/Ang:
  0 C     5.81904   -4.86378    1.48984
  1 C    -4.18916    1.90553    8.11426
  2 C    -4.48282    1.96272   -1.65426
  3 C    -1.52852    1.23182   -4.60500
  4 C    -1.39751    0.43950    0.59053
  5 C     0.75872   -1.59442    0.67943
  6 C     8.62244    1.25058   -3.09903
  7 C    -2.88680    1.60755   -0.97889
  8 C    -1.18413   -4.34952   -0.55855
  9 C    -1.35468    2.42977    0.46413
 10 C    -0.49540   -1.65758    2.86352
 11 C     0.26675    0.16064   -0.85814
 12 C    -6.62282    5.63837    0.78107
 13 C    -0.14036   -0.18215   -0.16271
 14 C    -0.13751   -0.98409   -0.34731
 15 C     0.72803   -0.04242    0.20225
 16 C     2.18123   -2.87100   -0.41671
 17 C    -0.45753   -0.59471   -0.29235
 18 C     1.63004   -0.64300    0.27236
 19 C     5.68806   -7.24174    0.28587
 20 C    -0.30831    7.13714   -3.58925
 21 C     0.96132   -2.16399   -0.34726
 22 C    -0.30170    1.37325    0.36433
 23 C    -1.13303    2.11907    0.83963

System changes: positions

[...]

Density initialized from wave functions
   /       |          C                           |
 *         |   C C  C  C  C  CC  C                |
 |         | C  C  C C      C    C                |
 |         .---------C---C-----C------------------.
 |        /    C           C                     /
 |       /      C   C C  C                      /

[...]

Density initialized from wave functions
   /       |          C                           |
 *         |   C C  C  C  C  CC  C                |
 |         | C  C  C C      C    C                |
 |         .---------C---C-----C------------------.
[...]
 |         |  C      C     C   C C                |
 |         .---C---C-C---C-----C------------------.
 |        /   C            C                     /
 |       /      C   C  C  C                     /

[...]

Density initialized from wave functions
  /        |      C C  C  C                       |
 *         |   C     C      C                     |
 |         |  C      C     C   C C                |
 |         .---C---C-C---C-----C------------------.
 |        /   C     C      C                     /
 |       /      C      C  C                     /

[...]

Density initialized from wave functions
  /        |      C C  C  C                       |
 *         |   C     C      C                     |
 |         |  C      C     C   C C                |
 |         .---C---C-C---C-----C------------------.
 |        /   C     C       C                    /
 |       /      C      C  C                     /

[...]

Density initialized from wave functions
  /        |      C C  C  C                       |
 *         |   C     C      C                     |
 |         |  C      C     C   C C                |
 |         .----C--C-C---C-----C------------------.
 |        /    C    C       C                    /
 |       /      C      C  C                     /

[...]

Density initialized from wave functions
  /        |      C C  C  C                       |
 *         |   C     C      C                     |
 |         |  C       C    C   C C                |
 |         .----C--C-----C-----C------------------.
 |        /    C    CC      C                    /
 |       /      C      C  C                     /

[...]

Density initialized from wave functions
  /        |      C C  C  C                       |
 *         |   C     C      C                     |
 |         |  C       C   C    C C                |
 |         .----C--C-----C-----C------------------.
 |        /    C    CC      C                    /
 |       /       C     C  C                     /

[...]

Density initialized from wave functions
  /        |      C C  C  C                       |
 *         |   C     C      C                     |
 |         |  C       C   C    C C                |
 |         .----C--C-----C-----C------------------.
 |        /    C     C     C                     /
 |       /       C  C  C  C                     /

[...]

Density initialized from wave functions
   /       |        C                             |
  /        |      C    C  C                       |
 *         |   C     C      C                     |
 |         |  C       C   C    C C                |
 |         .----C--C-----C-----C------------------.
 |        /    C     C     C                     /
 |       /       C  C  C  C                     /

[...]

Density initialized from wave functions
   /       |        C                             |
  /        |      C    C  C                       |
 *         |   C     C     C                      |
 |         |  C       C  C     C C                |
 |         .----C--C-----C-----C------------------.
 |        /    C     C     C                     /
 |       /       C  C  C  C                     /

[...]

Density initialized from wave functions
   /       |        C                             |
  /        |      C    C  C                       |
 *         |   C     C     C                      |
 |         |  C       C  C    C CC                |
 |         .----C--C-----C-----C------------------.
 |        /    C     C     C                     /
 |       /      C   C  C  C                     /

[...]

Density initialized from wave functions
   /       |        C                             |
  /        |      C    C  C                       |
 *         |   C     C     C                      |
 |         |  C       C  C    C CC                |
 |         .----C--C-----C-----C------------------.
 |        /    C     C    CC                     /
 |       /      C   C  C                        /

[...]

Density initialized from wave functions
   /       |        C                             |
  /        |      C    C  C                       |
 *         |   C     C     C                      |
 |         |  C       C  C    C CC                |
 |         .----C--C-----C-----C------------------.
 |        /    C     C    CC                     /
 |       /      C   C  C                        /

[...]

Density initialized from wave functions
   /       |        C                             |
  /        |      C    C  C                       |
 *         |   C     C     C                      |
 |         |  C       C  C    C CC                |
 |         .----C--C-----C-C---C------------------.
 |        /    C     C    C                      /
 |       /      C   C  C                        /

[...]

Density initialized from wave functions
   /       |        C                             |
  /        |      C    C  C                       |
 *         |   C    C      C                      |
 |         |  C      C   C    C CC                |
 |         .----C--C-----C-C---C------------------.
 |        /    C     C    C                      /
 |       /      C   C  C                        /

[...]

Density initialized from wave functions
   /       |        C                             |
  /        |      C    C  C                       |
 *         |   C    C      C                      |
 |         |  C      C   C    C CC                |
 |         .----C--C-C---C-C---C------------------.
 |        /    C          C                      /
 |       /      C   C  C                        /

[...]

Density initialized from wave functions
   /       |        C                             |
  /        |     C     C  C                       |
 *         |   C    C      C                      |
 |         |  C      C   C    C CC                |
 |         .----C--C-C---C-C---C------------------.
 |        /    C          C                      /
 |       /      C   C  C                        /

[...]

Density initialized from wave functions
   /       |        C                             |
  /        |     C     C  C                       |
 *         |   C    C      C                      |
 |         |  C      C   C    C  C                |
 |         .----C--C-C---C-C---C------------------.
 |        /   C           C                      /
 |       /      C   C  C                        /

[...]

Density initialized from wave functions
   /       |        C                             |
  /        |     C     C  C                       |
 *         |   C    C      C                      |
 |         |  C      C   C    C  C                |
 |         .---C---C-C---C-C---C------------------.
 |        /   C           C                      /
 |       /      C   C  C                        /

[...]

Density initialized from wave functions
   /       |        C                             |
  /        |           C  C                       |
 *         |  C  C  C      C                      |
 |         |  C      C   C    C  C                |
 |         .---C---C-C---C-C---C-C----------------.
 |        /   C           C                      /
 |       /      C   C  C                        /

[...]

Density initialized from wave functions
   /       |        C                             |
  /        |           C  C                       |
 *         |  C  C  C      C                      |
 |         |  C      C   C    C  C                |
 |         .---C---C-C---C-C---C-C----------------.
 |        /   C     C     C                      /
 |       /      C      C                        /

[...]

Density initialized from wave functions
   /       |        C                             |
  /        |           C  C                       |
 *         |  C  C  C      C                      |
 |         |  C      C   C    C  C                |
 |         .---C---C-C---C-C---CC-----------------.
 |        /   C     C     C                      /
 |       /      C      C                        /

[...]

Density initialized from wave functions
   /       |        C                             |
  /        |           C  C                       |
 *         |  C  C  C      C                      |
 |         |  C      C   C    C  C                |
 |         .---C---C-C---C-C---CC-----------------.
 |        /   C     C     C                      /
 |       /      C      C                        /

[...]

Density initialized from wave functions
   /       |        C                             |
  /        |     C     C  C                       |
 *         |  C     C      C                      |
 |         |  C      C   C    C  C                |
 |         .---C---C-C---C-C---C-C----------------.
 |        /   C     C     C                      /
 |       /      C      C                        /

[...]

Density initialized from wave functions
   /       |        C                             |
  /        |     C     C  C                       |
 *         |  C     C      C                      |
 |         |  C      C   C    C  C                |
 |         .---C---C-C---C-C---C-C----------------.
 |        /   C     C     C                      /
 |       /      C     C                         /

[...]

Density initialized from wave functions
   /       |        C                             |
  /        |     C     C  C                       |
 *         |  C     C      C                      |
 |         |  C      C   C    C  C                |
 |         .---C---C-C---C-C---C-C----------------.
 |        /   C C   C     C                      /
 |       /            C                         /

[...]

Density initialized from wave functions
   /       |        C                             |
  /        |     C     C  C                       |
 *         |  C     C      C                      |
 |         |  C      C   C    C  C                |
 |         .---C---C-C---C-C---CC-----------------.
 |        /   C C   C     C                      /
 |       /            C                         /

[...]

Density initialized from wave functions
   /       |        C                             |
  /        |     C     C  C                       |
 *         |  C     C      C                      |
 |         |  C      C   C    C  C                |
 |         .---C---C-C---C-C---CC-----------------.
 |        /   C C   C    C                       /
 |       /            C                         /

[...]

System changes: positions

Initializing position-dependent things.

Density initialized from wave functions
   /       |        C                             |
  /        |     C     C  C                       |
 *         |  C     C      C                      |
 |         |  C      C   C    C  C                |
 |         .---C---C-C---C-C---C-C----------------.
 |        /   C C   C    C                       /
 |       /            C                         /

Positions:
   0 C     11.126113    7.018686    4.923137
   1 C      4.995003   10.182697    6.380800
   2 C      7.739108    7.555677    5.331035
   3 C      6.283654   10.053316    5.594718
   4 C      9.774128    8.930510    4.913351
   5 C     10.870650    8.354551    4.725309
   6 C      7.619202    9.986911    5.683585
   7 C      8.406515    8.896172    5.305840
   8 C      5.608339    8.829288    5.162834
   9 C      3.404266    8.101609    5.769791
  10 C      6.309963    7.599507    5.316909
  11 C      4.262619    9.210443    5.638993
  12 C      3.413498    6.859093    5.599143
  13 C      5.306728    3.583619    5.262527
  14 C      7.951054    3.271393    5.280829
  15 C      6.685490    3.888651    5.257409
  16 C      4.346675    4.405261    5.317237
  17 C      9.035961    3.917742    5.294734
  18 C      6.862283    5.351935    5.268821
  19 C      4.371770    5.818629    5.401640
  20 C      5.752234    6.250228    5.308784
  21 C      8.121844    6.071836    5.296955
  22 C     10.658990    5.879934    5.128939
  23 C      9.366927    5.290055    5.268050

Unit cell:
           periodic     x           y           z      points  spacing
  1. axis:    yes   16.000000    0.000000    0.000000    80     0.2000
  2. axis:    yes    0.000000   16.000000    0.000000    80     0.2000
  3. axis:    yes    0.000000    0.000000   10.000000    48     0.2083

Effective grid spacing dv^(1/3) = 0.2027

                     log10-error:    total        iterations:
           time      wfs    density  energy       fermi  poisson
iter:   1  11:39:59          +inf  -184.406502    2      5
iter:   2  11:40:00         -3.01  -184.406550    2      1
iter:   3  11:40:00         -3.12  -184.407053    2      1
iter:   4  11:40:01         -3.36  -184.407531    2      1
iter:   5  11:40:01         -3.60  -184.407763    2      1
iter:   6  11:40:02         -3.62  -184.406754    2      1
iter:   7  11:40:02         -3.90  -184.406655    2      1
iter:   8  11:40:03         -3.84  -184.406523    2      1
iter:   9  11:40:04         -4.39  -184.406323    1      1

Converged after 9 iterations.

Dipole moment: (0.021394, -0.229204, -0.202974) |e|*Ang

Energy contributions relative to reference atoms: (reference = -24663.074771)

Kinetic:       +114.870491
Potential:     -122.162022
External:        +0.000000
XC:            -180.125232
Entropy (-ST):   -0.023717
Local:           +3.022299
Free energy:   -184.418181
Extrapolated:  -184.406323

Fermi level: -3.99847

 Band  Eigenvalues  Occupancy
    0    -23.04498    2.00000
    1    -22.37731    2.00000
    2    -21.28274    2.00000
    3    -21.02788    2.00000
    4    -20.41927    2.00000
    5    -20.19523    2.00000
    6    -19.40685    2.00000
    7    -19.09474    2.00000
    8    -18.25985    2.00000
    9    -18.00349    2.00000
   10    -17.66578    2.00000
   11    -16.74330    2.00000
   12    -16.50672    2.00000
   13    -15.99319    2.00000
   14    -15.12885    2.00000
   15    -14.52790    2.00000
   16    -14.20453    2.00000
   17    -13.86606    2.00000
   18    -13.25404    2.00000
   19    -12.78910    2.00000
   20    -12.39069    2.00000
   21    -12.27993    2.00000
   22    -11.90943    2.00000
   23    -11.55921    2.00000
   24    -10.66641    2.00000
   25    -10.56399    2.00000
   26    -10.49443    2.00000
   27    -10.35841    2.00000
   28    -10.18155    2.00000
   29     -9.52513    2.00000
   30     -9.35624    2.00000
   31     -9.13312    2.00000
   32     -9.09158    2.00000
   33     -8.59659    2.00000
   34     -8.33091    2.00000
   35     -8.24132    2.00000
   36     -7.88266    2.00000
   37     -7.16129    2.00000
   38     -6.91408    2.00000
   39     -6.56315    2.00000
   40     -6.43220    2.00000
   41     -6.37192    2.00000
   42     -6.04518    2.00000
   43     -5.78280    2.00000
   44     -5.49622    2.00000
   45     -5.26920    1.99999
   46     -4.96497    1.99987
   47     -4.45594    1.97959
   48     -3.53177    0.01863
   49     -3.28263    0.00156
   50     -3.13154    0.00034
   51     -2.78877    0.00001
   52     -2.67687    0.00000
   53     -2.37578    0.00000
   54     -2.25388    0.00000
   55     -1.78700    0.00000
   56     -1.62332    0.00000
   57     -0.89109    0.00000
   58     -0.15521    0.00000
   59      0.20880    0.00000
[...]
   83      9.11834    0.00000
   84      9.23056    0.00000
   85      9.34206    0.00000
   86      9.36310    0.00000
   87      9.52791    0.00000
   88      9.65879    0.00000
   89      9.81305    0.00000
   90      9.82657    0.00000
   91     10.01778    0.00000
   92     10.04846    0.00000
   93     10.17805    0.00000
   94     10.26897    0.00000
   95     10.50255    0.00000
   96     10.53070    0.00000
   97     10.58571    0.00000

Forces in eV/Ang:
  0 C     0.03716   -0.00744   -0.00796
  1 C     0.03329   -0.00490    0.03832
  2 C     0.05210   -0.03679   -0.05596
  3 C    -0.00792   -0.00982    0.01696
  4 C    -0.02856    0.00809    0.00379
  5 C     0.04013    0.06161    0.01411
  6 C    -0.00225   -0.01348   -0.02786
  7 C    -0.00840   -0.02761    0.00858
  8 C    -0.02158    0.03612   -0.02238
  9 C    -0.01062    0.03542   -0.04282
 10 C     0.00668    0.02125    0.02528
 11 C    -0.00206   -0.01052    0.03122
 12 C    -0.00002   -0.00021   -0.02676
 13 C     0.01136    0.00219    0.04525
 14 C     0.01824   -0.01360   -0.02924
 15 C     0.00593    0.00248    0.01514
 16 C    -0.04254   -0.01240    0.03400
 17 C    -0.00604   -0.01950   -0.02962
 18 C     0.00248   -0.00330    0.03250
 19 C    -0.03279   -0.01710   -0.03673
 20 C     0.00047   -0.00005   -0.05565
 21 C    -0.01044    0.01833    0.00163
 22 C    -0.00955   -0.00013    0.01123
 23 C    -0.01940    0.00270   -0.02922