User:   esb@s65n33.grendel.cscaa.dk
Date:   Thu Nov  9 10:43:02 2017
Arch:   x86_64
Pid:    74894
Python: 2.7.13
gpaw:   /home/esb/DFT/gpaw_git/gpaw
_gpaw:  /home/esb/DFT/gpaw_git/build/bin.linux-x86_64-2.7/gpaw-python
ase:    /home/esb/DFT/ase_git/ase (version 3.15.0b1)
numpy:  /comm/swstack/core/python/2.7.13/lib/python2.7/site-packages/numpy (version 1.13.3)
scipy:  /comm/swstack/core/python/2.7.13/lib/python2.7/site-packages/scipy (version 0.19.1)
units:  Angstrom and eV
cores:  16
Extra parameters: {'blacs': True}

Input parameters:
  basis: dzp
  gpts: [80 80 48]
  kpts: [1 1 1]
  maxiter: 99
  mixer: {backend: pulay,
          beta: 0.05,
          method: separate,
          nmaxold: 5,
          weight: 75}
  mode: lcao
  nbands: -50
  occupations: {name: fermi-dirac,
                width: 0.1}
  poissonsolver: {eps: 1e-07,
                  name: fd,
                  nn: 3,
                  relax: GS}
  xc: PBE

System changes: positions, numbers, cell, pbc, initial_charges, initial_magmoms

Initialize ...

C-setup:
  name: Carbon
  id: 4aa54d4b901d75f77cc0ea3eec22967b
  Z: 6
  valence: 4
  core: 2
  charge: 0.0
  file: /home/esb/DFT/gpaw-setups-0.8.7929/C.PBE.gz
  cutoffs: 0.64(comp), 1.14(filt), 1.14(core), lmax=2
  valence states:
                energy  radius
    2s(2.00)   -13.751   0.635
    2p(2.00)    -5.284   0.635
    *s          13.461   0.635
    *p          21.927   0.635
    *d           0.000   0.635

  LCAO basis set for C:
    Name: dzp
    File: /home/esb/DFT/gpaw-setups-0.8.7929/C.dzp.basis.gz
    Number of radial functions: 5
    Number of spherical harmonics: 13
      l=0, rc=5.5469 Bohr: 2s-sz confined orbital
      l=1, rc=6.6719 Bohr: 2p-sz confined orbital
      l=0, rc=3.0312 Bohr: 2s-dz split-valence wave
      l=1, rc=3.7500 Bohr: 2p-dz split-valence wave
      l=2, rc=6.6719 Bohr: d-type Gaussian polarization

Reference energy: -24663.074771

Spin-paired calculation

Occupation numbers:
  Fermi-Dirac: width=0.1000 eV

Convergence criteria:
  Maximum total energy change: 0.0005 eV / electron
  Maximum integral of absolute density change: 0.0001 electrons
  Maximum integral of absolute eigenstate change: 4e-08 eV^2
  Maximum number of iterations: 99

Symmetries present (total): 1

  ( 1  0  0)
  ( 0  1  0)
  ( 0  0  1)

1 k-point (Gamma)
1 k-point in the irreducible part of the Brillouin zone
       k-points in crystal coordinates                weights
   0:     0.00000000    0.00000000    0.00000000          1/1

Wave functions: LCAO
  Diagonalizer: Serial LAPACK
  Atomic Correction: dense with blas
  Datatype: float
  Eigensolver: None

LCAO using direct dense diagonalizer

Densities:
  Coarse grid: 80*80*48 grid
  Fine grid: 160*160*96 grid
  Total Charge: 0.000000

Density mixing:
  Method: separate
  Backend: pulay
  Linear mixing parameter: 0.05
  Mixing with 5 old densities
  Damping of long wave oscillations: 75

Hamiltonian:
  XC and Coulomb potentials evaluated on a 160*160*96 grid
  Using the PBE Exchange-Correlation functional
  Interpolation: tri-quintic (5. degree polynomial)
  Poisson solver: Gauss-Seidel solver with 6 multi-grid levels
    Coarsest grid: 5 x 5 x 3 points
    Stencil: 6*3+1=19 point O(h^6) finite-difference Laplacian
    Max iterations: 1000
    Tolerance: 1.000000e-07

Total number of cores used: 16
Domain decomposition: 2 x 4 x 2

Number of atoms: 24
Number of atomic orbitals: 312
Number of bands in calculation: 98
Bands to converge: occupied states only
Number of valence electrons: 96

... initialized

Initializing position-dependent things.

Density initialized from atomic densities
  /        |        C                             |
 *         |   C  C      C  C CC   C              |
 |         | C     C   C C   C                    |
 |         .----C----C---C--CC---CC---------------.
 |        /             C                        /
 |       /           C                          /

Positions:
   0 C      5.183862   10.704639    5.069115
   1 C      4.391942   10.011012    4.869007
   2 C      8.385241   10.649667    4.660461
   3 C      7.168617    9.859991    4.774223
   4 C      7.665108    8.451221    4.991007
   5 C      9.435229    9.924971    4.778218
   6 C      9.160730    8.535773    4.974009
   7 C     11.800996    5.108547    5.343198
   8 C     11.985390    6.396024    5.180474
   9 C      9.500400    6.078773    5.277858
  10 C     12.027032    7.964486    5.495532
  11 C     10.270527    8.070006    5.554155
  12 C     10.076360    3.837206    5.949045
  13 C     10.374948    4.866626    5.403511
  14 C      2.986778    8.283723    4.912047
  15 C      5.611449    6.916000    5.629533
  16 C      8.418039    3.469673    5.611555
  17 C      4.664396    6.401180    5.257773
  18 C      8.096512    6.039501    5.309670
  19 C      7.156822    7.164778    5.170795
  20 C      7.109542    4.046571    4.928735
  21 C      3.452831    9.469923    4.733607
  22 C      4.404252    7.285013    4.440119
  23 C      7.002796    5.080962    5.446294

Unit cell:
           periodic     x           y           z      points  spacing
  1. axis:    yes   16.000000    0.000000    0.000000    80     0.2000
  2. axis:    yes    0.000000   16.000000    0.000000    80     0.2000
  3. axis:    yes    0.000000    0.000000   10.000000    48     0.2083

Effective grid spacing dv^(1/3) = 0.2027

                     log10-error:    total        iterations:
           time      wfs    density  energy       fermi  poisson
iter:   1  10:43:04          +inf  -159.419169    3      6
iter:   2  10:43:05         -0.83  -156.729816    3      3
iter:   3  10:43:05         -0.88  -153.637019    3      3
iter:   4  10:43:06         -0.98  -151.875285    4      3
iter:   5  10:43:06         -1.09  -151.206711    31     3
iter:   6  10:43:07         -1.19  -150.687502    34     4
iter:   7  10:43:07         -1.48  -150.631189    3      3
iter:   8  10:43:08         -1.56  -150.503937    3      3
iter:   9  10:43:09         -1.76  -150.475912    3      2
iter:  10  10:43:09         -1.88  -150.454267    3      3
iter:  11  10:43:10         -2.15  -150.450408    3      2
iter:  12  10:43:10         -2.28  -150.445467    3      2
iter:  13  10:43:11         -2.50  -150.441323    3      2
iter:  14  10:43:11         -2.62  -150.438536    3      2
iter:  15  10:43:12         -2.80  -150.437430    2      2
iter:  16  10:43:12         -3.04  -150.441283    2      1
iter:  17  10:43:13         -3.13  -150.447741    2      1
iter:  18  10:43:13         -3.29  -150.442212    2      1
iter:  19  10:43:14         -3.36  -150.437907    2      1
iter:  20  10:43:14         -3.50  -150.437583    2      1
iter:  21  10:43:15         -3.58  -150.432545    2      1
iter:  22  10:43:15         -3.85  -150.434823    2      1
iter:  23  10:43:16         -4.00  -150.436939    2      1

Converged after 23 iterations.

Dipole moment: (-0.383667, -0.133665, -0.061919) |e|*Ang

Energy contributions relative to reference atoms: (reference = -24663.074771)

Kinetic:       +191.857875
Potential:     -172.297149
External:        +0.000000
XC:            -172.758868
Entropy (-ST):   -0.354312
Local:           +2.938358
Free energy:   -150.614095
Extrapolated:  -150.436939

Fermi level: -4.73858

 Band  Eigenvalues  Occupancy
    0    -24.47470    2.00000
    1    -22.89999    2.00000
    2    -22.41591    2.00000
    3    -21.56750    2.00000
    4    -21.39865    2.00000
    5    -20.40100    2.00000
    6    -19.66729    2.00000
    7    -18.89634    2.00000
    8    -18.56912    2.00000
    9    -18.21360    2.00000
   10    -17.32805    2.00000
   11    -16.51058    2.00000
   12    -16.10414    2.00000
   13    -15.65456    2.00000
   14    -15.22785    2.00000
   15    -14.86053    2.00000
   16    -14.56503    2.00000
   17    -13.66714    2.00000
   18    -12.68621    2.00000
   19    -12.31698    2.00000
   20    -11.90368    2.00000
   21    -11.42820    2.00000
   22    -11.36775    2.00000
   23    -11.15197    2.00000
   24    -10.78388    2.00000
   25    -10.33168    2.00000
   26    -10.22113    2.00000
   27    -10.04735    2.00000
   28     -9.95335    2.00000
   29     -9.76898    2.00000
   30     -9.61771    2.00000
   31     -9.02368    2.00000
   32     -8.76394    2.00000
   33     -8.10347    2.00000
   34     -7.91012    2.00000
   35     -7.84864    2.00000
   36     -7.37871    2.00000
   37     -7.35972    2.00000
   38     -6.81499    2.00000
   39     -6.61927    2.00000
   40     -6.36647    2.00000
   41     -6.17337    2.00000
   42     -6.13725    2.00000
   43     -5.68715    1.99985
   44     -5.58418    1.99957
   45     -5.30325    1.99297
   46     -5.08254    1.93784
   47     -4.78003    1.20435
   48     -4.68454    0.73619
   49     -4.45065    0.10637
   50     -4.27166    0.01858
   51     -4.10245    0.00345
   52     -3.95858    0.00082
   53     -3.25880    0.00000
   54     -2.90422    0.00000
   55     -2.75392    0.00000
   56     -2.31620    0.00000
   57     -1.82633    0.00000
   58     -1.67335    0.00000
   59     -1.29249    0.00000
[...]
   83      8.03041    0.00000
   84      8.32431    0.00000
   85      8.38508    0.00000
   86      8.58312    0.00000
   87      8.78994    0.00000
   88      8.79994    0.00000
   89      9.12200    0.00000
   90      9.19939    0.00000
   91      9.29194    0.00000
   92      9.57730    0.00000
   93      9.67240    0.00000
   94      9.77377    0.00000
   95      9.92608    0.00000
   96     10.10020    0.00000
   97     10.16993    0.00000

Forces in eV/Ang:
  0 C    26.46062   16.89704    4.62855
  1 C     1.85184   -1.38327   -1.89518
  2 C    -1.82801   -0.19059    0.23106
  3 C    -0.80599    1.10091    0.72813
  4 C    -0.90964    0.65635   -0.27476
  5 C    -0.20972    2.50025   -0.92127
  6 C     0.64040    1.93313   -0.33061
  7 C     1.13903    2.48772   -0.85371
  8 C     0.35177    4.14682    1.34041
  9 C    -0.94143   -0.16585    0.56136
 10 C    -3.68475   -3.97747   -0.65093
 11 C     3.65485   -6.37819   -0.60699
 12 C    -8.33614  -13.85647    5.20971
 13 C     3.10735   12.59959   -5.46060
 14 C     1.31400   -2.25210   -1.73440
 15 C    19.58820    6.92204    5.07974
 16 C    -0.02157    0.98715   -0.70850
 17 C   -11.93319  -13.35528    0.36932
 18 C    -2.23941    3.03415    0.85440
 19 C    -1.51582    2.07896    2.29480
 20 C     4.26785  -16.29598   -4.33889
 21 C   -23.79115  -15.43209   -2.69762
 22 C    -7.42495    7.08934   -6.37659
 23 C     1.29933   10.79463    5.60492

System changes: positions

[...]

Density initialized from wave functions
  /        |        C                             |
 *         |   C  C      C  C CC   C              |
 |         | C     C   C C   C                    |
 |         .----C----C---C--CC---CC---------------.
 |        /             C                        /
 |       /           C                          /

[...]

Density initialized from wave functions
  /        |         C                            |
 *         |   C  C      C  C CC   C              |
 |         | C     C   C C   C                    |
 |         .----C----C--C---CC---CC---------------.
 |        /             C                        /
 |       /           C                          /

[...]

Density initialized from wave functions
  /        |         C                            |
 *         |   C  C      C  C CC   C              |
 |         | C     C   C C   C                    |
 |         .----C----C--C---CC---CC---------------.
 |        /             C                        /
 |       /           C                          /

[...]

Density initialized from wave functions
  /        |         C                            |
 *         |   C  C      C  C CC   C              |
 |         | C     C   C C   C                    |
 |         .----C----C--C---CC---CC---------------.
 |        /             C   C                    /
 |       /           C                          /

[...]

Density initialized from wave functions
  /        |         C                            |
 *         |   C  C      C  C CC   C              |
 |         | C     C   C C   C                    |
 |         .----C----C--C---CC---CC---------------.
 |        /             C  C                     /
 |       /           C                          /

[...]

Density initialized from wave functions
  /        |         C                            |
 *         |   C  C      C  C CC                  |
 |         | C     C   C C   C     C              |
 |         .----C----C--C---CC---CC---------------.
 |        /             C  C                     /
 |       /           C                          /

[...]

Density initialized from wave functions
  /        |         C                            |
 *         |   C  C      C  C CC                  |
 |         |  C    C   C C   C     C              |
 |         .----C----C--C---CC---CC---------------.
 |        /             C  C                     /
 |       /           C                          /

[...]

Density initialized from wave functions
  /        |         C                            |
 *         |   C  C      C  C C                   |
 |         |  C    C   C C   C C   C              |
 |         .----C----C--C---CC---CC---------------.
 |        /             C  C                     /
 |       /           C                          /

[...]

Density initialized from wave functions
  /        |         C                            |
 *         |   C  C     C   C C                   |
 |         |  C    C   C C   C C   C              |
 |         .----C----C--C---CC---CC---------------.
 |        /             C  C                     /
 |       /           C                          /

[...]

Density initialized from wave functions
  /        |         C                            |
 *         |   C  C     C   C C                   |
 |         |  C     C  C C   C C   C              |
 |         .---CC----C---C--CC---CC---------------.
 |        /             C  C                     /
 |       /           C                          /

[...]

Density initialized from wave functions
  /        |          C                           |
 *         |   C  C     C   C C                   |
 |         |  C     C  C C   C C  C               |
 |         .---CC----C---C--CC---CC---------------.
 |        /             C  C                     /
 |       /           C                          /

[...]

Density initialized from wave functions
  /        |          C                           |
 *         |   C  C     C   C C                   |
 |         |  C     C  C C   C C  C               |
 |         .---CC----C---C--CC---CC---------------.
 |        /          C  C  C                     /

[...]

Density initialized from wave functions
  /        |          C                           |
 *         |   C  C      C  C C                   |
 |         |  C     C  C C   CC   C               |
 |         .---CC----C---C--CC---CC---------------.
 |        /          C  C  C                     /

[...]

Density initialized from wave functions
  /        |          C                           |
 *         |   C  C      C  C C                   |
 |         |  C     C  C C   CC   C               |
 |         .---CC----C---C--CC---CC---------------.
 |        /          C  C  C                     /

[...]

Density initialized from wave functions
  /        |          C                           |
 *         |   C  C      C  C C                   |
 |         |  C     C  C C   CC   C               |
 |         .---CC-----C--C--CC---CC---------------.
 |        /          C  C  C                     /

[...]

Density initialized from wave functions
  /        |          C                           |
 *         |   C  C      C  C C                   |
 |         |  C        C C   CC   C               |
 |         .---CC---C-C--C--CC---CC---------------.
 |        /          C  C  C                     /

[...]

Density initialized from wave functions
  /        |          C                           |
 *         |   C  C      C  C C                   |
 |         |  C        C     CC   C               |
 |         .---CC---C-C--C--C-C--CC---------------.
 |        /          C  C  C                     /

[...]

Density initialized from wave functions
  /        |          C                           |
 *         |   C  C      C  C C                   |
 |         |  C        C     CC   C               |
 |         .--C-C---C-C--C--C-C--CC---------------.
 |        /          C  C  C                     /

[...]

Density initialized from wave functions
  /        |          C                           |
 *         |   C  C      C  CCC                   |
 |         |  C        C      C   C               |
 |         .--C-C---C-C--C--C-C--CC---------------.
 |        /          C  C  C                     /

[...]

Density initialized from wave functions
  /        |          C                           |
 *         |   C   C     C  CCC                   |
 |         |  C        C C    C   C               |
 |         .--C-C---C-C-----C-C--CC---------------.
 |        /          C  C  C                     /

[...]

Density initialized from wave functions
 *         |   C   C  C  C  CCC                   |
 |         |  C        C C    C   C               |
 |         .--C-C---C-C-----C-C--CC---------------.
 |        /          C  C  C                     /

[...]

Density initialized from wave functions
 *         |   C   C  C  C  CCC                   |
 |         |  C        C C    C   C               |
 |         .--C-C---C-C-----C-C--CC---------------.
 |        /          C  C  C                     /

[...]

Density initialized from wave functions
 *         |   C   C  C  C  CCC                   |
 |         |  C        C C    C   C               |
 |         .--C-C---CC------C-C--CC---------------.
 |        /          C  C  C                     /

[...]

Density initialized from wave functions
 *         |   C   C  C  C  CCC                   |
 |         |  C        C C    C   C               |
 |         .--C-C---CC------C-C--CC---------------.
 |        /          C  C  C                     /

[...]

Density initialized from wave functions
 *         |       C  C  C  CCC                   |
 |         |  CC       C      C   C               |
 |         .--C-C---CC---C--C-C--CC---------------.
 |        /          C  C  C                     /

[...]

Density initialized from wave functions
 *         |       C  C  C  CCC                   |
 |         |  CC       C      C   C               |
 |         .--C-C---CC---C--C-C--CC---------------.
 |        /          C  C  C                     /

[...]

Density initialized from wave functions
  /        |                C                     |
 *         |       C  C  C   CC                   |
 |         |  CC       C      C   C               |
 |         .--C-C---C-C--C--C-C--C----------------.
 |        /          C  C  C                     /

[...]

Density initialized from wave functions
  /        |                C                     |
 *         |       C  C  C   CC                   |
 |         |  CC       C      C   C               |
 |         .--C-C---C-C--C--C-C--C----------------.
 |        /          C  C  C                     /

[...]

Density initialized from wave functions
  /        |                C                     |
 *         |      C   C  C   CC                   |
 |         |  CC       C      C   C               |
 |         .--C-C---CC---C--C-C--C----------------.
 |        /          C  C  C                     /

[...]

Density initialized from wave functions
  /        |                C                     |
 *         |      C   C  C   CC                   |
 |         |  CC       C      C   C               |
 |         .--C--C--CC---C--C-C--C----------------.
 |        /          C  C  C                     /

[...]

Density initialized from wave functions
  /        |                C                     |
 *         |      C   C  C   CC                   |
 |         |  CC       C      C   C               |
 |         .--C--C--CC---C--C-C--C----------------.
 |        /          C  C  C                     /

[...]

Density initialized from wave functions
  /        |                C                     |
 *         |      C   C  C   CC                   |
 |         | C C       C C    C   C               |
 |         .--C--C--CC---C--C-C--C----------------.
 |        /          C  C  C                     /

[...]

Density initialized from wave functions
  /        |                C                     |
 *         |      C   C  C   CC                   |
 |         | C C       C C    C   C               |
 |         .--C--C--CC---C--C-C--C----------------.
 |        /          C  C  C                     /

[...]

System changes: positions

Initializing position-dependent things.

Density initialized from wave functions
  /        |                C                     |
 *         |      C   C  C   CC                   |
 |         |  CC       C C    C   C               |
 |         .--C--C--CC---C--C-C--C----------------.
 |        /          C  C  C                     /

Positions:
   0 C      5.797966   10.265449    4.800566
   1 C      4.532387   10.204451    4.671582
   2 C      8.322452   10.799631    4.905797
   3 C      7.127911    9.967805    4.938283
   4 C      7.666474    8.572384    5.109186
   5 C      9.393743   10.103728    4.992378
   6 C      9.160591    8.700760    5.134307
   7 C     11.873246    5.324205    5.462767
   8 C     12.035572    6.618366    5.330457
   9 C      9.554128    6.248259    5.375378
  10 C     11.523567    7.832775    5.202255
  11 C     10.082990    7.620054    5.238372
  12 C      9.801435    3.791466    5.585795
  13 C     10.451354    5.051500    5.482909
  14 C      3.013843    8.255773    4.662749
  15 C      6.073191    6.272893    5.238107
  16 C      8.521908    3.596366    5.575987
  17 C      4.728579    6.433633    5.065028
  18 C      8.152874    6.166825    5.369689
  19 C      7.189280    7.268923    5.222049
  20 C      7.183969    3.760243    5.528767
  21 C      3.423215    9.473883    4.604480
  22 C      3.665755    7.106361    4.861808
  23 C      7.081383    5.172433    5.407106

Unit cell:
           periodic     x           y           z      points  spacing
  1. axis:    yes   16.000000    0.000000    0.000000    80     0.2000
  2. axis:    yes    0.000000   16.000000    0.000000    80     0.2000
  3. axis:    yes    0.000000    0.000000   10.000000    48     0.2083

Effective grid spacing dv^(1/3) = 0.2027

                     log10-error:    total        iterations:
           time      wfs    density  energy       fermi  poisson
iter:   1  10:50:58          +inf  -182.736330    2      5
iter:   2  10:50:59         -2.95  -182.735993    2      1
iter:   3  10:50:59         -3.07  -182.735357    2      1
iter:   4  10:51:00         -3.23  -182.735225    2      1
iter:   5  10:51:00         -3.41  -182.735188    2      1
iter:   6  10:51:01         -3.40  -182.733881    2      1
iter:   7  10:51:01         -3.75  -182.734220    2      1
iter:   8  10:51:02         -3.66  -182.734454    2      1
iter:   9  10:51:02         -4.18  -182.733908    2      1

Converged after 9 iterations.

Dipole moment: (-0.714621, 0.460864, -0.065917) |e|*Ang

Energy contributions relative to reference atoms: (reference = -24663.074771)

Kinetic:       +111.431755
Potential:     -119.910425
External:        +0.000000
XC:            -177.113122
Entropy (-ST):   -0.261848
Local:           +2.988808
Free energy:   -182.864832
Extrapolated:  -182.733908

Fermi level: -4.37441

 Band  Eigenvalues  Occupancy
    0    -23.00466    2.00000
    1    -22.05589    2.00000
    2    -21.64545    2.00000
    3    -20.96971    2.00000
    4    -20.46070    2.00000
    5    -19.81526    2.00000
    6    -19.61500    2.00000
    7    -19.21035    2.00000
    8    -18.64099    2.00000
    9    -18.23339    2.00000
   10    -17.98957    2.00000
   11    -17.26183    2.00000
   12    -16.49545    2.00000
   13    -16.37637    2.00000
   14    -15.22701    2.00000
   15    -15.02784    2.00000
   16    -14.59869    2.00000
   17    -13.90244    2.00000
   18    -13.26333    2.00000
   19    -13.07646    2.00000
   20    -12.71336    2.00000
   21    -12.02411    2.00000
   22    -11.61542    2.00000
   23    -11.34467    2.00000
   24    -10.79436    2.00000
   25    -10.66888    2.00000
   26    -10.24675    2.00000
   27    -10.11252    2.00000
   28     -9.65779    2.00000
   29     -9.51906    2.00000
   30     -9.38316    2.00000
   31     -9.15063    2.00000
   32     -9.12563    2.00000
   33     -8.97212    2.00000
   34     -8.45700    2.00000
   35     -7.80738    2.00000
   36     -7.45904    2.00000
   37     -7.39408    2.00000
   38     -6.96069    2.00000
   39     -6.87311    2.00000
   40     -6.80423    2.00000
   41     -6.30575    2.00000
   42     -6.18058    2.00000
   43     -6.11646    2.00000
   44     -5.55838    1.99999
   45     -5.48290    1.99997
   46     -4.83295    1.97981
   47     -4.47253    1.45470
   48     -4.27288    0.53188
   49     -3.96505    0.03281
   50     -3.59839    0.00085
   51     -3.06718    0.00000
   52     -2.69308    0.00000
   53     -1.95733    0.00000
   54     -1.74375    0.00000
   55     -1.66208    0.00000
   56     -1.57299    0.00000
   57     -1.23721    0.00000
   58     -0.95930    0.00000
   59     -0.53959    0.00000
[...]
   83      8.85731    0.00000
   84      9.01592    0.00000
   85      9.12552    0.00000
   86      9.22295    0.00000
   87      9.28285    0.00000
   88      9.38684    0.00000
   89      9.39220    0.00000
   90      9.58097    0.00000
   91      9.79998    0.00000
   92      9.95296    0.00000
   93     10.13707    0.00000
   94     10.19347    0.00000
   95     10.25763    0.00000
   96     10.36711    0.00000
   97     10.39796    0.00000

Forces in eV/Ang:
  0 C     0.00861    0.00710   -0.00775
  1 C    -0.05423   -0.00404   -0.01111
  2 C     0.00695    0.02768   -0.00386
  3 C     0.00684    0.04313   -0.01773
  4 C     0.01263   -0.02483   -0.00954
  5 C    -0.00069    0.01638   -0.00504
  6 C     0.02013    0.01686   -0.00856
  7 C    -0.00257    0.01752   -0.00057
  8 C    -0.06608    0.03570    0.00514
  9 C     0.00432   -0.01754    0.00343
 10 C    -0.04902   -0.01627    0.03677
 11 C     0.01927   -0.00303    0.01942
 12 C    -0.07313   -0.00021    0.00391
 13 C     0.02832   -0.02892    0.03624
 14 C     0.04195   -0.01779    0.04207
 15 C    -0.02507   -0.02658   -0.05194
 16 C     0.00325    0.01190   -0.00499
 17 C    -0.02565    0.00996   -0.00793
 18 C     0.00276   -0.02041   -0.02420
 19 C     0.00576   -0.03298    0.00645
 20 C     0.04564    0.01761    0.03340
 21 C     0.00030    0.00526   -0.01279
 22 C     0.01741    0.02723    0.01520
 23 C    -0.00189   -0.04188   -0.02511