User:   esb@s66n12.grendel.cscaa.dk
Date:   Thu Nov  9 10:12:34 2017
Arch:   x86_64
Pid:    114969
Python: 2.7.13
gpaw:   /home/esb/DFT/gpaw_git/gpaw
_gpaw:  /home/esb/DFT/gpaw_git/build/bin.linux-x86_64-2.7/gpaw-python
ase:    /home/esb/DFT/ase_git/ase (version 3.15.0b1)
numpy:  /comm/swstack/core/python/2.7.13/lib/python2.7/site-packages/numpy (version 1.13.3)
scipy:  /comm/swstack/core/python/2.7.13/lib/python2.7/site-packages/scipy (version 0.19.1)
units:  Angstrom and eV
cores:  16
Extra parameters: {'blacs': True}

Input parameters:
  basis: dzp
  gpts: [80 80 48]
  kpts: [1 1 1]
  maxiter: 99
  mixer: {backend: pulay,
          beta: 0.05,
          method: separate,
          nmaxold: 5,
          weight: 75}
  mode: lcao
  nbands: -50
  occupations: {name: fermi-dirac,
                width: 0.1}
  poissonsolver: {eps: 1e-07,
                  name: fd,
                  nn: 3,
                  relax: GS}
  xc: PBE

System changes: positions, numbers, cell, pbc, initial_charges, initial_magmoms

Initialize ...

C-setup:
  name: Carbon
  id: 4aa54d4b901d75f77cc0ea3eec22967b
  Z: 6
  valence: 4
  core: 2
  charge: 0.0
  file: /home/esb/DFT/gpaw-setups-0.8.7929/C.PBE.gz
  cutoffs: 0.64(comp), 1.14(filt), 1.14(core), lmax=2
  valence states:
                energy  radius
    2s(2.00)   -13.751   0.635
    2p(2.00)    -5.284   0.635
    *s          13.461   0.635
    *p          21.927   0.635
    *d           0.000   0.635

  LCAO basis set for C:
    Name: dzp
    File: /home/esb/DFT/gpaw-setups-0.8.7929/C.dzp.basis.gz
    Number of radial functions: 5
    Number of spherical harmonics: 13
      l=0, rc=5.5469 Bohr: 2s-sz confined orbital
      l=1, rc=6.6719 Bohr: 2p-sz confined orbital
      l=0, rc=3.0312 Bohr: 2s-dz split-valence wave
      l=1, rc=3.7500 Bohr: 2p-dz split-valence wave
      l=2, rc=6.6719 Bohr: d-type Gaussian polarization

Reference energy: -24663.074771

Spin-paired calculation

Occupation numbers:
  Fermi-Dirac: width=0.1000 eV

Convergence criteria:
  Maximum total energy change: 0.0005 eV / electron
  Maximum integral of absolute density change: 0.0001 electrons
  Maximum integral of absolute eigenstate change: 4e-08 eV^2
  Maximum number of iterations: 99

Symmetries present (total): 1

  ( 1  0  0)
  ( 0  1  0)
  ( 0  0  1)

1 k-point (Gamma)
1 k-point in the irreducible part of the Brillouin zone
       k-points in crystal coordinates                weights
   0:     0.00000000    0.00000000    0.00000000          1/1

Wave functions: LCAO
  Diagonalizer: Serial LAPACK
  Atomic Correction: dense with blas
  Datatype: float
  Eigensolver: None

LCAO using direct dense diagonalizer

Densities:
  Coarse grid: 80*80*48 grid
  Fine grid: 160*160*96 grid
  Total Charge: 0.000000

Density mixing:
  Method: separate
  Backend: pulay
  Linear mixing parameter: 0.05
  Mixing with 5 old densities
  Damping of long wave oscillations: 75

Hamiltonian:
  XC and Coulomb potentials evaluated on a 160*160*96 grid
  Using the PBE Exchange-Correlation functional
  Interpolation: tri-quintic (5. degree polynomial)
  Poisson solver: Gauss-Seidel solver with 6 multi-grid levels
    Coarsest grid: 5 x 5 x 3 points
    Stencil: 6*3+1=19 point O(h^6) finite-difference Laplacian
    Max iterations: 1000
    Tolerance: 1.000000e-07

Total number of cores used: 16
Domain decomposition: 2 x 4 x 2

Number of atoms: 24
Number of atomic orbitals: 312
Number of bands in calculation: 98
Bands to converge: occupied states only
Number of valence electrons: 96

... initialized

Initializing position-dependent things.

Density initialized from atomic densities
  /        |    C     C  C                        |
 *         |        C      C  C  C                |
 |         |  C    C C   C  C     CC              |
 |         .-C-C------C--------C------------------.
 |        /          C C  C                      /
 |       /     C C                              /

Positions:
   0 C     10.773867    6.150322    5.188351
   1 C     11.782285    6.925386    5.174675
   2 C     11.782326    8.162507    4.597059
   3 C     10.958559    9.162022    4.984830
   4 C      9.684321    9.179426    5.015138
   5 C      5.378194    8.712916    5.802876
   6 C      7.474601    9.965105    5.679214
   7 C      6.241915    9.843237    5.865144
   8 C      7.701780    7.586696    5.400398
   9 C      6.237274    7.531132    5.555899
  10 C      3.962109    8.671975    5.906811
  11 C      8.368230    8.896932    5.361862
  12 C      3.430618    6.367236    5.224453
  13 C      4.721990    4.126056    4.903132
  14 C      4.538842    5.494375    5.231172
  15 C      5.740551    3.387568    4.956784
  16 C      3.535561    7.625926    5.527187
  17 C      7.036786    3.769117    5.384702
  18 C      5.881275    6.011394    5.643247
  19 C      7.108986    5.212934    5.743139
  20 C      8.274157    3.142138    5.558936
  21 C      9.619129    4.987979    6.268930
  22 C      8.383408    5.815244    6.177413
  23 C      9.365741    3.655230    5.932901

Unit cell:
           periodic     x           y           z      points  spacing
  1. axis:    yes   16.000000    0.000000    0.000000    80     0.2000
  2. axis:    yes    0.000000   16.000000    0.000000    80     0.2000
  3. axis:    yes    0.000000    0.000000   10.000000    48     0.2083

Effective grid spacing dv^(1/3) = 0.2027

                     log10-error:    total        iterations:
           time      wfs    density  energy       fermi  poisson
iter:   1  10:12:36          +inf  -181.943453    3      6
iter:   2  10:12:37         -0.90  -180.948715    3      3
iter:   3  10:12:37         -0.93  -179.374773    32     4
iter:   4  10:12:38         -1.08  -178.945928    3      2
iter:   5  10:12:39         -1.09  -178.880751    30     3
iter:   6  10:12:39         -1.25  -177.835082    3      3
iter:   7  10:12:40         -1.38  -177.785947    4      3
iter:   8  10:12:40         -1.45  -177.429196    3      3
iter:   9  10:12:41         -1.62  -177.290188    4      2
iter:  10  10:12:42         -1.68  -177.129670    3      3
iter:  11  10:12:42         -1.89  -177.145575    2      2
iter:  12  10:12:43         -2.00  -177.124715    3      3
iter:  13  10:12:44         -2.16  -177.092705    3      2
iter:  14  10:12:44         -2.33  -177.096857    3      2
iter:  15  10:12:45         -2.55  -177.097091    3      2
iter:  16  10:12:45         -2.68  -177.093517    2      2
iter:  17  10:12:46         -2.74  -177.087196    3      2
iter:  18  10:12:47         -3.08  -177.094678    2      1
iter:  19  10:12:47         -3.15  -177.088244    2      1
iter:  20  10:12:48         -3.30  -177.091441    2      1
iter:  21  10:12:48         -3.36  -177.108074    2      1
iter:  22  10:12:49         -3.71  -177.092841    2      1
iter:  23  10:12:49         -3.81  -177.091114    2      1
iter:  24  10:12:50         -3.86  -177.093413    2      1
iter:  25  10:12:51         -3.89  -177.090713    2      1
iter:  26  10:12:51         -3.99  -177.090144    2      1
iter:  27  10:12:52         -4.18  -177.091779    2      1

Converged after 27 iterations.

Dipole moment: (0.409968, -0.036636, 0.051518) |e|*Ang

Energy contributions relative to reference atoms: (reference = -24663.074771)

Kinetic:       +100.246666
Potential:     -109.392218
External:        +0.000000
XC:            -170.846099
Entropy (-ST):   -0.169562
Local:           +2.984653
Free energy:   -177.176560
Extrapolated:  -177.091779

Fermi level: -4.24788

 Band  Eigenvalues  Occupancy
    0    -22.25925    2.00000
    1    -21.75233    2.00000
    2    -21.25348    2.00000
    3    -20.87568    2.00000
    4    -20.58037    2.00000
    5    -19.60825    2.00000
    6    -19.46828    2.00000
    7    -19.03574    2.00000
    8    -18.33251    2.00000
    9    -18.05294    2.00000
   10    -17.74650    2.00000
   11    -16.77221    2.00000
   12    -16.39444    2.00000
   13    -15.73354    2.00000
   14    -15.17370    2.00000
   15    -14.82422    2.00000
   16    -14.08993    2.00000
   17    -13.27561    2.00000
   18    -13.11302    2.00000
   19    -12.73705    2.00000
   20    -12.35915    2.00000
   21    -12.00454    2.00000
   22    -11.92475    2.00000
   23    -11.23816    2.00000
   24    -11.02236    2.00000
   25    -10.67399    2.00000
   26    -10.15655    2.00000
   27     -9.88926    2.00000
   28     -9.58033    2.00000
   29     -9.26104    2.00000
   30     -8.98922    2.00000
   31     -8.92793    2.00000
   32     -8.62545    2.00000
   33     -8.27016    2.00000
   34     -7.90714    2.00000
   35     -7.62011    2.00000
   36     -7.32452    2.00000
   37     -7.24879    2.00000
   38     -7.15216    2.00000
   39     -6.75440    2.00000
   40     -6.52115    2.00000
   41     -6.45892    2.00000
   42     -6.26804    2.00000
   43     -5.96439    2.00000
   44     -5.65578    2.00000
   45     -5.54437    2.00000
   46     -4.58291    1.93223
   47     -4.47776    1.81755
   48     -4.05026    0.24346
   49     -3.66454    0.00584
   50     -3.47452    0.00088
   51     -3.17329    0.00004
   52     -2.89481    0.00000
   53     -2.75361    0.00000
   54     -2.23262    0.00000
   55     -2.18281    0.00000
   56     -1.79059    0.00000
   57     -1.17200    0.00000
   58     -0.94260    0.00000
   59     -0.73472    0.00000
[...]
   83      8.98190    0.00000
   84      9.04584    0.00000
   85      9.18090    0.00000
   86      9.30294    0.00000
   87      9.38908    0.00000
   88      9.54603    0.00000
   89      9.59311    0.00000
   90      9.75465    0.00000
   91      9.83398    0.00000
   92      9.99867    0.00000
   93     10.01274    0.00000
   94     10.03004    0.00000
   95     10.19445    0.00000
   96     10.27058    0.00000
   97     10.30417    0.00000

Forces in eV/Ang:
  0 C    -1.37056   -4.84139    2.95179
  1 C     0.35464    0.65827   -0.15991
  2 C    -0.08800    0.58388   -0.00647
  3 C     0.17224   -0.12088   -0.13484
  4 C    -0.00160   -0.02585    0.18459
  5 C     0.42025    0.73015    0.21625
  6 C     0.11329   -0.15088   -0.34111
  7 C    -0.45582   -0.18227   -0.00395
  8 C     0.18190   -0.39533    2.19320
  9 C     1.65324   -2.57548    0.89916
 10 C     3.77833    8.83943    2.63877
 11 C     0.24945    0.08590    0.21614
 12 C    -0.74723   -1.38532   -0.15848
 13 C    -0.08504   -0.20791   -0.05406
 14 C     0.92622    0.71682    0.34434
 15 C     0.18243   -0.09838    0.01241
 16 C    -3.60338   -8.83773   -2.77869
 17 C    -0.41278   -0.06027   -0.07609
 18 C     0.31435    2.07604   -1.10394
 19 C    -0.25869   -0.44285    1.02408
 20 C    -0.14970   -0.77119    0.79134
 21 C     0.40674    4.80084   -3.44188
 22 C    -1.91331    0.67322   -2.78054
 23 C     0.33850    0.93841   -0.35911

System changes: positions

[...]

Density initialized from wave functions
  /        |    C     C  C                        |
 *         |        C      C  C  C                |
 |         |  C    C C   C  C     CC              |
 |         .-C--C-----C--------C------------------.
 |        /          C C  C                      /
 |       /     C C                              /

[...]

Density initialized from wave functions
  /        |    C     C  C                        |
 *         |        C      C  C  C                |
 |         |  C    C C   C  C     CC              |
 |         .-C--C-----C--------C------------------.
 |        /         C  C  C                      /
 |       /     C C                              /

[...]

Density initialized from wave functions
  /        |    C     C  C                        |
 *         |        C      C  C  C                |
 |         |  C    C C   C        CC              |
 |         .-C--C-----C-----C--C------------------.
 |        /         C  C  C                      /
 |       /     C C                              /

[...]

Density initialized from wave functions
  /        |    C     C  C                        |
 *         |        C      C  C  C                |
 |         |  C      C   C        CC              |
 |         .-C--C--C--C-----C--C------------------.
 |        /         C  C  C                      /
 |       /     C C                              /

[...]

Density initialized from wave functions
  /        |    C     C  C                        |
 *         |        C      C  C  C                |
 |         |  C      C   C        CC              |
 |         .-C--C--C-C------C--C------------------.
 |        /         C  C  C                      /
 |       /     C C                              /

[...]

Density initialized from wave functions
  /        |    C     C  C                        |
 *         |        C      C  C  C                |
 |         |  C      C   C        CC              |
 |         .-C--C--C-C------C--C------------------.
 |        /          C C  C                      /
 |       /     C C                              /

[...]

Density initialized from wave functions
  /        |          C  C                        |
 *         |    C   C    C C  C  C                |
 |         |  C      C   C        CC              |
 |         .-C--C--C-C------C--C------------------.
 |        /          C C  C                      /
 |       /     C C                              /

[...]

Density initialized from wave functions
  /        |          C  C                        |
 *         |    C   CC   C C  C  C                |
 |         |  C          C        CC              |
 |         .-C--C--C-C------C--C------------------.
 |        /          C C  C                      /
 |       /     C C                              /

[...]

Density initialized from wave functions
  /        |          C  C                        |
 *         |    C   CC   C C  C  C                |
 |         |  C          C        CC              |
 |         .-C--C--C-C------C--C------------------.
 |        /          C C  C                      /
 |       /     C C                              /

[...]

Density initialized from wave functions
  /        |          C   C                       |
 *         |    C   CC   C C  C  C                |
 |         |  C          C        CC              |
 |         .-C--C--C-C------C--C------------------.
 |        /    C     C C  C                      /
 |       /       C                              /

[...]

Density initialized from wave functions
  /        |          C   C                       |
 *         |    C   CC   C C  C  C                |
 |         |  C          C        CC              |
 |         .-C--C--C-C------C--C------------------.
 |        /    C     C C  C                      /
 |       /       C                              /

[...]

Density initialized from wave functions
  /        |          C   C                       |
 *         |    C   CC     C  C  C                |
 |         |  C          C        CC              |
 |         .-C-C---C-C------C--C------------------.
 |        /    C     C C  C                      /
 |       /       C                              /

[...]

Density initialized from wave functions
  /        |          C   C                       |
 *         |    C   CC     C  C  C                |
 |         |  C          C        CC              |
 |         .-C-C---C-C------C--C------------------.
 |        /    C    C  C  C                      /
 |       /       C                              /

[...]

Density initialized from wave functions
  /        |           C  C                       |
 *         |    C   C      C  C  C                |
 |         |  C      C   C        CC              |
 |         .-C-C---C-C------C--C------------------.
 |        /    C    C  C  C                      /
 |       /       C                              /

[...]

Density initialized from wave functions
  /        |          C   C                       |
 *         |    C   C      C  C  C                |
 |         |  C      C   C        CC              |
 |         .-C-C---C-C------C--C------------------.
 |        /    C     C C  C                      /
 |       /       C                              /

[...]

Density initialized from wave functions
  /        |          C   C                       |
 *         |    C   C      C  C  C                |
 |         |  C      C   C        CC              |
 |         .-C-C---C-C---C--C--C------------------.
 |        /    C     C C  C                      /
 |       /       C                              /

[...]

Density initialized from wave functions
  /        |          C   C                       |
 *         |    C   C      C  C  C                |
 |         |  C      C   C        CC              |
 |         .-C-C---C-C---C--C--C------------------.
 |        /    C    C  C  C                      /
 |       /       C                              /

[...]

Density initialized from wave functions
  /        |          C   C                       |
 *         |    C   C      C  C  C                |
 |         |  C      C   C        CC              |
 |         .-C-C---C-C---C--C--C------------------.
 |        /    C C  C  C  C                      /

[...]

System changes: positions

Initializing position-dependent things.

Density initialized from wave functions
  /        |          C   C                       |
 *         |    C   C      C  C   C               |
 |         |  C      C   C        CC              |
 |         .-C-C---C-C---C--C--C------------------.
 |        /    C C  C  C  C                      /

Positions:
   0 C     10.781034    6.038939    5.477191
   1 C     11.788331    6.811605    5.458679
   2 C     11.893490    8.024287    4.833284
   3 C     11.028044    9.011372    5.179083
   4 C      9.758182    9.078984    5.190981
   5 C      5.405317    8.721229    5.685631
   6 C      7.529235    9.913218    5.765671
   7 C      6.280703    9.834480    5.837217
   8 C      7.727364    7.538595    5.522244
   9 C      6.255830    7.514830    5.558113
  10 C      3.987420    8.708039    5.621763
  11 C      8.424069    8.832575    5.500678
  12 C      3.232529    6.222388    5.404428
  13 C      4.648336    4.083842    5.365185
  14 C      4.462541    5.494339    5.413845
  15 C      5.662442    3.338419    5.363979
  16 C      3.481027    7.509270    5.492007
  17 C      6.986875    3.836130    5.419932
  18 C      5.811360    6.108898    5.467848
  19 C      7.008338    5.301214    5.448808
  20 C      8.302403    3.328393    5.472725
  21 C      9.512620    5.455780    5.502827
  22 C      8.202076    6.131790    5.495179
  23 C      9.332361    4.047370    5.476029

Unit cell:
           periodic     x           y           z      points  spacing
  1. axis:    yes   16.000000    0.000000    0.000000    80     0.2000
  2. axis:    yes    0.000000   16.000000    0.000000    80     0.2000
  3. axis:    yes    0.000000    0.000000   10.000000    48     0.2083

Effective grid spacing dv^(1/3) = 0.2027

                     log10-error:    total        iterations:
           time      wfs    density  energy       fermi  poisson
iter:   1  10:20:27          +inf  -184.534623    2      4
iter:   2  10:20:28         -2.84  -184.533658    2      1
iter:   3  10:20:28         -2.95  -184.532096    2      1
iter:   4  10:20:29         -3.21  -184.532322    2      1
iter:   5  10:20:30         -3.36  -184.530195    1      1
iter:   6  10:20:30         -3.37  -184.530771    2      1
iter:   7  10:20:31         -3.77  -184.531487    2      1
iter:   8  10:20:31         -3.77  -184.528899    2      1
iter:   9  10:20:32         -4.16  -184.528688    1      1

Converged after 9 iterations.

Dipole moment: (0.714106, -0.044793, 0.060659) |e|*Ang

Energy contributions relative to reference atoms: (reference = -24663.074771)

Kinetic:       +113.790727
Potential:     -122.793680
External:        +0.000000
XC:            -178.483086
Entropy (-ST):   -0.085913
Local:           +3.000307
Free energy:   -184.571645
Extrapolated:  -184.528688

Fermi level: -4.24624

 Band  Eigenvalues  Occupancy
    0    -22.58793    2.00000
    1    -21.66286    2.00000
    2    -21.41094    2.00000
    3    -20.92844    2.00000
    4    -20.46144    2.00000
    5    -20.18923    2.00000
    6    -19.58472    2.00000
    7    -19.38251    2.00000
    8    -18.34147    2.00000
    9    -18.17910    2.00000
   10    -17.53706    2.00000
   11    -17.23064    2.00000
   12    -16.53261    2.00000
   13    -15.98767    2.00000
   14    -15.54788    2.00000
   15    -14.96474    2.00000
   16    -14.02407    2.00000
   17    -13.73134    2.00000
   18    -13.28687    2.00000
   19    -12.90748    2.00000
   20    -12.72469    2.00000
   21    -12.06445    2.00000
   22    -11.82375    2.00000
   23    -11.75178    2.00000
   24    -10.79252    2.00000
   25    -10.71759    2.00000
   26    -10.43684    2.00000
   27    -10.41516    2.00000
   28     -9.61823    2.00000
   29     -9.46901    2.00000
   30     -9.37820    2.00000
   31     -9.24657    2.00000
   32     -8.99009    2.00000
   33     -8.71398    2.00000
   34     -8.40833    2.00000
   35     -7.91480    2.00000
   36     -7.31582    2.00000
   37     -7.20463    2.00000
   38     -6.89382    2.00000
   39     -6.76962    2.00000
   40     -6.53389    2.00000
   41     -6.32109    2.00000
   42     -6.27577    2.00000
   43     -6.07303    2.00000
   44     -5.75082    2.00000
   45     -5.47970    1.99999
   46     -5.00736    1.99901
   47     -4.53167    1.89108
   48     -3.96154    0.10968
   49     -3.32545    0.00020
   50     -3.14530    0.00003
   51     -2.98923    0.00001
   52     -2.75196    0.00000
   53     -2.72468    0.00000
   54     -2.22673    0.00000
   55     -1.76958    0.00000
   56     -1.30763    0.00000
   57     -1.02700    0.00000
   58     -0.84399    0.00000
   59      0.11224    0.00000
[...]
   83      8.95196    0.00000
   84      9.04570    0.00000
   85      9.24478    0.00000
   86      9.52713    0.00000
   87      9.53473    0.00000
   88      9.65291    0.00000
   89      9.78861    0.00000
   90      9.85310    0.00000
   91      9.89163    0.00000
   92     10.11070    0.00000
   93     10.19342    0.00000
   94     10.28340    0.00000
   95     10.34260    0.00000
   96     10.42971    0.00000
   97     10.53554    0.00000

Forces in eV/Ang:
  0 C     0.01258    0.00979    0.00848
  1 C    -0.02984   -0.08115   -0.01291
  2 C    -0.06660    0.01664    0.01317
  3 C     0.03049    0.01943    0.03690
  4 C     0.01803    0.01369    0.03306
  5 C     0.00937    0.00644   -0.01478
  6 C    -0.02129    0.00589   -0.04945
  7 C     0.01005   -0.02915   -0.03149
  8 C    -0.01108    0.00378   -0.00050
  9 C    -0.01308   -0.00443    0.01067
 10 C     0.03920    0.01140    0.02651
 11 C    -0.03652    0.00355    0.02575
 12 C    -0.00748    0.07209    0.00808
 13 C     0.00983   -0.01854    0.00209
 14 C     0.04845   -0.00214   -0.00117
 15 C     0.05183   -0.00587    0.01168
 16 C    -0.02039   -0.04015    0.01728
 17 C    -0.04412   -0.00727    0.03247
 18 C    -0.01748    0.01978   -0.00642
 19 C    -0.02361    0.00814   -0.02234
 20 C     0.00229    0.02075   -0.01614
 21 C     0.05518    0.02606   -0.01441
 22 C    -0.00317    0.00513   -0.02761
 23 C     0.00097   -0.04288    0.00434