User:   esb@s65n12.grendel.cscaa.dk
Date:   Thu Nov  9 09:42:26 2017
Arch:   x86_64
Pid:    18568
Python: 2.7.13
gpaw:   /home/esb/DFT/gpaw_git/gpaw
_gpaw:  /home/esb/DFT/gpaw_git/build/bin.linux-x86_64-2.7/gpaw-python
ase:    /home/esb/DFT/ase_git/ase (version 3.15.0b1)
numpy:  /comm/swstack/core/python/2.7.13/lib/python2.7/site-packages/numpy (version 1.13.3)
scipy:  /comm/swstack/core/python/2.7.13/lib/python2.7/site-packages/scipy (version 0.19.1)
units:  Angstrom and eV
cores:  16
Extra parameters: {'blacs': True}

Input parameters:
  basis: dzp
  gpts: [80 80 48]
  kpts: [1 1 1]
  maxiter: 99
  mixer: {backend: pulay,
          beta: 0.05,
          method: separate,
          nmaxold: 5,
          weight: 75}
  mode: lcao
  nbands: -50
  occupations: {name: fermi-dirac,
                width: 0.1}
  poissonsolver: {eps: 1e-07,
                  name: fd,
                  nn: 3,
                  relax: GS}
  xc: PBE

System changes: positions, numbers, cell, pbc, initial_charges, initial_magmoms

Initialize ...

C-setup:
  name: Carbon
  id: 4aa54d4b901d75f77cc0ea3eec22967b
  Z: 6
  valence: 4
  core: 2
  charge: 0.0
  file: /home/esb/DFT/gpaw-setups-0.8.7929/C.PBE.gz
  cutoffs: 0.64(comp), 1.14(filt), 1.14(core), lmax=2
  valence states:
                energy  radius
    2s(2.00)   -13.751   0.635
    2p(2.00)    -5.284   0.635
    *s          13.461   0.635
    *p          21.927   0.635
    *d           0.000   0.635

  LCAO basis set for C:
    Name: dzp
    File: /home/esb/DFT/gpaw-setups-0.8.7929/C.dzp.basis.gz
    Number of radial functions: 5
    Number of spherical harmonics: 13
      l=0, rc=5.5469 Bohr: 2s-sz confined orbital
      l=1, rc=6.6719 Bohr: 2p-sz confined orbital
      l=0, rc=3.0312 Bohr: 2s-dz split-valence wave
      l=1, rc=3.7500 Bohr: 2p-dz split-valence wave
      l=2, rc=6.6719 Bohr: d-type Gaussian polarization

Reference energy: -24663.074771

Spin-paired calculation

Occupation numbers:
  Fermi-Dirac: width=0.1000 eV

Convergence criteria:
  Maximum total energy change: 0.0005 eV / electron
  Maximum integral of absolute density change: 0.0001 electrons
  Maximum integral of absolute eigenstate change: 4e-08 eV^2
  Maximum number of iterations: 99

Symmetries present (total): 1

  ( 1  0  0)
  ( 0  1  0)
  ( 0  0  1)

1 k-point (Gamma)
1 k-point in the irreducible part of the Brillouin zone
       k-points in crystal coordinates                weights
   0:     0.00000000    0.00000000    0.00000000          1/1

Wave functions: LCAO
  Diagonalizer: Serial LAPACK
  Atomic Correction: dense with blas
  Datatype: float
  Eigensolver: None

LCAO using direct dense diagonalizer

Densities:
  Coarse grid: 80*80*48 grid
  Fine grid: 160*160*96 grid
  Total Charge: 0.000000

Density mixing:
  Method: separate
  Backend: pulay
  Linear mixing parameter: 0.05
  Mixing with 5 old densities
  Damping of long wave oscillations: 75

Hamiltonian:
  XC and Coulomb potentials evaluated on a 160*160*96 grid
  Using the PBE Exchange-Correlation functional
  Interpolation: tri-quintic (5. degree polynomial)
  Poisson solver: Gauss-Seidel solver with 6 multi-grid levels
    Coarsest grid: 5 x 5 x 3 points
    Stencil: 6*3+1=19 point O(h^6) finite-difference Laplacian
    Max iterations: 1000
    Tolerance: 1.000000e-07

Total number of cores used: 16
Domain decomposition: 2 x 4 x 2

Number of atoms: 24
Number of atomic orbitals: 312
Number of bands in calculation: 98
Bands to converge: occupied states only
Number of valence electrons: 96

... initialized

Initializing position-dependent things.

Density initialized from atomic densities
  /        |           C  CC  C                   |
 *         |   C C  CC  C      C                  |
 |         | C     C     C  C    C                |
 |         .----C----C--------C-------------------.
 |        /    C  C  C        C                  /
 |       /             C  C                     /

Positions:
   0 C      7.547506    9.927920    6.079185
   1 C     10.726437    5.232759    5.649679
   2 C      9.804456    8.588518    6.205694
   3 C      8.231229    3.193640    5.166810
   4 C      7.623718    7.619452    5.783774
   5 C      9.566873    6.171946    5.751354
   6 C      8.187501    6.278243    5.673598
   7 C      7.020895    3.892263    5.339407
   8 C      9.489486    3.319451    5.320676
   9 C     10.382163    7.408801    6.006993
  10 C      8.422937    8.818233    6.022144
  11 C     11.454974    6.415528    5.935323
  12 C      7.030295    5.348430    5.504043
  13 C     10.697761    3.903902    5.296983
  14 C      6.569842   10.046205    5.224577
  15 C      5.511718    9.104155    5.462811
  16 C      5.843413    3.635617    5.220171
  17 C      3.621566    7.860868    5.596709
  18 C      5.790969    6.395937    5.588713
  19 C      4.547479    5.694903    5.544622
  20 C      6.146601    7.817678    5.591381
  21 C      4.067361    9.110587    5.528720
  22 C      4.722877    4.250913    5.396976
  23 C      3.405582    6.559922    5.598811

Unit cell:
           periodic     x           y           z      points  spacing
  1. axis:    yes   16.000000    0.000000    0.000000    80     0.2000
  2. axis:    yes    0.000000   16.000000    0.000000    80     0.2000
  3. axis:    yes    0.000000    0.000000   10.000000    48     0.2083

Effective grid spacing dv^(1/3) = 0.2027

                     log10-error:    total        iterations:
           time      wfs    density  energy       fermi  poisson
iter:   1  09:42:28          +inf  -184.344588    3      6
iter:   2  09:42:28         -0.90  -183.459847    4      3
iter:   3  09:42:29         -0.94  -181.559502    35     3
iter:   4  09:42:30         -1.08  -181.126842    4      3
iter:   5  09:42:30         -1.14  -180.617014    33     4
iter:   6  09:42:31         -1.52  -180.581507    4      3
iter:   7  09:42:32         -1.60  -180.513238    3      3
iter:   8  09:42:32         -1.78  -180.502713    3      2
iter:   9  09:42:33         -1.84  -180.483252    4      2
iter:  10  09:42:33         -2.03  -180.463094    4      2
iter:  11  09:42:34         -2.20  -180.440920    3      2
iter:  12  09:42:35         -2.39  -180.442546    3      2
iter:  13  09:42:35         -2.46  -180.444552    3      2
iter:  14  09:42:36         -2.70  -180.446555    3      2
iter:  15  09:42:36         -2.99  -180.452627    3      1
iter:  16  09:42:37         -3.03  -180.444489    2      1
iter:  17  09:42:38         -3.12  -180.427254    3      1
iter:  18  09:42:38         -3.49  -180.440785    2      1
iter:  19  09:42:39         -3.58  -180.447015    2      1
iter:  20  09:42:39         -3.70  -180.437184    3      1
iter:  21  09:42:40         -3.99  -180.440088    2      1
iter:  22  09:42:40         -4.05  -180.441541    2      1

Converged after 22 iterations.

Dipole moment: (0.332557, -0.112804, 0.060296) |e|*Ang

Energy contributions relative to reference atoms: (reference = -24663.074771)

Kinetic:       +123.686290
Potential:     -127.746987
External:        +0.000000
XC:            -179.237777
Entropy (-ST):   -0.326227
Local:           +3.020046
Free energy:   -180.604654
Extrapolated:  -180.441541

Fermi level: -4.50320

 Band  Eigenvalues  Occupancy
    0    -23.38382    2.00000
    1    -22.64512    2.00000
    2    -22.15813    2.00000
    3    -21.07808    2.00000
    4    -20.70869    2.00000
    5    -20.22867    2.00000
    6    -19.71401    2.00000
    7    -19.47656    2.00000
    8    -18.32098    2.00000
    9    -18.16401    2.00000
   10    -17.86578    2.00000
   11    -17.00667    2.00000
   12    -16.66824    2.00000
   13    -15.97514    2.00000
   14    -15.31990    2.00000
   15    -14.62023    2.00000
   16    -14.47797    2.00000
   17    -13.96096    2.00000
   18    -13.39427    2.00000
   19    -12.68532    2.00000
   20    -12.55040    2.00000
   21    -12.19344    2.00000
   22    -11.92853    2.00000
   23    -11.37301    2.00000
   24    -11.18310    2.00000
   25    -11.02318    2.00000
   26    -10.74742    2.00000
   27    -10.50234    2.00000
   28    -10.07218    2.00000
   29     -9.97203    2.00000
   30     -9.82552    2.00000
   31     -9.39232    2.00000
   32     -8.86327    2.00000
   33     -8.73119    2.00000
   34     -8.46503    2.00000
   35     -7.97145    2.00000
   36     -7.52580    2.00000
   37     -7.40241    2.00000
   38     -7.11202    2.00000
   39     -7.00731    2.00000
   40     -6.51147    2.00000
   41     -6.22941    2.00000
   42     -6.08066    2.00000
   43     -5.70633    1.99999
   44     -5.54154    1.99994
   45     -5.01906    1.98857
   46     -4.72527    1.80420
   47     -4.60332    1.46258
   48     -4.44847    0.73302
   49     -3.98969    0.01170
   50     -3.23896    0.00001
   51     -3.15621    0.00000
   52     -2.86404    0.00000
   53     -2.69813    0.00000
   54     -2.20718    0.00000
   55     -1.42494    0.00000
   56     -1.10606    0.00000
   57     -1.08883    0.00000
   58     -0.79279    0.00000
   59     -0.04357    0.00000
[...]
   83      8.75443    0.00000
   84      8.82948    0.00000
   85      9.00205    0.00000
   86      9.13417    0.00000
   87      9.14087    0.00000
   88      9.40338    0.00000
   89      9.45490    0.00000
   90      9.57699    0.00000
   91      9.76735    0.00000
   92      9.90234    0.00000
   93     10.00427    0.00000
   94     10.10700    0.00000
   95     10.18193    0.00000
   96     10.27897    0.00000
   97     10.42497    0.00000

Forces in eV/Ang:
  0 C     0.36901    1.10965   -2.46049
  1 C    -0.19944   -0.03301   -0.09486
  2 C    -0.02525    0.22123    0.31403
  3 C     0.85449   -0.36713    0.03075
  4 C    -0.37736    2.08914   -0.42954
  5 C     0.24636    0.17084    0.01162
  6 C    -0.90320    0.02860    0.17309
  7 C    12.30694    3.54164    0.77960
  8 C    -0.33166    0.19082   -0.09561
  9 C    -0.05335   -0.25271   -0.03740
 10 C     0.57855   -0.99752    0.30582
 11 C     0.16582    0.07151   -0.01435
 12 C     0.45840    4.07863    0.87318
 13 C     0.26231   -0.07584    0.12610
 14 C    -0.30998    0.87045    2.72281
 15 C    -1.20231   -0.71925   -0.49575
 16 C   -15.73677   -2.06039   -0.47497
 17 C    -0.64075   -0.63385    0.04735
 18 C     1.94573   -3.70611   -0.99601
 19 C    -1.45341   -1.05532   -0.47072
 20 C     3.34249   -3.56609    0.62757
 21 C     0.41019   -0.08630   -0.40713
 22 C     0.50036    0.50497   -0.22986
 23 C    -0.07503    0.68446    0.10291

System changes: positions

[...]

Density initialized from wave functions
  /        |           C  CC  C                   |
 *         |   C C  CC  C      C                  |
 |         | C     C     C  C    C                |
 |         .----C----C--------C-------------------.
 |        /    C C   C        C                  /
 |       /             C  C                     /

[...]

Density initialized from wave functions
  /        |           C  CC  C                   |
 *         |   C C  CC  C      C                  |
 |         | C     C     C  C    C                |
 |         .----C-----C-------C-------------------.
 |        /    C C   C        C                  /
 |       /             C  C                     /

[...]

Density initialized from wave functions
  /        |           C  CC   C                  |
 *         |   C C  CC   C     C                  |
 |         | C     C     C  C    C                |
 |         .----C-----C-------C-------------------.
 |        /    C C   C       C                   /
 |       /             C  C                     /

[...]

Density initialized from wave functions
  /        |           C  CC   C                  |
 *         |   C C  CC   C     C                  |
 |         | C     C     C  C    C                |
 |         .---C------C-------C-------------------.
 |        /    C C   C       C                   /
 |       /             C  C                     /

[...]

Density initialized from wave functions
  /        |           C  CC   C                  |
 *         |     C  CC   C     C                  |
 |         | CC    C     C  C    C                |
 |         .---C------C-------C-------------------.
 |        /    C C   C       C                   /
 |       /             C  C                     /

[...]

Density initialized from wave functions
  /        |           C  CC   C                  |
 *         |     C  CC   C     C                  |
 |         | CC    C     C  C    C                |
 |         .---C------C-------C-------------------.
 |        /    C C   C       C                   /
 |       /             C  C                     /

[...]

Density initialized from wave functions
  /        |           C  CC   C                  |
 *         |     C  CC   C     C                  |
 |         | CC    C     C  C    C                |
 |         .----C-----C-------C-------------------.
 |        /    C C   C       C                   /
 |       /             C  C                     /

[...]

System changes: positions

Initializing position-dependent things.

Density initialized from wave functions
  /        |           C  CC   C                  |
 *         |     C  CC   C     C                  |
 |         | CC    C     C  C    C                |
 |         .----C-----C-------C-------------------.
 |        /    C C   C       C                   /
 |       /             C  C                     /

Positions:
   0 C      7.694837   10.030243    5.850872
   1 C     10.744087    5.224734    5.684594
   2 C      9.906415    8.629371    6.087459
   3 C      8.196122    3.257507    5.166753
   4 C      7.703528    7.703077    5.728066
   5 C      9.605432    6.200757    5.744225
   6 C      8.226492    6.341576    5.676739
   7 C      7.006392    3.985301    5.354029
   8 C      9.456321    3.358778    5.319999
   9 C     10.448282    7.421480    5.970906
  10 C      8.534912    8.892518    5.886955
  11 C     11.483252    6.385411    6.018072
  12 C      7.047154    5.440217    5.514885
  13 C     10.686203    3.897016    5.330840
  14 C      6.439776   10.031319    5.726031
  15 C      5.506762    8.966526    5.626810
  16 C      5.653818    3.560733    5.339274
  17 C      3.536488    7.792584    5.491126
  18 C      5.860941    6.268227    5.515430
  19 C      4.490165    5.690766    5.442678
  20 C      6.279331    7.693988    5.617254
  21 C      4.086544    8.977059    5.560251
  22 C      4.623095    4.281250    5.392809
  23 C      3.329221    6.502974    5.425201

Unit cell:
           periodic     x           y           z      points  spacing
  1. axis:    yes   16.000000    0.000000    0.000000    80     0.2000
  2. axis:    yes    0.000000   16.000000    0.000000    80     0.2000
  3. axis:    yes    0.000000    0.000000   10.000000    48     0.2083

Effective grid spacing dv^(1/3) = 0.2027

                     log10-error:    total        iterations:
           time      wfs    density  energy       fermi  poisson
iter:   1  09:46:53          +inf  -184.032621    3      5
iter:   2  09:46:54         -2.45  -184.032242    2      1
iter:   3  09:46:55         -2.94  -184.032455    2      1
iter:   4  09:46:55         -3.08  -184.030863    2      1
iter:   5  09:46:56         -3.18  -184.033633    3      1
iter:   6  09:46:56         -2.94  -184.032596    2      1
iter:   7  09:46:57         -3.22  -184.029332    2      1
iter:   8  09:46:57         -2.79  -184.030744    2      1
iter:   9  09:46:58         -3.55  -184.031716    2      1
iter:  10  09:46:59         -3.57  -184.030548    2      1
iter:  11  09:46:59         -3.49  -184.032070    2      1
iter:  12  09:47:00         -3.35  -184.031725    2      1
iter:  13  09:47:00         -3.73  -184.031092    2      1
iter:  14  09:47:01         -4.05  -184.031344    1      1

Converged after 14 iterations.

Dipole moment: (0.307046, -0.030630, 0.061683) |e|*Ang

Energy contributions relative to reference atoms: (reference = -24663.074771)

Kinetic:       +114.801078
Potential:     -122.540404
External:        +0.000000
XC:            -179.149650
Entropy (-ST):   -0.304551
Local:           +3.009907
Free energy:   -184.183619
Extrapolated:  -184.031344

Fermi level: -4.56168

 Band  Eigenvalues  Occupancy
    0    -23.39125    2.00000
    1    -22.48493    2.00000
    2    -21.58888    2.00000
    3    -20.91650    2.00000
    4    -20.43141    2.00000
    5    -20.23417    2.00000
    6    -19.62385    2.00000
    7    -19.38361    2.00000
    8    -18.27841    2.00000
    9    -18.17918    2.00000
   10    -17.67643    2.00000
   11    -17.34092    2.00000
   12    -16.47383    2.00000
   13    -16.10569    2.00000
   14    -15.14972    2.00000
   15    -14.62985    2.00000
   16    -14.44445    2.00000
   17    -13.77256    2.00000
   18    -13.39452    2.00000
   19    -12.56164    2.00000
   20    -12.36470    2.00000
   21    -12.27799    2.00000
   22    -11.79867    2.00000
   23    -11.31294    2.00000
   24    -11.05393    2.00000
   25    -10.72836    2.00000
   26    -10.68781    2.00000
   27    -10.62801    2.00000
   28    -10.32728    2.00000
   29     -9.94423    2.00000
   30     -9.56406    2.00000
   31     -9.41217    2.00000
   32     -9.18982    2.00000
   33     -8.68491    2.00000
   34     -8.42516    2.00000
   35     -7.98930    2.00000
   36     -7.50055    2.00000
   37     -7.17033    2.00000
   38     -7.12334    2.00000
   39     -7.08083    2.00000
   40     -6.37890    2.00000
   41     -6.29740    2.00000
   42     -6.28905    2.00000
   43     -5.82322    1.99999
   44     -5.61584    1.99995
   45     -5.17045    1.99547
   46     -4.77293    1.78422
   47     -4.69478    1.58200
   48     -4.48385    0.62936
   49     -4.02190    0.00901
   50     -3.05770    0.00000
   51     -2.89318    0.00000
   52     -2.77450    0.00000
   53     -2.73251    0.00000
   54     -2.58730    0.00000
   55     -1.37971    0.00000
   56     -1.07477    0.00000
   57     -0.74359    0.00000
   58     -0.31919    0.00000
   59      0.38203    0.00000
[...]
   83      8.74759    0.00000
   84      9.01297    0.00000
   85      9.02456    0.00000
   86      9.18998    0.00000
   87      9.34583    0.00000
   88      9.47643    0.00000
   89      9.65662    0.00000
   90      9.69334    0.00000
   91      9.91917    0.00000
   92     10.02571    0.00000
   93     10.12520    0.00000
   94     10.29402    0.00000
   95     10.38179    0.00000
   96     10.41528    0.00000
   97     10.62213    0.00000

Forces in eV/Ang:
  0 C     0.00268   -0.00410    0.01693
  1 C    -0.01576   -0.01975   -0.02865
  2 C     0.05265    0.01871   -0.00288
  3 C     0.01163   -0.02053    0.04069
  4 C    -0.00147    0.00033    0.00589
  5 C    -0.01346   -0.00691   -0.01915
  6 C     0.00321    0.00695   -0.01710
  7 C     0.01670    0.01317   -0.00664
  8 C     0.00187    0.01722    0.02421
  9 C     0.00587    0.02129   -0.02548
 10 C     0.01475   -0.02367   -0.02118
 11 C    -0.01152    0.00274   -0.01502
 12 C     0.00273    0.00298   -0.03865
 13 C     0.06086   -0.02880    0.03519
 14 C    -0.04974    0.03085    0.02193
 15 C     0.00106   -0.02245    0.03677
 16 C    -0.02192   -0.01322    0.01972
 17 C    -0.00221   -0.02217   -0.00131
 18 C     0.00005   -0.00850   -0.01968
 19 C     0.00888   -0.01329   -0.01491
 20 C    -0.01151   -0.02401    0.03092
 21 C     0.02525    0.01824   -0.03229
 22 C     0.03340   -0.02073   -0.02854
 23 C     0.04925    0.03915   -0.00791