User:   esb@s65n31.grendel.cscaa.dk
Date:   Thu Nov  9 12:02:20 2017
Arch:   x86_64
Pid:    18905
Python: 2.7.13
gpaw:   /home/esb/DFT/gpaw_git/gpaw
_gpaw:  /home/esb/DFT/gpaw_git/build/bin.linux-x86_64-2.7/gpaw-python
ase:    /home/esb/DFT/ase_git/ase (version 3.15.0b1)
numpy:  /comm/swstack/core/python/2.7.13/lib/python2.7/site-packages/numpy (version 1.13.3)
scipy:  /comm/swstack/core/python/2.7.13/lib/python2.7/site-packages/scipy (version 0.19.1)
units:  Angstrom and eV
cores:  16
Extra parameters: {'blacs': True}

Input parameters:
  basis: dzp
  gpts: [80 80 48]
  kpts: [1 1 1]
  maxiter: 99
  mixer: {backend: pulay,
          beta: 0.05,
          method: separate,
          nmaxold: 5,
          weight: 75}
  mode: lcao
  nbands: -50
  occupations: {name: fermi-dirac,
                width: 0.1}
  poissonsolver: {eps: 1e-07,
                  name: fd,
                  nn: 3,
                  relax: GS}
  xc: PBE

System changes: positions, numbers, cell, pbc, initial_charges, initial_magmoms

Initialize ...

C-setup:
  name: Carbon
  id: 4aa54d4b901d75f77cc0ea3eec22967b
  Z: 6
  valence: 4
  core: 2
  charge: 0.0
  file: /home/esb/DFT/gpaw-setups-0.8.7929/C.PBE.gz
  cutoffs: 0.64(comp), 1.14(filt), 1.14(core), lmax=2
  valence states:
                energy  radius
    2s(2.00)   -13.751   0.635
    2p(2.00)    -5.284   0.635
    *s          13.461   0.635
    *p          21.927   0.635
    *d           0.000   0.635

  LCAO basis set for C:
    Name: dzp
    File: /home/esb/DFT/gpaw-setups-0.8.7929/C.dzp.basis.gz
    Number of radial functions: 5
    Number of spherical harmonics: 13
      l=0, rc=5.5469 Bohr: 2s-sz confined orbital
      l=1, rc=6.6719 Bohr: 2p-sz confined orbital
      l=0, rc=3.0312 Bohr: 2s-dz split-valence wave
      l=1, rc=3.7500 Bohr: 2p-dz split-valence wave
      l=2, rc=6.6719 Bohr: d-type Gaussian polarization

Reference energy: -24663.074771

Spin-paired calculation

Occupation numbers:
  Fermi-Dirac: width=0.1000 eV

Convergence criteria:
  Maximum total energy change: 0.0005 eV / electron
  Maximum integral of absolute density change: 0.0001 electrons
  Maximum integral of absolute eigenstate change: 4e-08 eV^2
  Maximum number of iterations: 99

Symmetries present (total): 1

  ( 1  0  0)
  ( 0  1  0)
  ( 0  0  1)

1 k-point (Gamma)
1 k-point in the irreducible part of the Brillouin zone
       k-points in crystal coordinates                weights
   0:     0.00000000    0.00000000    0.00000000          1/1

Wave functions: LCAO
  Diagonalizer: Serial LAPACK
  Atomic Correction: dense with blas
  Datatype: float
  Eigensolver: None

LCAO using direct dense diagonalizer

Densities:
  Coarse grid: 80*80*48 grid
  Fine grid: 160*160*96 grid
  Total Charge: 0.000000

Density mixing:
  Method: separate
  Backend: pulay
  Linear mixing parameter: 0.05
  Mixing with 5 old densities
  Damping of long wave oscillations: 75

Hamiltonian:
  XC and Coulomb potentials evaluated on a 160*160*96 grid
  Using the PBE Exchange-Correlation functional
  Interpolation: tri-quintic (5. degree polynomial)
  Poisson solver: Gauss-Seidel solver with 6 multi-grid levels
    Coarsest grid: 5 x 5 x 3 points
    Stencil: 6*3+1=19 point O(h^6) finite-difference Laplacian
    Max iterations: 1000
    Tolerance: 1.000000e-07

Total number of cores used: 16
Domain decomposition: 2 x 4 x 2

Number of atoms: 24
Number of atomic orbitals: 312
Number of bands in calculation: 98
Bands to converge: occupied states only
Number of valence electrons: 96

... initialized

Initializing position-dependent things.

Density initialized from atomic densities
    /      |                 C                    |
   /       |          C        C                  |
  /        |      C     C                         |
 *         |  C      C    C   C  C                |
 |         |    C  C            C                 |
 |         .----------C--C-----C------------------.
 |        /    C            C                    /
 |       /       C  C     C                     /
 |      /              C                       /

Positions:
   0 C      9.799762    9.063655    6.756290
   1 C      8.840903    9.566706    7.392013
   2 C      5.991744   10.012670    6.296697
   3 C      7.153159    9.476422    6.310743
   4 C      4.696028    9.434889    6.265489
   5 C      7.430763    8.070011    6.240706
   6 C      4.943852    8.023854    6.489085
   7 C      6.190631    7.387407    6.401922
   8 C      8.536587    7.201613    5.862819
   9 C     10.734691    5.529216    5.162138
  10 C     11.038655    6.785276    5.277637
  11 C     11.080323    8.220092    5.407091
  12 C      9.854505    7.679203    5.669321
  13 C      9.255071    3.886307    4.346313
  14 C      9.564880    5.142666    4.880196
  15 C      8.159939    3.277575    4.418648
  16 C      8.409757    5.753245    5.621567
  17 C      6.989294    3.696174    5.058286
  18 C      7.146232    5.035173    5.719325
  19 C      5.708739    3.158161    5.223853
  20 C      3.775784    5.574255    7.298115
  21 C      4.726908    4.880772    6.543396
  22 C      6.031018    5.618635    6.452140
  23 C      4.748184    3.663144    5.855929

Unit cell:
           periodic     x           y           z      points  spacing
  1. axis:    yes   16.000000    0.000000    0.000000    80     0.2000
  2. axis:    yes    0.000000   16.000000    0.000000    80     0.2000
  3. axis:    yes    0.000000    0.000000   10.000000    48     0.2083

Effective grid spacing dv^(1/3) = 0.2027

                     log10-error:    total        iterations:
           time      wfs    density  energy       fermi  poisson
iter:   1  12:02:22          +inf  -176.053912    3      6
iter:   2  12:02:22         -0.90  -174.989290    4      3
iter:   3  12:02:23         -0.94  -173.228682    33     3
iter:   4  12:02:24         -1.06  -172.269819    4      3
iter:   5  12:02:24         -1.17  -172.013510    34     3
iter:   6  12:02:25         -1.39  -171.778650    4      3
iter:   7  12:02:26         -1.59  -171.737327    4      3
iter:   8  12:02:26         -1.72  -171.707999    3      2
iter:   9  12:02:27         -1.81  -171.676972    4      3
iter:  10  12:02:28         -2.03  -171.671535    3      2
iter:  11  12:02:28         -2.14  -171.661140    4      2
iter:  12  12:02:29         -2.31  -171.651824    3      2
iter:  13  12:02:29         -2.55  -171.649655    3      2
iter:  14  12:02:30         -2.79  -171.649901    2      2
iter:  15  12:02:31         -2.90  -171.650226    2      1
iter:  16  12:02:31         -2.95  -171.651286    2      2
iter:  17  12:02:32         -3.23  -171.654836    2      1
iter:  18  12:02:33         -3.36  -171.663028    3      1
iter:  19  12:02:33         -3.82  -171.652297    2      1
iter:  20  12:02:34         -3.89  -171.650141    2      1
iter:  21  12:02:34         -3.92  -171.650210    2      1
iter:  22  12:02:35         -4.02  -171.649204    2      1

Converged after 22 iterations.

Dipole moment: (0.243170, -0.794704, -0.480595) |e|*Ang

Energy contributions relative to reference atoms: (reference = -24663.074771)

Kinetic:       +116.473776
Potential:     -119.687710
External:        +0.000000
XC:            -171.241056
Entropy (-ST):   -0.330721
Local:           +2.971148
Free energy:   -171.814565
Extrapolated:  -171.649204

Fermi level: -4.52436

 Band  Eigenvalues  Occupancy
    0    -24.36119    2.00000
    1    -22.69242    2.00000
    2    -21.96899    2.00000
    3    -21.75584    2.00000
    4    -20.55396    2.00000
    5    -20.54077    2.00000
    6    -19.43672    2.00000
    7    -19.20526    2.00000
    8    -18.46750    2.00000
    9    -18.24066    2.00000
   10    -17.82710    2.00000
   11    -17.59943    2.00000
   12    -16.37612    2.00000
   13    -16.18668    2.00000
   14    -15.30150    2.00000
   15    -14.64736    2.00000
   16    -14.10566    2.00000
   17    -13.96391    2.00000
   18    -13.16825    2.00000
   19    -12.85980    2.00000
   20    -12.66121    2.00000
   21    -12.56267    2.00000
   22    -11.92344    2.00000
   23    -11.32247    2.00000
   24    -11.21786    2.00000
   25    -10.99445    2.00000
   26    -10.61528    2.00000
   27    -10.34121    2.00000
   28    -10.06837    2.00000
   29     -9.82407    2.00000
   30     -9.45966    2.00000
   31     -9.04687    2.00000
   32     -8.40258    2.00000
   33     -8.10628    2.00000
   34     -8.03939    2.00000
   35     -7.48337    2.00000
   36     -7.38405    2.00000
   37     -6.97591    2.00000
   38     -6.85698    2.00000
   39     -6.75617    2.00000
   40     -6.61271    2.00000
   41     -6.47945    2.00000
   42     -6.37480    2.00000
   43     -6.15940    2.00000
   44     -5.66957    1.99998
   45     -5.45342    1.99982
   46     -4.75487    1.81859
   47     -4.60249    1.37192
   48     -4.48210    0.79177
   49     -4.04179    0.01591
   50     -3.82226    0.00178
   51     -3.58269    0.00016
   52     -3.47457    0.00006
   53     -3.27102    0.00001
   54     -2.89927    0.00000
   55     -2.43824    0.00000
   56     -1.68459    0.00000
   57     -1.66956    0.00000
   58     -1.00460    0.00000
   59     -0.85865    0.00000
[...]
   83      8.72500    0.00000
   84      8.79725    0.00000
   85      8.87668    0.00000
   86      9.03801    0.00000
   87      9.20110    0.00000
   88      9.22987    0.00000
   89      9.38870    0.00000
   90      9.43123    0.00000
   91      9.46187    0.00000
   92      9.65670    0.00000
   93      9.74871    0.00000
   94     10.02327    0.00000
   95     10.07640    0.00000
   96     10.16011    0.00000
   97     10.33245    0.00000

Forces in eV/Ang:
  0 C     4.03261   -2.21017   -1.47909
  1 C    -3.76426    2.36689   -0.00088
  2 C    -4.33822   -0.59074    0.21470
  3 C     5.63973   -0.81449    1.32453
  4 C     2.86541   -2.35401    0.73932
  5 C    -1.67332   -1.53538   -0.59241
  6 C    -0.95501    2.77476   -0.19368
  7 C    -2.33978   -5.19141    0.60449
  8 C    -0.58508   -2.05726   -0.12870
  9 C     7.82236    2.98428    0.46052
 10 C     1.55843    1.54395    1.41508
 11 C     2.97683    0.95052   -1.55234
 12 C    -3.74776    2.29868    2.24388
 13 C    -0.49149   -0.45750   -0.16640
 14 C    -6.59765   -4.40416   -0.21210
 15 C    -0.74190   -0.15634   -0.00533
 16 C    -1.09914    1.52373   -1.42986
 17 C     0.40196   -0.44595   -0.30721
 18 C    -0.60497    0.30794    0.85707
 19 C    -0.24508   -0.21762    0.09576
 20 C     0.09468    0.54750   -0.42998
 21 C    -0.12829    2.44154    1.13583
 22 C     1.72408    3.40114   -2.55633
 23 C     0.19618   -0.71830   -0.09589

System changes: positions

[...]

Density initialized from wave functions
    /      |                C                     |
   /       |          C C      C                  |
  /        |      C     C                         |
 *         |  C      C    C   C  C                |
 |         |    C  C            C                 |
 |         .----------C--C-----C------------------.
 |        /    C           C                     /
 |       /       C  C     C                     /
 |      /              C                       /

[...]

[...]

[...]

Density initialized from wave functions
    /      |                C                     |
   /       |          C  C     C                  |
  /        |      CC                              |
 *         |  C     C   C C   C  C                |
 |         |    C  C            C                 |
 |         .----------C--C-----C------------------.
 |        /    C           C                     /
 |       /       C  C     C                     /
 |      /              C                       /

[...]

Density initialized from wave functions
    /      |                C                     |
   /       |          C  C     C                  |
  /        |      CC                              |
 *         |  C     C   C C   C  C                |
 |         |    C  C            C                 |
 |         .----------C--C-----C------------------.
 |        /    C           C                     /
 |       /       C  C     C                     /
 |      /              C                       /

[...]

Density initialized from wave functions
    /      |                C                     |
   /       |          C  C    C                   |
  /        |      CC                              |
 *         |  C     C   C C   C                   |
 |         |    C  C            CC                |
 |         .----------C--C-----C------------------.
 |        /    C           C                     /
 |       /       C  C     C                     /
 |      /              C                       /

[...]

Density initialized from wave functions
    /      |                C                     |
   /       |          C  C    C                   |
  /        |      CC                              |
 *         |  C     C   C C   C                   |
 |         |    C  C            CC                |
 |         .----------C--C-----C------------------.
 |        /    C            C                    /
 |       /       C  C     C                     /
 |      /              C                       /

[...]

Density initialized from wave functions
   /       |          C  C  C C                   |
  /        |      CC                              |
 *         |  C     C   C C   C                   |
 |         |    C  C             C                |
 |         .----------C--C-----C------------------.
 |        /    C            C                    /
 |       /       C  C     C                     /
 |      /              C                       /

[...]

Density initialized from wave functions
   /       |          C  C  C C                   |
  /        |      CC                              |
 *         |  C     C   C C   C                   |
 |         |    C  C             C                |
 |         .---C------C--C-----C------------------.
 |        /                 C                    /
 |       /       C  C     C                     /
 |      /              C                       /

[...]

Density initialized from wave functions
   /       |          C  C  C C                   |
  /        |      CC                              |
 *         |  C     C   C C   C                   |
 |         |    C  C             C                |
 |         .---C------C--C-----C------------------.
 |        /                 C                    /
 |       /       C  C     C                     /
 |      /              C                       /

[...]

Density initialized from wave functions
   /       |          C  C  C C                   |
  /        |     C C                              |
 *         |  C     C   C C   C                   |
 |         |    C  C             C                |
 |         .---C------C--C-----C------------------.
 |        /                 C                    /
 |       /       C  C     C                     /
 |      /              C                       /

[...]

Density initialized from wave functions
   /       |          C  C  C C                   |
  /        |     C C                              |
 *         |  C     C   C C   C                   |
 |         |    C  C             C                |
 |         .---C------C--C-----C------------------.
 |        /                 C                    /
 |       /       C  C     C                     /
 |      /              C                       /

[...]

Density initialized from wave functions
   /       |          C  C  C C                   |
  /        |     C C                              |
 *         |  C     C   C C   C                   |
 |         |    C  C             C                |
 |         .---C------C--C------------------------.
 |        /                 C  C                 /
 |       /       C  C     C                     /
 |      /              C                       /

[...]

Density initialized from wave functions
   /       |          C C   C C                   |
  /        |     C C                              |
 *         |  C     C   C C   C                   |
 |         |    C  C             C                |
 |         .---C------C--C------------------------.
 |        /                 C  C                 /
 |       /       C  C     C                     /
 |      /              C                       /

[...]

Density initialized from wave functions
   /       |          C C   C C                   |
  /        |     C C                              |
 *         |  C     C   C C   C                   |
 |         |    C  C             C                |
 |         .---C------C--C------------------------.
 |        /      C          C  C                 /
 |       /          C     C                     /
 |      /              C                       /

[...]

Density initialized from wave functions
   /       |          C C   C C                   |
  /        |     C C                              |
 *         |  C     C   C C   C                   |
 |         |    C  C             C                |
 |         .---C------C--C------------------------.
 |        /      C          C  C                 /
 |       /          C     C                     /
 |      /              C                       /

[...]

Density initialized from wave functions
   /       |       C  C C   C C                   |
  /        |     C                                |
 *         |  C     C   C C   C                   |
 |         |    C  C             C                |
 |         .---C------C--C------------------------.
 |        /      C          C  C                 /
 |       /          C     C                     /
 |      /              C                       /

[...]

Density initialized from wave functions
   /       |       C  C C   C C                   |
  /        |     C                                |
 *         |  C     C   C C   C                   |
 |         |    C  C             C                |
 |         .---C------C--C------------------------.
 |        /      C          C  C                 /
 |       /          C     C                     /
 |      /              C                       /

[...]

Density initialized from wave functions
   /       |       C C  C   C C                   |
  /        |     C                                |
 *         |  C     C   C C   C                   |
 |         |    C  C             C                |
 |         .---C------C--C-------C----------------.
 |        /      C          C  C                 /
 |       /          C     C                     /
 |      /              C                       /

[...]

Density initialized from wave functions
   /       |      C  C  C   C C                   |
  /        |     C                                |
 *         |   C    C   C C   C                   |
 |         |    C   C            C                |
 |         .---C------C--C-------C----------------.
 |        /      C          C  C                 /
 |       /          C     C                     /
 |      /              C                       /

[...]

Density initialized from wave functions
   /       |      C  C  C   C C                   |
  /        |     C                                |
 *         |   C    C   C C   C  C                |
 |         |    C   C                             |
 |         .---C------C--C-------C----------------.
 |        /      C          C  C                 /
 |       /          C     C                     /
 |      /              C                       /

[...]

Density initialized from wave functions
   /       |      C  C  C   C C                   |
  /        |     C                                |
 *         |   C    C   C C   C  C                |
 |         |    C   C                             |
 |         .---C------C--C-------C----------------.
 |        /      C          C  C                 /
 |       /          C     C                     /
 |      /              C                       /

[...]

Density initialized from wave functions
   /       |      C  C  C   C C                   |
  /        |     C                                |
 *         |   C    C   C C   C  C                |
 |         |    C   C                             |
 |         .---C------C--C-------C----------------.
 |        /      C  C       C  C                 /
 |       /                C                     /
 |      /              C                       /

[...]

Density initialized from wave functions
   /       |      C  C  C   C C                   |
  /        |     C                                |
 *         |   C    C   C C   C  C                |
 |         |    C   C                             |
 |         .---C------C--C-------C----------------.
 |        /      C  C       C  C                 /
 |       /                C                     /
 |      /              C                       /

[...]

Density initialized from wave functions
   /       |      C  C  C   C C                   |
  /        |     C                                |
 *         |   C    C   C C   C  C                |
 |         |    C   C                             |
 |         .---C------C--C-------C----------------.
 |        /      C  C       C  C                 /
 |       /             C  C                     /

[...]

System changes: positions

Initializing position-dependent things.

Density initialized from wave functions
   /       |      C  C  C   C C                   |
  /        |     C                                |
 *         |   C    C   C C   C  C                |
 |         |    C  C                              |
 |         .---C------C--C-------C----------------.
 |        /      C  C       C  C                 /
 |       /             C  C                     /

Positions:
   0 C      9.481827    9.403401    6.522056
   1 C      8.410012    9.993560    6.792643
   2 C      5.824545    9.712832    6.983621
   3 C      7.153387    9.355574    6.731828
   4 C      4.832140    8.913923    6.970784
   5 C      7.313184    7.915624    6.285417
   6 C      4.757819    7.557674    6.648607
   7 C      6.126032    7.167583    6.259298
   8 C      8.579121    7.253736    5.900614
   9 C     11.025509    5.403208    4.663758
  10 C     11.258656    6.607516    5.106323
  11 C     11.143262    7.795300    5.627136
  12 C      9.826746    8.133424    6.012067
  13 C      9.234810    3.695729    4.527943
  14 C      9.686290    4.992683    4.853496
  15 C      8.180627    3.036069    4.683043
  16 C      8.530572    5.809037    5.444462
  17 C      7.007391    3.620415    5.209616
  18 C      7.244813    5.081633    5.545877
  19 C      5.695096    3.203478    5.458560
  20 C      3.939400    6.382405    6.708958
  21 C      4.725669    5.307655    6.180302
  22 C      6.101519    5.788737    5.949155
  23 C      4.753595    3.942033    5.896724

Unit cell:
           periodic     x           y           z      points  spacing
  1. axis:    yes   16.000000    0.000000    0.000000    80     0.2000
  2. axis:    yes    0.000000   16.000000    0.000000    80     0.2000
  3. axis:    yes    0.000000    0.000000   10.000000    48     0.2083

Effective grid spacing dv^(1/3) = 0.2027

                     log10-error:    total        iterations:
           time      wfs    density  energy       fermi  poisson
iter:   1  12:13:02          +inf  -185.227637    3      4
iter:   2  12:13:03         -2.66  -185.230538    3      1
iter:   3  12:13:03         -3.04  -185.228374    3      1
iter:   4  12:13:04         -3.32  -185.225967    3      1
iter:   5  12:13:05         -3.00  -185.227211    3      1
iter:   6  12:13:05         -3.33  -185.232133    3      1
iter:   7  12:13:06         -2.85  -185.227136    3      1
iter:   8  12:13:07         -3.63  -185.228029    2      1
iter:   9  12:13:07         -3.98  -185.228894    3      1
iter:  10  12:13:08         -3.44  -185.227338    3      1
iter:  11  12:13:08         -3.52  -185.227885    2      1
iter:  12  12:13:09         -3.94  -185.228782    2      1
iter:  13  12:13:10         -3.49  -185.227916    2      1
iter:  14  12:13:10         -4.61  -185.227924    2      1

Converged after 14 iterations.

Dipole moment: (0.010151, 0.016594, -0.046672) |e|*Ang

Energy contributions relative to reference atoms: (reference = -24663.074771)

Kinetic:       +117.091475
Potential:     -125.277934
External:        +0.000000
XC:            -179.909163
Entropy (-ST):   -0.320360
Local:           +3.027879
Free energy:   -185.388104
Extrapolated:  -185.227924

Fermi level: -4.65470

 Band  Eigenvalues  Occupancy
    0    -22.84671    2.00000
    1    -21.88354    2.00000
    2    -21.81912    2.00000
    3    -20.73494    2.00000
    4    -20.71002    2.00000
    5    -20.13014    2.00000
    6    -19.45093    2.00000
    7    -19.27101    2.00000
    8    -18.40750    2.00000
    9    -18.26965    2.00000
   10    -17.72037    2.00000
   11    -17.13239    2.00000
   12    -16.46848    2.00000
   13    -16.05172    2.00000
   14    -15.06607    2.00000
   15    -14.82766    2.00000
   16    -14.52647    2.00000
   17    -14.26580    2.00000
   18    -13.00994    2.00000
   19    -12.56254    2.00000
   20    -12.26085    2.00000
   21    -12.12487    2.00000
   22    -11.79699    2.00000
   23    -11.27122    2.00000
   24    -11.20750    2.00000
   25    -10.81253    2.00000
   26    -10.64723    2.00000
   27    -10.53092    2.00000
   28    -10.23518    2.00000
   29     -9.71185    2.00000
   30     -9.64949    2.00000
   31     -9.43171    2.00000
   32     -9.22955    2.00000
   33     -8.47782    2.00000
   34     -8.44297    2.00000
   35     -8.09253    2.00000
   36     -7.30032    2.00000
   37     -6.94145    2.00000
   38     -6.93083    2.00000
   39     -6.62495    2.00000
   40     -6.51817    2.00000
   41     -6.46611    2.00000
   42     -6.45524    2.00000
   43     -6.34896    2.00000
   44     -6.15669    2.00000
   45     -5.17636    1.98921
   46     -4.82313    1.68695
   47     -4.79986    1.62048
   48     -4.59353    0.70335
   49     -3.29886    0.00000
   50     -3.07865    0.00000
   51     -2.99780    0.00000
   52     -2.83338    0.00000
   53     -2.75902    0.00000
   54     -2.53859    0.00000
   55     -1.47321    0.00000
   56     -1.25361    0.00000
   57     -1.15147    0.00000
   58     -0.50348    0.00000
   59     -0.22599    0.00000
[...]
   83      9.13000    0.00000
   84      9.15626    0.00000
   85      9.33635    0.00000
   86      9.34942    0.00000
   87      9.56186    0.00000
   88      9.63719    0.00000
   89      9.65447    0.00000
   90      9.66100    0.00000
   91      9.85921    0.00000
   92      9.97267    0.00000
   93     10.06364    0.00000
   94     10.20034    0.00000
   95     10.30375    0.00000
   96     10.42078    0.00000
   97     10.45330    0.00000

Forces in eV/Ang:
  0 C    -0.04400    0.01047   -0.00776
  1 C    -0.00729    0.01927    0.00084
  2 C     0.00742    0.00251    0.02028
  3 C     0.02036   -0.01152   -0.01352
  4 C    -0.01354   -0.03350    0.04732
  5 C     0.00470   -0.01122    0.01071
  6 C     0.03021    0.06276    0.05307
  7 C     0.00442   -0.02444   -0.02445
  8 C     0.00038    0.00629   -0.06024
  9 C     0.05225    0.04651    0.03296
 10 C     0.01067    0.02351    0.00731
 11 C     0.02628   -0.04544   -0.06697
 12 C     0.01330   -0.01266   -0.02215
 13 C     0.02528    0.00643    0.03349
 14 C    -0.05219   -0.03653    0.02207
 15 C    -0.03411    0.00942   -0.00577
 16 C    -0.00910   -0.02145   -0.00527
 17 C     0.01573    0.01509    0.01512
 18 C    -0.00861   -0.00370   -0.03098
 19 C    -0.00168    0.00758   -0.03742
 20 C    -0.01686   -0.02120    0.02126
 21 C     0.01184    0.01106   -0.04881
 22 C     0.04670   -0.01628    0.04941
 23 C    -0.01290   -0.03851   -0.01893