User:   esb@s65n31.grendel.cscaa.dk
Date:   Thu Nov  9 09:52:30 2017
Arch:   x86_64
Pid:    15974
Python: 2.7.13
gpaw:   /home/esb/DFT/gpaw_git/gpaw
_gpaw:  /home/esb/DFT/gpaw_git/build/bin.linux-x86_64-2.7/gpaw-python
ase:    /home/esb/DFT/ase_git/ase (version 3.15.0b1)
numpy:  /comm/swstack/core/python/2.7.13/lib/python2.7/site-packages/numpy (version 1.13.3)
scipy:  /comm/swstack/core/python/2.7.13/lib/python2.7/site-packages/scipy (version 0.19.1)
units:  Angstrom and eV
cores:  16
Extra parameters: {'blacs': True}

Input parameters:
  basis: dzp
  gpts: [80 80 48]
  kpts: [1 1 1]
  maxiter: 99
  mixer: {backend: pulay,
          beta: 0.05,
          method: separate,
          nmaxold: 5,
          weight: 75}
  mode: lcao
  nbands: -50
  occupations: {name: fermi-dirac,
                width: 0.1}
  poissonsolver: {eps: 1e-07,
                  name: fd,
                  nn: 3,
                  relax: GS}
  xc: PBE

System changes: positions, numbers, cell, pbc, initial_charges, initial_magmoms

Initialize ...

C-setup:
  name: Carbon
  id: 4aa54d4b901d75f77cc0ea3eec22967b
  Z: 6
  valence: 4
  core: 2
  charge: 0.0
  file: /home/esb/DFT/gpaw-setups-0.8.7929/C.PBE.gz
  cutoffs: 0.64(comp), 1.14(filt), 1.14(core), lmax=2
  valence states:
                energy  radius
    2s(2.00)   -13.751   0.635
    2p(2.00)    -5.284   0.635
    *s          13.461   0.635
    *p          21.927   0.635
    *d           0.000   0.635

  LCAO basis set for C:
    Name: dzp
    File: /home/esb/DFT/gpaw-setups-0.8.7929/C.dzp.basis.gz
    Number of radial functions: 5
    Number of spherical harmonics: 13
      l=0, rc=5.5469 Bohr: 2s-sz confined orbital
      l=1, rc=6.6719 Bohr: 2p-sz confined orbital
      l=0, rc=3.0312 Bohr: 2s-dz split-valence wave
      l=1, rc=3.7500 Bohr: 2p-dz split-valence wave
      l=2, rc=6.6719 Bohr: d-type Gaussian polarization

Reference energy: -24663.074771

Spin-paired calculation

Occupation numbers:
  Fermi-Dirac: width=0.1000 eV

Convergence criteria:
  Maximum total energy change: 0.0005 eV / electron
  Maximum integral of absolute density change: 0.0001 electrons
  Maximum integral of absolute eigenstate change: 4e-08 eV^2
  Maximum number of iterations: 99

Symmetries present (total): 1

  ( 1  0  0)
  ( 0  1  0)
  ( 0  0  1)

1 k-point (Gamma)
1 k-point in the irreducible part of the Brillouin zone
       k-points in crystal coordinates                weights
   0:     0.00000000    0.00000000    0.00000000          1/1

Wave functions: LCAO
  Diagonalizer: Serial LAPACK
  Atomic Correction: dense with blas
  Datatype: float
  Eigensolver: None

LCAO using direct dense diagonalizer

Densities:
  Coarse grid: 80*80*48 grid
  Fine grid: 160*160*96 grid
  Total Charge: 0.000000

Density mixing:
  Method: separate
  Backend: pulay
  Linear mixing parameter: 0.05
  Mixing with 5 old densities
  Damping of long wave oscillations: 75

Hamiltonian:
  XC and Coulomb potentials evaluated on a 160*160*96 grid
  Using the PBE Exchange-Correlation functional
  Interpolation: tri-quintic (5. degree polynomial)
  Poisson solver: Gauss-Seidel solver with 6 multi-grid levels
    Coarsest grid: 5 x 5 x 3 points
    Stencil: 6*3+1=19 point O(h^6) finite-difference Laplacian
    Max iterations: 1000
    Tolerance: 1.000000e-07

Total number of cores used: 16
Domain decomposition: 2 x 4 x 2

Number of atoms: 24
Number of atomic orbitals: 312
Number of bands in calculation: 98
Bands to converge: occupied states only
Number of valence electrons: 96

... initialized

Initializing position-dependent things.

Density initialized from atomic densities
  /        |           C                          |
 *         |  C C   C      C  C C                 |
 |         | C       C      C   C                 |
 |         .---C---C-C---C-------C----------------.
 |        /    C    C   C        C               /
 |       /       C      C   C  C                /

Positions:
   0 C      5.495636    8.689150    5.818119
   1 C      5.610078    3.318896    5.305737
   2 C      3.537909    7.528178    5.687544
   3 C      6.375922    9.789677    5.940044
   4 C      5.833599    6.079579    5.484298
   5 C      4.474201    5.498887    5.461761
   6 C      6.313855    7.469667    5.597377
   7 C      6.950910    3.769821    5.309245
   8 C      4.071908    8.709465    5.847802
   9 C      4.616837    4.088007    5.355297
  10 C      3.259175    6.251518    5.560335
  11 C      7.010492    5.237664    5.381104
  12 C     10.411743    8.224185    4.590560
  13 C      8.209131    9.116301    4.894501
  14 C      9.176732   10.156395    4.837818
  15 C      7.862051    5.373453    4.735827
  16 C     10.952966    4.740367    4.385995
  17 C      8.973515    7.857468    4.765100
  18 C      8.537420    4.075329    4.618014
  19 C      9.920320    4.012459    4.481606
  20 C     11.501752    5.963904    4.353978
  21 C     10.354348    9.664102    4.630652
  22 C     11.354136    7.221803    4.406927
  23 C      8.068162    6.783381    4.793334

Unit cell:
           periodic     x           y           z      points  spacing
  1. axis:    yes   16.000000    0.000000    0.000000    80     0.2000
  2. axis:    yes    0.000000   16.000000    0.000000    80     0.2000
  3. axis:    yes    0.000000    0.000000   10.000000    48     0.2083

Effective grid spacing dv^(1/3) = 0.2027

                     log10-error:    total        iterations:
           time      wfs    density  energy       fermi  poisson
iter:   1  09:52:32          +inf  -174.702061    2      6
iter:   2  09:52:32         -0.88  -173.621342    3      3
iter:   3  09:52:33         -0.92  -170.285588    32     4
iter:   4  09:52:34         -1.14  -169.806801    4      3
iter:   5  09:52:34         -1.22  -169.574942    35     3
iter:   6  09:52:35         -1.45  -169.528013    4      3
iter:   7  09:52:35         -1.61  -169.470722    3      2
iter:   8  09:52:36         -1.68  -169.406265    4      3
iter:   9  09:52:37         -1.95  -169.393082    3      2
iter:  10  09:52:37         -2.07  -169.384023    4      2
iter:  11  09:52:38         -2.26  -169.376208    4      2
iter:  12  09:52:38         -2.50  -169.374207    3      2
iter:  13  09:52:39         -2.63  -169.369269    3      2
iter:  14  09:52:40         -2.90  -169.369333    2      2
iter:  15  09:52:40         -3.00  -169.360323    3      1
iter:  16  09:52:41         -3.22  -169.363416    3      1
iter:  17  09:52:41         -3.33  -169.360330    3      1
iter:  18  09:52:42         -3.49  -169.364533    3      1
iter:  19  09:52:42         -3.58  -169.373223    3      1
iter:  20  09:52:43         -3.77  -169.370006    2      1
iter:  21  09:52:44         -3.82  -169.368666    2      1
iter:  22  09:52:44         -4.01  -169.371285    2      1

Converged after 22 iterations.

Dipole moment: (0.613206, -0.684710, -0.154865) |e|*Ang

Energy contributions relative to reference atoms: (reference = -24663.074771)

Kinetic:       +137.986123
Potential:     -134.419240
External:        +0.000000
XC:            -175.773303
Entropy (-ST):   -0.343288
Local:           +3.006779
Free energy:   -169.542929
Extrapolated:  -169.371285

Fermi level: -4.38248

 Band  Eigenvalues  Occupancy
    0    -24.51199    2.00000
    1    -22.09066    2.00000
    2    -21.54990    2.00000
    3    -20.79749    2.00000
    4    -20.65496    2.00000
    5    -19.94368    2.00000
    6    -19.49203    2.00000
    7    -19.29264    2.00000
    8    -18.58229    2.00000
    9    -17.90610    2.00000
   10    -17.44899    2.00000
   11    -17.14637    2.00000
   12    -16.44381    2.00000
   13    -16.22671    2.00000
   14    -15.18336    2.00000
   15    -14.79727    2.00000
   16    -14.15201    2.00000
   17    -13.59654    2.00000
   18    -13.13740    2.00000
   19    -12.80638    2.00000
   20    -12.49345    2.00000
   21    -12.08025    2.00000
   22    -11.69110    2.00000
   23    -11.51754    2.00000
   24    -11.34832    2.00000
   25    -10.64204    2.00000
   26    -10.18955    2.00000
   27     -9.71891    2.00000
   28     -9.59023    2.00000
   29     -9.34063    2.00000
   30     -8.94058    2.00000
   31     -8.86055    2.00000
   32     -8.57624    2.00000
   33     -8.48825    2.00000
   34     -7.84776    2.00000
   35     -7.79291    2.00000
   36     -7.42432    2.00000
   37     -7.17887    2.00000
   38     -7.11090    2.00000
   39     -7.05982    2.00000
   40     -6.42021    2.00000
   41     -6.28583    2.00000
   42     -6.06382    2.00000
   43     -5.92068    2.00000
   44     -5.40298    1.99993
   45     -4.96292    1.99399
   46     -4.56834    1.73027
   47     -4.47752    1.44239
   48     -4.34697    0.82431
   49     -3.83553    0.00839
   50     -3.56997    0.00059
   51     -3.41430    0.00012
   52     -3.15297    0.00001
   53     -2.67060    0.00000
   54     -2.29939    0.00000
   55     -1.63764    0.00000
   56     -1.53616    0.00000
   57     -1.43164    0.00000
   58     -1.18675    0.00000
   59     -1.02230    0.00000
[...]
   83      8.61518    0.00000
   84      8.87797    0.00000
   85      9.02412    0.00000
   86      9.24374    0.00000
   87      9.27987    0.00000
   88      9.52294    0.00000
   89      9.54839    0.00000
   90      9.59894    0.00000
   91      9.69928    0.00000
   92      9.91882    0.00000
   93     10.02105    0.00000
   94     10.09733    0.00000
   95     10.17251    0.00000
   96     10.25772    0.00000
   97     10.39413    0.00000

Forces in eV/Ang:
  0 C     2.56053   -0.06801   -0.73569
  1 C     3.01113   -1.01513   -0.58633
  2 C    -0.17304    0.06735    0.16837
  3 C     2.05422   -0.52297   -1.30707
  4 C     0.62131    3.02968    1.93380
  5 C    -1.09926   -0.88617    0.28560
  6 C    -0.84011   -3.93829   -2.03193
  7 C     0.17593   -1.81386    0.05734
  8 C    -0.28216    0.07604    0.22175
  9 C    -1.32971    1.16137    0.53042
 10 C     0.44312   -0.30053   -0.33040
 11 C   -30.85197   -7.98178   18.90503
 12 C     0.80973   -0.30822   -0.28854
 13 C    -2.00896    2.57743    2.13461
 14 C     0.46671    0.23271   -0.18089
 15 C    29.38999    8.16451  -18.97686
 16 C     1.08086    1.14657   -0.39725
 17 C    -2.14046   -1.21075    0.01120
 18 C    -0.13760   -0.69291    0.36703
 19 C    -2.60980   -1.11740    0.51787
 20 C    -0.16212   -1.28297    0.07809
 21 C     0.03353   -0.18450   -0.12858
 22 C    -0.51587    0.90346    0.08680
 23 C     1.48870    3.94094   -0.39185

System changes: positions

[...]

Density initialized from wave functions
  /        |           C                          |
 *         |  C C   C      C  C C                 |
 |         | C       C      C   C                 |
 |         .---C---C-C---C-------C----------------.
 |        /    C    C   C        C               /
 |       /       C      C   C  C                /

[...]

Density initialized from wave functions
  /        |            C                         |
 *         |   C C   C     C  C C                 |
 |         | C       C     C   C                  |
 |         .---C---C-C---C-------C----------------.
 |        /    C    C   C       C                /
 |       /       C      C  C  C                 /

[...]

Density initialized from wave functions
  /        |            C                         |
 *         |   C C   C     C  C C                 |
 |         | C       C     C   C                  |
 |         .---C---C-C---C------C-----------------.
 |        /    C    C   C       C                /
 |       /       C      C  C  C                 /

[...]

Density initialized from wave functions
  /        |            C                         |
 *         |   C C   C     C  C C                 |
 |         | C       C     C   C                  |
 |         .---C---C-C---C------C-----------------.
 |        /    C    C   C       C                /
 |       /       C      C  C  C                 /

[...]

Density initialized from wave functions
  /        |            C                         |
 *         |   C C   C     C  C C                 |
 |         | C       C     C   C                  |
 |         .---C---C-C---C------C-----------------.
 |        /    C        C       C                /
 |       /       C  C   C  C  C                 /

[...]

Density initialized from wave functions
  /        |            C                         |
 *         |   C C   C     C  C C                 |
 |         | C       C     C   C                  |
 |         .---C---C-C---C------C-----------------.
 |        /    C        C       C                /
 |       /       C  C   C  C  C                 /

[...]

Density initialized from wave functions
  /        |            C                         |
 *         |   C C   C     C  C C                 |
 |         | C       C     C   C                  |
 |         .---C---C-C--CC------C-----------------.
 |        /    C                C                /
 |       /       C  C   C  C  C                 /

[...]

Density initialized from wave functions
  /        |            C                         |
 *         |   C C   C     C  C C                 |
 |         | C       C     C   C                  |
 |         .---C---C-C--CC------C-----------------.
 |        /    C                C                /
 |       /       C  C   C  C  C                 /

[...]

Density initialized from wave functions
  /        |            C                         |
 *         |   C C   C     C  C C                 |
 |         | C       C   C C   C                  |
 |         .---C---C-C--C-------C-----------------.
 |        /    C                C                /
 |       /       C  C   C  C  C                 /

[...]

Density initialized from wave functions
 *         |   C C   C  C  C  C C                 |
 |         | C       C   C C   C                  |
 |         .---C---C-C--C-------C-----------------.
 |        /    C                C                /
 |       /       C  C   C  C  C                 /

[...]

Density initialized from wave functions
 *         |   C C   C  C  C  C  C                |
 |         | C       C   C C   C                  |
 |         .---C---C-C--C-------C-----------------.
 |        /    C                C                /
 |       /       C  C   C  C  C                 /

[...]

Density initialized from wave functions
 *         |   C C   C  C  C  C  C                |
 |         | C       C   C C   C                  |
 |         .---C---C-C--C-------C-----------------.
 |        /    C    C           C                /
 |       /       C      C  C  C                 /

[...]

Density initialized from wave functions
 *         |   C C   C  C  C  C  C                |
 |         | C       C   C C   C                  |
 |         .---C---C-C--C-------C-----------------.
 |        /    C    C           C                /
 |       /       C      C  C  C                 /

[...]

Density initialized from wave functions
 *         |   C C   C  C  C  C  C                |
 |         | C     C C   C C   C                  |
 |         .---C-----C--C-------C-----------------.
 |        /    C    C           C                /
 |       /       C      C  C  C                 /

[...]

Density initialized from wave functions
 *         |   C C   C  C  C  C  C                |
 |         | C     C C   C C   C                  |
 |         .---C-----C--C-------C-----------------.
 |        /    C    C           C                /
 |       /       C      C  C  C                 /

[...]

Density initialized from wave functions
 *         |     C   C  C  C  C  C                |
 |         | C C   C C   C C   C                  |
 |         .---C-----C--C-------C-----------------.
 |        /    C     C          C                /
 |       /       C      C  C  C                 /

[...]

Density initialized from wave functions
 *         |     C   C  C  C  C  C                |
 |         | C C   C C   C C   C                  |
 |         .---C-----C--C-------C-----------------.
 |        /    C     C          C                /
 |       /       C      C  C  C                 /

[...]

Density initialized from wave functions
 *         |     C   C  C  C  C  C                |
 |         | C C   C C   C C   C                  |
 |         .---C-----C--C-------C-----------------.
 |        /    C     C  C       C                /
 |       /       C         C  C                 /

[...]

Density initialized from wave functions
 *         |     C   C  C  C  C  C                |
 |         | C C   C C   C C   C                  |
 |         .---C-----C--C-------C-----------------.
 |        /    C     C  C       C                /
 |       /       C         C  C                 /

[...]

Density initialized from wave functions
 *         |     C   C  C  C  C  C                |
 |         |   C   C C   C C   C                  |
 |         .-C-C-----C--C-------C-----------------.
 |        /    C     C  C       C                /
 |       /       C         C  C                 /

[...]

System changes: positions

Initializing position-dependent things.

Density initialized from wave functions
 *         |     C   C  C  C  C  C                |
 |         |   C   C C   C C   C                  |
 |         .-C-C-----C--C-------C-----------------.
 |        /    C     C  C       C                /
 |       /       C         C  C                 /

Positions:
   0 C      5.918102    8.584103    5.510557
   1 C      5.751606    3.329920    4.990423
   2 C      3.769768    7.518121    5.553000
   3 C      6.848977    9.629888    5.318025
   4 C      5.822272    5.960095    5.874764
   5 C      4.481303    5.377547    5.577844
   6 C      6.501852    7.250946    5.672333
   7 C      7.068399    3.797824    5.247735
   8 C      4.476814    8.598161    5.479942
   9 C      4.682123    3.991854    5.209203
  10 C      3.368960    6.250448    5.484966
  11 C      6.901935    5.070140    5.851596
  12 C     10.228596    8.263029    4.645865
  13 C      8.176981    9.492080    5.045956
  14 C      9.352977   10.324391    4.803822
  15 C      8.175105    5.590893    5.482399
  16 C     10.652429    4.698401    4.061941
  17 C      8.761178    8.115994    4.999881
  18 C      8.503755    4.215683    4.905856
  19 C      9.654738    3.894604    4.232693
  20 C     11.178701    5.907146    4.122454
  21 C     10.447271    9.692932    4.611067
  22 C     10.965869    7.143766    4.379065
  23 C      7.966497    7.012856    5.376360

Unit cell:
           periodic     x           y           z      points  spacing
  1. axis:    yes   16.000000    0.000000    0.000000    80     0.2000
  2. axis:    yes    0.000000   16.000000    0.000000    80     0.2000
  3. axis:    yes    0.000000    0.000000   10.000000    48     0.2083

Effective grid spacing dv^(1/3) = 0.2027

                     log10-error:    total        iterations:
           time      wfs    density  energy       fermi  poisson
iter:   1  10:02:52          +inf  -181.917657    2      4
iter:   2  10:02:53         -3.19  -181.917962    2      1
iter:   3  10:02:53         -3.33  -181.918098    2      1
iter:   4  10:02:54         -3.48  -181.918246    2      1
iter:   5  10:02:54         -3.61  -181.918261    2      1
iter:   6  10:02:55         -3.77  -181.918142    2      1
iter:   7  10:02:56         -3.88  -181.917920    2      1
iter:   8  10:02:56         -4.09  -181.917863    2      1

Converged after 8 iterations.

Dipole moment: (0.320311, -0.446626, 0.073808) |e|*Ang

Energy contributions relative to reference atoms: (reference = -24663.074771)

Kinetic:       +113.722072
Potential:     -119.897183
External:        +0.000000
XC:            -178.602763
Entropy (-ST):   -0.292224
Local:           +3.006124
Free energy:   -182.063975
Extrapolated:  -181.917863

Fermi level: -4.41264

 Band  Eigenvalues  Occupancy
    0    -23.45155    2.00000
    1    -22.10503    2.00000
    2    -21.48372    2.00000
    3    -20.89077    2.00000
    4    -20.57500    2.00000
    5    -20.03965    2.00000
    6    -19.60585    2.00000
    7    -19.21100    2.00000
    8    -18.57818    2.00000
    9    -18.14292    2.00000
   10    -17.61778    2.00000
   11    -16.70808    2.00000
   12    -16.45333    2.00000
   13    -15.96836    2.00000
   14    -15.83607    2.00000
   15    -14.58072    2.00000
   16    -13.93638    2.00000
   17    -13.85993    2.00000
   18    -13.68676    2.00000
   19    -12.77034    2.00000
   20    -12.50874    2.00000
   21    -11.97634    2.00000
   22    -11.63827    2.00000
   23    -11.33892    2.00000
   24    -11.01022    2.00000
   25    -10.83904    2.00000
   26    -10.54387    2.00000
   27    -10.16956    2.00000
   28     -9.83382    2.00000
   29     -9.67391    2.00000
   30     -9.38178    2.00000
   31     -9.28155    2.00000
   32     -8.92636    2.00000
   33     -8.65118    2.00000
   34     -8.41876    2.00000
   35     -8.19832    2.00000
   36     -7.69441    2.00000
   37     -7.21326    2.00000
   38     -7.07537    2.00000
   39     -6.89158    2.00000
   40     -6.48632    2.00000
   41     -6.28758    2.00000
   42     -5.92706    2.00000
   43     -5.78293    2.00000
   44     -5.63431    1.99999
   45     -5.02299    1.99554
   46     -4.75409    1.93631
   47     -4.48436    1.34401
   48     -4.35491    0.71915
   49     -3.80568    0.00461
   50     -3.55730    0.00039
   51     -3.02145    0.00000
   52     -2.94110    0.00000
   53     -2.62777    0.00000
   54     -2.26354    0.00000
   55     -1.31660    0.00000
   56     -1.21379    0.00000
   57     -0.68670    0.00000
   58     -0.30043    0.00000
   59     -0.16645    0.00000
[...]
   83      8.93731    0.00000
   84      9.19047    0.00000
   85      9.20384    0.00000
   86      9.39380    0.00000
   87      9.43874    0.00000
   88      9.52532    0.00000
   89      9.69137    0.00000
   90      9.75597    0.00000
   91      9.86427    0.00000
   92     10.02067    0.00000
   93     10.10784    0.00000
   94     10.23301    0.00000
   95     10.30941    0.00000
   96     10.34744    0.00000
   97     10.52692    0.00000

Forces in eV/Ang:
  0 C     0.01926    0.00309    0.00868
  1 C    -0.00143   -0.02697    0.01347
  2 C     0.01417    0.02370    0.00422
  3 C    -0.03797    0.00017    0.05620
  4 C    -0.00636    0.02089   -0.01361
  5 C    -0.01141    0.00950   -0.08397
  6 C     0.01695    0.02241   -0.02212
  7 C     0.01549    0.01397   -0.00880
  8 C     0.01039    0.00809    0.00531
  9 C     0.01558   -0.05220    0.04602
 10 C    -0.07702    0.02754   -0.02072
 11 C     0.05355   -0.02297   -0.00757
 12 C     0.03003    0.02855   -0.03793
 13 C    -0.00765   -0.00701    0.02742
 14 C    -0.00445   -0.01598    0.03109
 15 C    -0.03139   -0.00069    0.08319
 16 C    -0.00669   -0.02876   -0.03908
 17 C    -0.00704    0.01928    0.01590
 18 C    -0.01676   -0.01426   -0.03888
 19 C     0.05027   -0.05455    0.05591
 20 C     0.03145    0.00206   -0.04755
 21 C     0.00835    0.05231   -0.00444
 22 C     0.00058   -0.03302   -0.02025
 23 C    -0.00517    0.03979    0.00667