User:   esb@s65n22.grendel.cscaa.dk
Date:   Thu Nov  9 11:53:30 2017
Arch:   x86_64
Pid:    69799
Python: 2.7.13
gpaw:   /home/esb/DFT/gpaw_git/gpaw
_gpaw:  /home/esb/DFT/gpaw_git/build/bin.linux-x86_64-2.7/gpaw-python
ase:    /home/esb/DFT/ase_git/ase (version 3.15.0b1)
numpy:  /comm/swstack/core/python/2.7.13/lib/python2.7/site-packages/numpy (version 1.13.3)
scipy:  /comm/swstack/core/python/2.7.13/lib/python2.7/site-packages/scipy (version 0.19.1)
units:  Angstrom and eV
cores:  16
Extra parameters: {'blacs': True}

Input parameters:
  basis: dzp
  gpts: [80 80 48]
  kpts: [1 1 1]
  maxiter: 99
  mixer: {backend: pulay,
          beta: 0.05,
          method: separate,
          nmaxold: 5,
          weight: 75}
  mode: lcao
  nbands: -50
  occupations: {name: fermi-dirac,
                width: 0.1}
  poissonsolver: {eps: 1e-07,
                  name: fd,
                  nn: 3,
                  relax: GS}
  xc: PBE

System changes: positions, numbers, cell, pbc, initial_charges, initial_magmoms

Initialize ...

C-setup:
  name: Carbon
  id: 4aa54d4b901d75f77cc0ea3eec22967b
  Z: 6
  valence: 4
  core: 2
  charge: 0.0
  file: /home/esb/DFT/gpaw-setups-0.8.7929/C.PBE.gz
  cutoffs: 0.64(comp), 1.14(filt), 1.14(core), lmax=2
  valence states:
                energy  radius
    2s(2.00)   -13.751   0.635
    2p(2.00)    -5.284   0.635
    *s          13.461   0.635
    *p          21.927   0.635
    *d           0.000   0.635

  LCAO basis set for C:
    Name: dzp
    File: /home/esb/DFT/gpaw-setups-0.8.7929/C.dzp.basis.gz
    Number of radial functions: 5
    Number of spherical harmonics: 13
      l=0, rc=5.5469 Bohr: 2s-sz confined orbital
      l=1, rc=6.6719 Bohr: 2p-sz confined orbital
      l=0, rc=3.0312 Bohr: 2s-dz split-valence wave
      l=1, rc=3.7500 Bohr: 2p-dz split-valence wave
      l=2, rc=6.6719 Bohr: d-type Gaussian polarization

Reference energy: -24663.074771

Spin-paired calculation

Occupation numbers:
  Fermi-Dirac: width=0.1000 eV

Convergence criteria:
  Maximum total energy change: 0.0005 eV / electron
  Maximum integral of absolute density change: 0.0001 electrons
  Maximum integral of absolute eigenstate change: 4e-08 eV^2
  Maximum number of iterations: 99

Symmetries present (total): 1

  ( 1  0  0)
  ( 0  1  0)
  ( 0  0  1)

1 k-point (Gamma)
1 k-point in the irreducible part of the Brillouin zone
       k-points in crystal coordinates                weights
   0:     0.00000000    0.00000000    0.00000000          1/1

Wave functions: LCAO
  Diagonalizer: Serial LAPACK
  Atomic Correction: dense with blas
  Datatype: float
  Eigensolver: None

LCAO using direct dense diagonalizer

Densities:
  Coarse grid: 80*80*48 grid
  Fine grid: 160*160*96 grid
  Total Charge: 0.000000

Density mixing:
  Method: separate
  Backend: pulay
  Linear mixing parameter: 0.05
  Mixing with 5 old densities
  Damping of long wave oscillations: 75

Hamiltonian:
  XC and Coulomb potentials evaluated on a 160*160*96 grid
  Using the PBE Exchange-Correlation functional
  Interpolation: tri-quintic (5. degree polynomial)
  Poisson solver: Gauss-Seidel solver with 6 multi-grid levels
    Coarsest grid: 5 x 5 x 3 points
    Stencil: 6*3+1=19 point O(h^6) finite-difference Laplacian
    Max iterations: 1000
    Tolerance: 1.000000e-07

Total number of cores used: 16
Domain decomposition: 2 x 4 x 2

Number of atoms: 24
Number of atomic orbitals: 312
Number of bands in calculation: 98
Bands to converge: occupied states only
Number of valence electrons: 96

... initialized

Initializing position-dependent things.

Density initialized from atomic densities
    /      |          C                           |
   /       |       C    C  C                      |
  /        |    C C     C     C                   |
 *         |   C    C     C   C                   |
 |         |  C    C           C                  |
 |         .----C-----C---C--C--------------------.
 |       /      C   C       C                   /
 |      /             C                        /

Positions:
   0 C      3.755948    6.096965    5.665121
   1 C      5.295470    4.023362    4.806112
   2 C      4.799111    5.238541    5.428023
   3 C      3.749428    7.326494    6.286017
   4 C      6.709330    4.047850    4.758155
   5 C      3.914266    8.723189    5.993542
   6 C      6.048440    5.919208    5.923049
   7 C      4.937179    7.688955    7.123939
   8 C      7.923868    3.432508    4.348003
   9 C      7.179688    5.249126    5.474924
  10 C      6.155654    7.096392    6.644812
  11 C      4.906463    9.171451    7.012771
  12 C      9.276933    9.519508    5.891452
  13 C     10.500650    7.250132    5.019497
  14 C      9.596717    8.212650    5.624700
  15 C      8.143211   10.050267    6.466139
  16 C      9.855204    5.998025    4.887119
  17 C      6.838065   10.535697    6.113403
  18 C      8.405053    7.380108    6.019658
  19 C      7.243195    9.118490    7.218473
  20 C      9.891850    4.652490    4.428680
  21 C      8.529813    6.086089    5.530272
  22 C      7.261802    7.782110    6.690159
  23 C      5.937207    9.810424    7.055026

Unit cell:
           periodic     x           y           z      points  spacing
  1. axis:    yes   16.000000    0.000000    0.000000    80     0.2000
  2. axis:    yes    0.000000   16.000000    0.000000    80     0.2000
  3. axis:    yes    0.000000    0.000000   10.000000    48     0.2083

Effective grid spacing dv^(1/3) = 0.2027

                     log10-error:    total        iterations:
           time      wfs    density  energy       fermi  poisson
iter:   1  11:53:33          +inf  -178.637122    3      6
iter:   2  11:53:33         -0.90  -177.724063    4      3
iter:   3  11:53:34         -0.93  -176.528307    34     3
iter:   4  11:53:35         -1.04  -176.137405    3      2
iter:   5  11:53:36         -1.08  -175.448613    35     4
iter:   6  11:53:36         -1.47  -175.323601    4      3
iter:   7  11:53:37         -1.59  -175.234000    3      3
iter:   8  11:53:38         -1.78  -175.205537    3      3
iter:   9  11:53:39         -1.97  -175.191688    3      2
iter:  10  11:53:39         -2.15  -175.183770    3      2
iter:  11  11:53:40         -2.24  -175.174504    3      2
iter:  12  11:53:41         -2.35  -175.179455    3      2
iter:  13  11:53:41         -2.41  -175.183764    3      2
iter:  14  11:53:42         -2.85  -175.190248    3      1
iter:  15  11:53:43         -2.92  -175.176050    3      2
iter:  16  11:53:43         -3.24  -175.176766    2      1
iter:  17  11:53:44         -3.38  -175.176122    2      1
iter:  18  11:53:45         -3.53  -175.170199    2      1
iter:  19  11:53:45         -3.68  -175.170510    2      1
iter:  20  11:53:46         -3.82  -175.174165    2      1
iter:  21  11:53:47         -3.95  -175.173731    2      1
iter:  22  11:53:47         -4.03  -175.173604    2      1

Converged after 22 iterations.

Dipole moment: (-0.281482, 0.417641, 0.544142) |e|*Ang

Energy contributions relative to reference atoms: (reference = -24663.074771)

Kinetic:       +140.117033
Potential:     -138.607034
External:        +0.000000
XC:            -179.435394
Entropy (-ST):   -0.371399
Local:           +2.937490
Free energy:   -175.359304
Extrapolated:  -175.173604

Fermi level: -4.37815

 Band  Eigenvalues  Occupancy
    0    -24.39529    2.00000
    1    -23.21833    2.00000
    2    -22.82687    2.00000
    3    -22.01835    2.00000
    4    -21.10466    2.00000
    5    -20.66315    2.00000
    6    -19.83238    2.00000
    7    -19.23249    2.00000
    8    -18.34169    2.00000
    9    -18.24691    2.00000
   10    -17.56523    2.00000
   11    -17.55318    2.00000
   12    -16.16675    2.00000
   13    -15.49299    2.00000
   14    -15.44945    2.00000
   15    -15.24808    2.00000
   16    -14.45527    2.00000
   17    -13.66649    2.00000
   18    -12.67468    2.00000
   19    -12.66451    2.00000
   20    -12.30312    2.00000
   21    -12.12189    2.00000
   22    -11.55835    2.00000
   23    -11.37941    2.00000
   24    -11.33018    2.00000
   25    -11.23642    2.00000
   26    -10.87946    2.00000
   27    -10.70814    2.00000
   28    -10.13818    2.00000
   29     -9.96681    2.00000
   30     -9.89909    2.00000
   31     -9.42164    2.00000
   32     -9.35926    2.00000
   33     -8.99649    2.00000
   34     -8.52432    2.00000
   35     -8.26872    2.00000
   36     -8.16730    2.00000
   37     -7.93616    2.00000
   38     -7.00283    2.00000
   39     -6.60129    2.00000
   40     -6.25614    2.00000
   41     -6.09955    2.00000
   42     -5.74796    2.00000
   43     -5.54377    1.99998
   44     -5.33599    1.99986
   45     -5.00491    1.99621
   46     -4.73744    1.94644
   47     -4.39812    1.09953
   48     -4.33608    0.79273
   49     -4.06205    0.08132
   50     -4.05264    0.07429
   51     -3.84508    0.00963
   52     -2.96680    0.00000
   53     -2.65863    0.00000
   54     -2.52735    0.00000
   55     -2.18658    0.00000
   56     -1.85357    0.00000
   57     -1.21459    0.00000
   58     -0.95448    0.00000
   59     -0.21169    0.00000
[...]
   83      8.88473    0.00000
   84      8.94951    0.00000
   85      8.97204    0.00000
   86      9.14202    0.00000
   87      9.22909    0.00000
   88      9.28312    0.00000
   89      9.37657    0.00000
   90      9.40863    0.00000
   91      9.63650    0.00000
   92      9.64222    0.00000
   93      9.94904    0.00000
   94     10.04416    0.00000
   95     10.21615    0.00000
   96     10.24702    0.00000
   97     10.35133    0.00000

Forces in eV/Ang:
  0 C    -0.73003    0.56285   -0.14408
  1 C    -1.27159    0.35589   -0.18454
  2 C     1.01727   -0.35611    0.49459
  3 C     0.06669   -0.61085    0.21527
  4 C     2.55527   -0.87442   -0.61287
  5 C    -0.07536    0.49435   -0.19576
  6 C     0.12599   -0.87858   -0.10490
  7 C    -0.33059    0.52081    0.26067
  8 C    -1.19158    0.30573    0.23900
  9 C     3.89297    2.61622   -0.06948
 10 C    -5.24503   -2.83742    0.23768
 11 C   -11.52114   -7.22406   -0.70982
 12 C    -0.17111    0.90833   -0.12435
 13 C     0.26046    1.28834   -0.12430
 14 C    -0.16437   -1.07288    0.45934
 15 C     0.46905   -0.32765    0.24951
 16 C    -0.31364   -2.64203   -0.70909
 17 C    -0.39107    0.31723   -0.21839
 18 C     0.75139   -0.53687   -0.06810
 19 C    -0.32274    0.52786    0.26932
 20 C     0.23284    1.19148    0.29233
 21 C    -4.05368   -2.30278   -0.39721
 22 C     4.84343    3.44010    0.63199
 23 C    11.57959    7.12304    0.23885

System changes: positions

[...]

Density initialized from wave functions
    /      |          C                           |
   /       |       C    C  C                      |
  /        |    C C     C     C                   |
 *         |   C    C     C   C                   |
 |         |  C    C           C                  |
 |         .----C-----C---C--C--------------------.
 |       /      C   C       C                   /
 |      /             C                        /

[...]

Density initialized from wave functions
    /      |          C                           |
   /       |       C    C  C                      |
  /        |    C C     C     C                   |
 *         |   C    C     C   C                   |
 |         |  C    C           C                  |
 |         .----C-----C--C---C--------------------.
 |       /      C   C       C                   /
 |      /             C                        /

[...]

Density initialized from wave functions
    /      |          C                           |
   /       |      C     C  C                      |
  /        |    C C     C     C                   |
 *         |   C    C     C  C                    |
 |         |  C     C          C                  |
 |         .----C-----C--C---C--------------------.
 |       /      C   C       C                   /
 |      /             C                        /

[...]

Density initialized from wave functions
    /      |          C                           |
   /       |      C     C  C                      |
  /        |    C C C   C     C                   |
 *         |   C          C  C                    |
 |         |  C     C                             |
 |         .----C-----C--C---C-C------------------.
 |       /      C   C       C                   /
 |      /             C                        /

[...]

Density initialized from wave functions
    /      |          C                           |
   /       |      C     C  C                      |
  /        |    C C C   C     C                   |
 *         |   C          C  C                    |
 |         |  C     C                             |
 |         .----C-----C--C---C-C------------------.
 |       /      C   C       C                   /
 |      /             C                        /

[...]

Density initialized from wave functions
    /      |          C                           |
   /       |      C     C  C                      |
  /        |    C C C   C     C                   |
 *         |   C          C  C                    |
 |         |  C     C                             |
 |         .----C-----C--C-----C------------------.
 |        /                  C                   /
 |       /      C   C       C                   /
 |      /             C                        /

[...]

Density initialized from wave functions
    /      |          C                           |
   /       |      C     C  C                      |
  /        |    C C C   C     C                   |
 *         |   C          C  C                    |
 |         |  C    C                              |
 |         .----C-----C--C-----C------------------.
 |        /                 C                    /
 |       /       C  C       C                   /
 |      /             C                        /

[...]

Density initialized from wave functions
    /      |          C                           |
   /       |      C     C  C                      |
  /        |    C C C   C     C                   |
 *         |   C          C  C                    |
 |         |  C    C     C                        |
 |         .----C-----C--------C------------------.
 |        /                 C                    /
 |       /       C  C       C                   /
 |      /             C                        /

[...]

Density initialized from wave functions
    /      |          C                           |
   /       |      C     C  C                      |
  /        |    C C C   C     C                   |
 *         |   C          C  C                    |
 |         |  C    C     C                        |
 |         .----C-----C--------C------------------.
 |        /                 C                    /
 |       /       C  C       C                   /
 |      /              C                       /

[...]

Density initialized from wave functions
    /      |          C                           |
   /       |      C     C  C                      |
  /        |    C C C   C     C                   |
 *         |   C          C  C                    |
 |         |       C     C                        |
 |         .--C-C-----C--------C------------------.
 |        /                 C                    /
 |       /       C  C      C                    /
 |      /              C                       /

[...]

Density initialized from wave functions
    /      |          C                           |
   /       |      C     C  C                      |
  /        |      C C   C     C                   |
 *         |   CC         C  C                    |
 |         |       C     C                        |
 |         .--C-C-----C--------C------------------.
 |        /                 C                    /
 |       /       C  C      C                    /
 |      /              C                       /

[...]

Density initialized from wave functions
    /      |          C                           |
   /       |      C     C  C                      |
  /        |      C C   C     C                   |
 *         |   CC         C  C                    |
 |         |       C     C                        |
 |         .--C-C-----C--------C------------------.
 |        /                 C                    /
 |       /       C  C      C                    /
 |      /              C                       /

[...]

Density initialized from wave functions
    /      |          C                           |
   /       |      C     C  C                      |
  /        |      C C   C     C                   |
 *         |   CC         C  C                    |
 |         |       C     C                        |
 |         .--C-C-----C-----C-C-------------------.
 |       /       C  C      C                    /
 |      /              C                       /

[...]

Density initialized from wave functions
    /      |          C                           |
   /       |      C     C  C                      |
  /        |     C  C   C     C                   |
 *         |   CC         C  C                    |
 |         |       C     C                        |
 |         .--C-C-----C-----C-C-------------------.
 |       /       C  C      C                    /
 |      /              C                       /

[...]

Density initialized from wave functions
    /      |          C                           |
   /       |      C     CC C                      |
  /        |     C  C   C     C                   |
 *         |   CC         C  C                    |
 |         |       C     C                        |
 |         .--C-C-----C-----C-C-------------------.
 |       /       C  C      C                    /
 |      /              C                       /

[...]

Density initialized from wave functions
    /      |          C                           |
   /       |      C     CC C                      |
  /        |     C  C   C     C                   |
 *         |   CC         C  C                    |
 |         |       C     C                        |
 |         .--C-C-----C-----C-C-------------------.
 |       /       C  C     C                     /
 |      /              C                       /

[...]

Density initialized from wave functions
   /       |      C   C CC C                      |
  /        |     C  C   C     C                   |
 *         |   CC         C  C                    |
 |         |       C     C                        |
 |         .--C-C-----C-------C-------------------.
 |        /                 C                    /
 |       /       C   C    C                     /
 |      /              C                       /

[...]

Density initialized from wave functions
   /       |      C   C C  C                      |
  /        |     C  C   C     C                   |
 *         |   CC         C  C                    |
 |         |       C     C                        |
 |         .--C-C-----C-------C-------------------.
 |        /                 C                    /
 |       /       C   C    C                     /
 |      /              C                       /

[...]

Density initialized from wave functions
   /       |      C   C C  C                      |
  /        |     C  C   C    C                    |
 *         |   CC         C  C                    |
 |         |       C     C                        |
 |         .--C-C-----C-------C-------------------.
 |        /                 C                    /
 |       /       C  C     C                     /
 |      /              C                       /

[...]

Density initialized from wave functions
   /       |      C   C C  C                      |
  /        |     C  C   C    C                    |
 *         |   CC         C  C                    |
 |         |  C    C     C                        |
 |         .----C-----C-------C-------------------.
 |        /                 C                    /
 |       /       C  C     C                     /
 |      /              C                       /

[...]

Density initialized from wave functions
   /       |      C   C C  C                      |
  /        |     C  C   C    C                    |
 *         |  C C         C  C                    |
 |         |  C    C     C                        |
 |         .----C-----C-------C-------------------.
 |        /                 C                    /
 |       /       C  C     C                     /
 |      /              C                       /

[...]

System changes: positions

Initializing position-dependent things.

Density initialized from wave functions
   /       |      C   C C  C                      |
  /        |     C  C   C    C                    |
 *         |   CC         C  C                    |
 |         |  C    C     C                        |
 |         .----C-----C-------C-------------------.
 |        /                 C                    /
 |       /       C  C     C                     /
 |      /              C                       /

Positions:
   0 C      3.761146    6.021357    5.617471
   1 C      5.423989    4.171457    4.588693
   2 C      4.852034    5.188200    5.482551
   3 C      3.680714    7.247516    6.215780
   4 C      6.827335    4.264310    4.625663
   5 C      3.867028    8.622402    5.698777
   6 C      6.007392    5.774924    6.234268
   7 C      4.784578    7.702319    7.125686
   8 C      8.032852    4.083241    3.858093
   9 C      7.193711    5.215111    5.698966
  10 C      6.025973    6.980562    6.945292
  11 C      4.751189    9.131647    6.738646
  12 C      9.242280    9.341316    5.818721
  13 C     10.218657    7.037817    4.831123
  14 C      9.503825    7.991500    5.694545
  15 C      8.146337    9.953118    6.361675
  16 C      9.474156    5.845697    4.762592
  17 C      6.868958   10.427126    5.787862
  18 C      8.398837    7.215609    6.348263
  19 C      7.189108    9.163761    7.207360
  20 C      9.123483    4.731451    3.918132
  21 C      8.379559    5.928083    5.757459
  22 C      7.273283    7.734028    6.999634
  23 C      5.955891    9.858414    6.771366

Unit cell:
           periodic     x           y           z      points  spacing
  1. axis:    yes   16.000000    0.000000    0.000000    80     0.2000
  2. axis:    yes    0.000000   16.000000    0.000000    80     0.2000
  3. axis:    yes    0.000000    0.000000   10.000000    48     0.2083

Effective grid spacing dv^(1/3) = 0.2027

                     log10-error:    total        iterations:
           time      wfs    density  energy       fermi  poisson
iter:   1  12:06:52          +inf  -182.033928    2      5
iter:   2  12:06:53         -2.72  -182.031652    3      1
iter:   3  12:06:53         -2.96  -182.030954    2      1
iter:   4  12:06:54         -3.03  -182.031066    2      1
iter:   5  12:06:55         -3.14  -182.031015    2      1
iter:   6  12:06:56         -3.30  -182.030835    2      1
iter:   7  12:06:56         -3.56  -182.030414    2      1
iter:   8  12:06:57         -3.66  -182.030222    2      1
iter:   9  12:06:58         -3.80  -182.030227    2      1
iter:  10  12:06:58         -3.97  -182.030175    2      1
iter:  11  12:06:59         -4.08  -182.030144    2      1

Converged after 11 iterations.

Dipole moment: (-0.150708, 0.183002, 0.709407) |e|*Ang

Energy contributions relative to reference atoms: (reference = -24663.074771)

Kinetic:       +118.050476
Potential:     -122.918403
External:        +0.000000
XC:            -180.018020
Entropy (-ST):   -0.275960
Local:           +2.993784
Free energy:   -182.168124
Extrapolated:  -182.030144

Fermi level: -4.45700

 Band  Eigenvalues  Occupancy
    0    -23.81327    2.00000
    1    -22.94765    2.00000
    2    -22.78771    2.00000
    3    -21.69377    2.00000
    4    -20.86386    2.00000
    5    -20.36146    2.00000
    6    -19.42469    2.00000
    7    -19.10392    2.00000
    8    -18.55907    2.00000
    9    -18.28954    2.00000
   10    -17.25131    2.00000
   11    -16.94927    2.00000
   12    -16.20119    2.00000
   13    -16.02733    2.00000
   14    -15.01380    2.00000
   15    -14.86602    2.00000
   16    -14.20675    2.00000
   17    -13.66931    2.00000
   18    -13.51504    2.00000
   19    -12.48972    2.00000
   20    -12.34688    2.00000
   21    -11.92249    2.00000
   22    -11.36793    2.00000
   23    -11.22457    2.00000
   24    -11.01098    2.00000
   25    -10.86985    2.00000
   26    -10.82432    2.00000
   27    -10.52393    2.00000
   28    -10.13746    2.00000
   29     -9.94749    2.00000
   30     -9.89250    2.00000
   31     -9.63883    2.00000
   32     -9.38825    2.00000
   33     -9.33847    2.00000
   34     -8.86433    2.00000
   35     -8.60563    2.00000
   36     -8.24773    2.00000
   37     -7.85931    2.00000
   38     -6.70323    2.00000
   39     -6.64294    2.00000
   40     -6.28305    2.00000
   41     -6.21299    2.00000
   42     -6.04195    2.00000
   43     -5.48282    1.99993
   44     -5.34698    1.99973
   45     -4.79554    1.93449
   46     -4.77358    1.91905
   47     -4.61543    1.65963
   48     -4.33761    0.46511
   49     -3.98762    0.01814
   50     -3.83314    0.00390
   51     -3.28536    0.00002
   52     -2.81163    0.00000
   53     -2.42090    0.00000
   54     -2.29191    0.00000
   55     -1.96640    0.00000
   56     -0.94434    0.00000
   57     -0.86667    0.00000
   58      0.07810    0.00000
   59      0.14738    0.00000
[...]
   83      9.05545    0.00000
   84      9.19171    0.00000
   85      9.23945    0.00000
   86      9.42641    0.00000
   87      9.46230    0.00000
   88      9.56259    0.00000
   89      9.63220    0.00000
   90      9.81919    0.00000
   91      9.96258    0.00000
   92      9.99422    0.00000
   93     10.11321    0.00000
   94     10.14062    0.00000
   95     10.24637    0.00000
   96     10.35572    0.00000
   97     10.38703    0.00000

Forces in eV/Ang:
  0 C    -0.00434    0.04292   -0.02262
  1 C    -0.00180   -0.05242   -0.05649
  2 C    -0.02760   -0.01402    0.02856
  3 C     0.03258    0.04520   -0.00175
  4 C     0.01315   -0.05213   -0.04143
  5 C     0.00490    0.02267    0.01814
  6 C     0.02840   -0.01763   -0.00119
  7 C     0.01603    0.02753   -0.01669
  8 C     0.02682   -0.02354    0.04662
  9 C     0.02118   -0.00949    0.00903
 10 C     0.01402   -0.00439    0.03113
 11 C     0.00585    0.02045    0.00239
 12 C    -0.03631   -0.01286    0.06267
 13 C     0.00997    0.01877   -0.02492
 14 C    -0.00638    0.01912    0.00334
 15 C    -0.00752   -0.00166   -0.00065
 16 C     0.01147   -0.03181   -0.07843
 17 C    -0.03307    0.02240    0.00571
 18 C     0.02101   -0.00248   -0.03347
 19 C    -0.03029    0.01345   -0.02106
 20 C     0.01558   -0.01079    0.03689
 21 C     0.04597   -0.00703    0.02387
 22 C    -0.02173    0.01056   -0.02052
 23 C     0.00119    0.01996    0.03816