User:   esb@s66n11.grendel.cscaa.dk
Date:   Thu Nov  9 11:23:16 2017
Arch:   x86_64
Pid:    30370
Python: 2.7.13
gpaw:   /home/esb/DFT/gpaw_git/gpaw
_gpaw:  /home/esb/DFT/gpaw_git/build/bin.linux-x86_64-2.7/gpaw-python
ase:    /home/esb/DFT/ase_git/ase (version 3.15.0b1)
numpy:  /comm/swstack/core/python/2.7.13/lib/python2.7/site-packages/numpy (version 1.13.3)
scipy:  /comm/swstack/core/python/2.7.13/lib/python2.7/site-packages/scipy (version 0.19.1)
units:  Angstrom and eV
cores:  16
Extra parameters: {'blacs': True}

Input parameters:
  basis: dzp
  gpts: [80 80 48]
  kpts: [1 1 1]
  maxiter: 99
  mixer: {backend: pulay,
          beta: 0.05,
          method: separate,
          nmaxold: 5,
          weight: 75}
  mode: lcao
  nbands: -50
  occupations: {name: fermi-dirac,
                width: 0.1}
  poissonsolver: {eps: 1e-07,
                  name: fd,
                  nn: 3,
                  relax: GS}
  xc: PBE

System changes: positions, numbers, cell, pbc, initial_charges, initial_magmoms

Initialize ...

C-setup:
  name: Carbon
  id: 4aa54d4b901d75f77cc0ea3eec22967b
  Z: 6
  valence: 4
  core: 2
  charge: 0.0
  file: /home/esb/DFT/gpaw-setups-0.8.7929/C.PBE.gz
  cutoffs: 0.64(comp), 1.14(filt), 1.14(core), lmax=2
  valence states:
                energy  radius
    2s(2.00)   -13.751   0.635
    2p(2.00)    -5.284   0.635
    *s          13.461   0.635
    *p          21.927   0.635
    *d           0.000   0.635

  LCAO basis set for C:
    Name: dzp
    File: /home/esb/DFT/gpaw-setups-0.8.7929/C.dzp.basis.gz
    Number of radial functions: 5
    Number of spherical harmonics: 13
      l=0, rc=5.5469 Bohr: 2s-sz confined orbital
      l=1, rc=6.6719 Bohr: 2p-sz confined orbital
      l=0, rc=3.0312 Bohr: 2s-dz split-valence wave
      l=1, rc=3.7500 Bohr: 2p-dz split-valence wave
      l=2, rc=6.6719 Bohr: d-type Gaussian polarization

Reference energy: -24663.074771

Spin-paired calculation

Occupation numbers:
  Fermi-Dirac: width=0.1000 eV

Convergence criteria:
  Maximum total energy change: 0.0005 eV / electron
  Maximum integral of absolute density change: 0.0001 electrons
  Maximum integral of absolute eigenstate change: 4e-08 eV^2
  Maximum number of iterations: 99

Symmetries present (total): 1

  ( 1  0  0)
  ( 0  1  0)
  ( 0  0  1)

1 k-point (Gamma)
1 k-point in the irreducible part of the Brillouin zone
       k-points in crystal coordinates                weights
   0:     0.00000000    0.00000000    0.00000000          1/1

Wave functions: LCAO
  Diagonalizer: Serial LAPACK
  Atomic Correction: dense with blas
  Datatype: float
  Eigensolver: None

LCAO using direct dense diagonalizer

Densities:
  Coarse grid: 80*80*48 grid
  Fine grid: 160*160*96 grid
  Total Charge: 0.000000

Density mixing:
  Method: separate
  Backend: pulay
  Linear mixing parameter: 0.05
  Mixing with 5 old densities
  Damping of long wave oscillations: 75

Hamiltonian:
  XC and Coulomb potentials evaluated on a 160*160*96 grid
  Using the PBE Exchange-Correlation functional
  Interpolation: tri-quintic (5. degree polynomial)
  Poisson solver: Gauss-Seidel solver with 6 multi-grid levels
    Coarsest grid: 5 x 5 x 3 points
    Stencil: 6*3+1=19 point O(h^6) finite-difference Laplacian
    Max iterations: 1000
    Tolerance: 1.000000e-07

Total number of cores used: 16
Domain decomposition: 2 x 4 x 2

Number of atoms: 24
Number of atomic orbitals: 312
Number of bands in calculation: 98
Bands to converge: occupied states only
Number of valence electrons: 96

... initialized

Initializing position-dependent things.

Density initialized from atomic densities
  /        |        C                             |
 *         |        C  C  C  CC  C                |
 |         |       C C   C  C    C                |
 |         .---C---C-C--C-----CC------------------.
 |        /    C    C     CC                     /
 |       /             C                        /

Positions:
   0 C      9.844170    7.819532    6.118883
   1 C      8.549781    7.066304    6.239489
   2 C      6.179866    6.917527    7.096930
   3 C      6.031018    5.618635    6.452140
   4 C      7.813038    7.306786    5.140267
   5 C      8.917301    8.151583    4.950659
   6 C      6.569235    9.809763    5.185886
   7 C     10.399175    9.946771    4.636948
   8 C     11.048060    8.827978    4.617804
   9 C     10.284975    7.575192    4.804414
  10 C      7.743082   10.209563    4.987110
  11 C      9.020752    9.647616    4.845610
  12 C      5.655173    8.735896    5.357004
  13 C      6.342271    7.456986    5.312254
  14 C     10.502401    6.227793    4.872294
  15 C      9.227852    3.906791    5.175470
  16 C      9.419030    5.315235    5.066994
  17 C      5.784994    6.082988    5.421513
  18 C      8.176236    3.209649    5.332080
  19 C      4.412389    5.559654    5.592941
  20 C      8.104981    5.894490    5.177121
  21 C      6.857864    3.720848    5.428126
  22 C      4.511724    4.129408    5.656085
  23 C      6.897319    5.168096    5.343998

Unit cell:
           periodic     x           y           z      points  spacing
  1. axis:    yes   16.000000    0.000000    0.000000    80     0.2000
  2. axis:    yes    0.000000   16.000000    0.000000    80     0.2000
  3. axis:    yes    0.000000    0.000000   10.000000    48     0.2083

Effective grid spacing dv^(1/3) = 0.2027

                     log10-error:    total        iterations:
           time      wfs    density  energy       fermi  poisson
iter:   1  11:23:18          +inf  -164.174430    3      6
iter:   2  11:23:18         -0.89  -163.352999    3      3
iter:   3  11:23:19         -0.93  -161.310745    34     4
iter:   4  11:23:20         -1.10  -160.793261    3      3
iter:   5  11:23:20         -1.20  -160.566730    34     4
iter:   6  11:23:21         -1.50  -160.501678    3      3
iter:   7  11:23:22         -1.60  -160.463362    3      3
iter:   8  11:23:22         -1.81  -160.448033    3      2
iter:   9  11:23:23         -1.90  -160.440196    3      2
iter:  10  11:23:24         -1.98  -160.415466    3      3
iter:  11  11:23:24         -2.30  -160.415903    3      2
iter:  12  11:23:25         -2.49  -160.411691    2      2
iter:  13  11:23:26         -2.57  -160.410241    2      2
iter:  14  11:23:26         -2.74  -160.406926    2      1
iter:  15  11:23:27         -2.83  -160.406014    2      2
iter:  16  11:23:28         -3.18  -160.402012    2      1
iter:  17  11:23:28         -3.30  -160.400178    2      1
iter:  18  11:23:29         -3.54  -160.408507    2      1
iter:  19  11:23:29         -3.57  -160.410329    2      1
iter:  20  11:23:30         -3.67  -160.406743    2      1
iter:  21  11:23:31         -3.82  -160.409878    2      1
iter:  22  11:23:31         -4.00  -160.410266    2      1

Converged after 22 iterations.

Dipole moment: (0.399245, 0.059603, -0.459068) |e|*Ang

Energy contributions relative to reference atoms: (reference = -24663.074771)

Kinetic:       +184.553933
Potential:     -160.955532
External:        +0.000000
XC:            -186.773874
Entropy (-ST):   -0.329924
Local:           +2.930169
Free energy:   -160.575228
Extrapolated:  -160.410266

Fermi level: -4.73989

 Band  Eigenvalues  Occupancy
    0    -27.99399    2.00000
    1    -27.25601    2.00000
    2    -24.02097    2.00000
    3    -22.33539    2.00000
    4    -21.57147    2.00000
    5    -20.78723    2.00000
    6    -20.43617    2.00000
    7    -19.82998    2.00000
    8    -19.61587    2.00000
    9    -18.77529    2.00000
   10    -17.56742    2.00000
   11    -17.36034    2.00000
   12    -17.09138    2.00000
   13    -16.83849    2.00000
   14    -16.20355    2.00000
   15    -15.34867    2.00000
   16    -15.24049    2.00000
   17    -14.34044    2.00000
   18    -14.07745    2.00000
   19    -13.33982    2.00000
   20    -13.10910    2.00000
   21    -12.90225    2.00000
   22    -12.53109    2.00000
   23    -12.19696    2.00000
   24    -11.67994    2.00000
   25    -11.33158    2.00000
   26    -11.28249    2.00000
   27    -11.07341    2.00000
   28    -10.68102    2.00000
   29    -10.39573    2.00000
   30    -10.05140    2.00000
   31     -9.19491    2.00000
   32     -8.73741    2.00000
   33     -8.49338    2.00000
   34     -8.25970    2.00000
   35     -7.89174    2.00000
   36     -7.80512    2.00000
   37     -7.39921    2.00000
   38     -7.10408    2.00000
   39     -6.92000    2.00000
   40     -6.47042    2.00000
   41     -6.00544    1.99999
   42     -5.79839    1.99995
   43     -5.76547    1.99993
   44     -5.49908    1.99899
   45     -5.17880    1.97548
   46     -4.99332    1.85303
   47     -4.87116    1.57593
   48     -4.61657    0.45125
   49     -4.48413    0.14384
   50     -4.02086    0.00151
   51     -3.72086    0.00008
   52     -3.57962    0.00002
   53     -3.21063    0.00000
   54     -2.56175    0.00000
   55     -2.19329    0.00000
   56     -2.00472    0.00000
   57     -1.72554    0.00000
   58     -0.77489    0.00000
   59     -0.52350    0.00000
[...]
   83      7.89796    0.00000
   84      8.19266    0.00000
   85      8.23719    0.00000
   86      8.44498    0.00000
   87      8.63260    0.00000
   88      8.69657    0.00000
   89      8.92206    0.00000
   90      8.99593    0.00000
   91      9.25152    0.00000
   92      9.30616    0.00000
   93      9.51876    0.00000
   94      9.66155    0.00000
   95      9.71537    0.00000
   96      9.76719    0.00000
   97      9.95201    0.00000

Forces in eV/Ang:
  0 C    -2.59151   -0.70394    6.17904
  1 C     1.84736   -1.13553    8.95901
  2 C     0.99337   -0.13217    0.98219
  3 C     2.61331   -8.54242   24.48254
  4 C    -6.10413    0.73743   -5.81043
  5 C     0.25676    4.23703   -2.14709
  6 C    -2.75189   -3.39202    0.48534
  7 C     0.02425   -0.68069   -0.38473
  8 C     1.26683    1.20163   -1.58499
  9 C     4.62767   -0.02003   -2.79062
 10 C     2.18806    1.05417   -0.28253
 11 C    -1.91990    1.51144   -0.03103
 12 C     1.69456    0.69981   -0.61696
 13 C    -1.09758    4.12927   -0.34237
 14 C     0.38289   -3.96633   -1.17167
 15 C     1.60635    1.09418   -0.01652
 16 C     2.12128   -1.41422   -1.48444
 17 C    -7.98769   10.56670  -23.33435
 18 C    -2.58227    0.86701    0.03027
 19 C     0.77646   -3.15666    0.21247
 20 C     1.51665   -0.31927   -0.37312
 21 C     0.44647   -0.99524   -0.82956
 22 C     0.00733    2.08810    0.27844
 23 C     2.64070   -3.76888   -0.37668

System changes: positions

[...]

Density initialized from wave functions
  /        |        C                             |
 *         |        C  C  C  CC  C                |
 |         |       C C   C  C    C                |
 |         .---C---C-C--C-----CC------------------.
 |        /    C    C     CC                     /
 |       /             C                        /

[...]

Density initialized from wave functions
  /        |        C                             |
 *         |        C  C  C  CC  C                |
 |         |       C C   C  C    C                |
 |         .---C---C-C--C-----CC------------------.
 |        /    C    C     CC                     /
[...]
 |         .-------C-C--C------C------------------.
 |        /          C      C                    /
 |       /          C  C  C                     /

[...]

Density initialized from wave functions
  /        |           C                          |
 *         |   C    C    CCCCC  CC                |
 |         |    C   C  C        C                 |
 |         .-------C-C--C------C------------------.
 |        /          C      C                    /
 |       /          C  C  C                     /

[...]

Density initialized from wave functions
  /        |           C                          |
 *         |   C    C    CCCC   CC                |
 |         |    C   C  C        C                 |
 |         .-------C-C--C------C------------------.
 |        /          C      C                    /
 |       /          C  C  C                     /

[...]

Density initialized from wave functions
  /        |           C                          |
 *         |   C    C    CCCC   CC                |
 |         |    C   C  C        C                 |
 |         .-------C-C--C------C------------------.
 |        /          C      C                    /
 |       /          C  C  C                     /

[...]

Density initialized from wave functions
  /        |           C                          |
 *         |   C    C    CCCC   C C               |
 |         |    C   C  C        C                 |
 |         .-------C-C--C------C------------------.
 |        /          C     C                     /
 |       /          C  C  C                     /

[...]

Density initialized from wave functions
  /        |           C                          |
 *         |    C   C    CCCC   C C               |
 |         |    C   C  C        C                 |
 |         .-------C-C--C------C------------------.
 |        /          C     C                     /
 |       /          C  C  C                     /

[...]

Density initialized from wave functions
  /        |           C                          |
 *         |    C   C    CCCC   C C               |
 |         |    C   C  C                          |
 |         .-------C-C--C------C------------------.
 |        /          C     C                     /
 |       /          C  C  C                     /

[...]

Density initialized from wave functions
  /        |           C                          |
 *         |    C   C    CCCC   C C               |
 |         |    C   C  C                          |
 |         .-------C-C--C------C------------------.
 |        /          C     C                     /
 |       /          C  C  C                     /

[...]

Density initialized from wave functions
  /        |           C                          |
 *         |    C   C    CCCC   CC                |
 |         |    C   C  C                          |
 |         .-------C-C--C------C------------------.
 |        /          C     C                     /
 |       /          C  C  C                     /

[...]

Density initialized from wave functions
  /        |           C                          |
 *         |    C  C     CCCC   CC                |
 |         |    C   C  C                          |
 |         .-------C-C--C------C------------------.
 |        /          C      C                    /
 |       /          C  C  C                     /

[...]

Density initialized from wave functions
  /        |           C                          |
 *         |    C  C     CCCCC  CC                |
 |         |    C   C  C                          |
 |         .-------C-C--C------C------------------.
 |        /          C      C                    /
 |       /          C  C  C                     /

[...]

Density initialized from wave functions
  /        |       C   C                          |
 *         |    C        CCCCC  CC                |
 |         |    C   C  C                          |
 |         .-------C-C--C------C------------------.
 |        /          C      C                    /
 |       /          C  C  C                     /

[...]

Density initialized from wave functions
  /        |       C   C                          |
 *         |    C        CCCCC  CC                |
 |         |     C  C  C                          |
 |         .-------C-C--C------C------------------.
 |        /          C     C                     /
 |       /          C  C  C                     /

[...]

Density initialized from wave functions
  /        |       C   C                          |
 *         |    C        CCCCC  CC                |
 |         |     C  C  CC                         |
 |         .-------C-C--C------C------------------.
 |        /          C     C                     /
 |       /          C  C  C                     /

[...]

Density initialized from wave functions
  /        |       C   C                          |
 *         |    C        CCCCC  CC                |
 |         |     C  C  CC                         |
 |         .-------C-C--C------C------------------.
 |        /          C     C                     /
 |       /          C  C  C                     /

[...]

Density initialized from wave functions
  /        |       C   C                          |
 *         |    C        CCCC   CC                |
 |         |     C  C  CC                         |
 |         .-------C-C--C------C------------------.
 |        /          C     C                     /
 |       /          C  C  C                     /

[...]

Density initialized from wave functions
  /        |       C   C                          |
 *         |    C        CCCC   CC                |
 |         |     C  C  CC                         |
 |         .-------C-C--C------C------------------.
 |        /          C     C                     /
 |       /          C  C  C                     /

[...]

Density initialized from wave functions
  /        |        C  C                          |
 *         |    C        CCCC   CC                |
 |         |     C  C  CC                         |
 |         .-------C-C--C-----C-------------------.
 |        /          C     C                     /
 |       /          C  C   C                    /

[...]

Density initialized from wave functions
  /        |        C  C                          |
 *         |    C        CCCC   CC                |
 |         |     C  C  CC                         |
 |         .-------C-C--C-----C-------------------.
 |        /          C     C                     /
 |       /          C  C   C                    /

[...]

Density initialized from wave functions
  /        |        C  C                          |
 *         |    C        CCCC   CC                |
 |         |     C  C  CC                         |
 |         .------C--C--C-----C-------------------.
 |        /          C     C                     /
 |       /          C      C                    /
 |      /              C                       /

[...]

Density initialized from wave functions
  /        |        C  C                          |
 *         |    C        CCCC   CC                |
 |         |     C  C  CC                         |
 |         .------C--C--C-----C-------------------.
 |        /          C     C                     /
 |       /          C      C                    /
 |      /              C                       /

[...]

Density initialized from wave functions
  /        |        C  C                          |
 *         |    C        CCCC   CC                |
 |         |     C  C  C                          |
 |         .------C--C--C-----C-------------------.
 |        /          C     C                     /
 |       /          C      C                    /
 |      /              C                       /

[...]

Density initialized from wave functions
  /        |        C  C                          |
 *         |    C        CCCC   CC                |
 |         |     C  C  C                          |
 |         .------C--C--C-----C-------------------.
 |        /          C     C                     /
 |       /          C      C                    /
 |      /              C                       /

[...]

Density initialized from wave functions
  /        |        C  C                          |
 *         |    C        CCCC   CC                |
 |         |     C  C  C                          |
 |         .------C-C---C-----C-------------------.
 |        /          C     C                     /
 |       /          C      C                    /
 |      /              C                       /

[...]

Density initialized from wave functions
  /        |        C  C                          |
 *         |     C       CCCC   CC                |
 |         |     C  C  C                          |
 |         .------C-C---C-----C-------------------.
 |        /          C     C                     /
 |       /          C      C                    /
 |      /              C                       /

[...]

Density initialized from wave functions
  /        |     C  C  C                          |
 *         |             CCCC   CC                |
 |         |     C  C  C                          |
 |         .------C-C---C-----C-------------------.
 |        /          C     C                     /
 |       /          C                           /
 |      /              C   C                   /

[...]

Density initialized from wave functions
  /        |     C  C  C                          |
 *         |             CC C   CC                |
 |         |     C  C  C   C                      |
 |         .------C-C---C-----C-------------------.
 |        /          C     C                     /
 |       /          C                           /
 |      /              C   C                   /

[...]

Density initialized from wave functions
  /        |     C  C  C                          |
 *         |             CC C   CC                |
 |         |     C  C  C   C                      |
 |         .------C-C---C-----C-------------------.
 |        /          C     C                     /
 |       /          C                           /
 |      /              C   C                   /

[...]

Density initialized from wave functions
  /        |     C  C  C                          |
 *         |             CC C   CC                |
 |         |     C  C  C   C                      |
 |         .------C-C---C-----C-------------------.
 |        /          C     C                     /
 |       /          C      C                    /
 |      /              C                       /

[...]

System changes: positions

Initializing position-dependent things.

Density initialized from wave functions
  /        |     C  C  C                          |
 *         |             CC C   CC                |
 |         |     C  C  C   C                      |
 |         .------C-C---C-----C-------------------.
 |        /          C     C                     /
 |       /          C      C                    /
 |      /              C                       /

Positions:
   0 C      9.339698    7.321023    6.209787
   1 C      8.304254    6.280843    6.726028
   2 C      7.536248    6.096218    7.835347
   3 C      6.248431    5.855117    7.784483
   4 C      7.480437    7.271127    4.913464
   5 C      8.473762    8.162380    5.327488
   6 C      6.545192    9.565622    4.245093
   7 C     10.188677    9.721784    5.169677
   8 C     11.030440    8.826839    5.508113
   9 C     10.790776    7.481000    5.914696
  10 C      7.655868   10.251474    4.414804
  11 C      8.765232    9.521505    4.915586
  12 C      5.572613    8.662514    4.300049
  13 C      6.085696    7.372467    4.599448
  14 C     10.275692    6.379063    5.255225
  15 C      9.453443    4.163345    4.088555
  16 C      9.375063    5.424146    4.726237
  17 C      5.548125    5.992554    4.902173
  18 C      8.226293    3.674488    4.122029
  19 C      4.990419    5.823376    6.126763
  20 C      7.932064    5.848300    5.278717
  21 C      6.915884    3.744850    4.363684
  22 C      4.947770    5.685615    7.460356
  23 C      6.732191    5.027920    4.870697

Unit cell:
           periodic     x           y           z      points  spacing
  1. axis:    yes   16.000000    0.000000    0.000000    80     0.2000
  2. axis:    yes    0.000000   16.000000    0.000000    80     0.2000
  3. axis:    yes    0.000000    0.000000   10.000000    48     0.2083

Effective grid spacing dv^(1/3) = 0.2027

                     log10-error:    total        iterations:
           time      wfs    density  energy       fermi  poisson
iter:   1  11:42:51          +inf  -179.226504    2      4
iter:   2  11:42:52         -3.21  -179.226927    2      1
iter:   3  11:42:53         -3.31  -179.227933    2      1
iter:   4  11:42:53         -3.59  -179.227759    2      1
iter:   5  11:42:54         -3.81  -179.227911    2      1
iter:   6  11:42:55         -3.97  -179.226777    1      1
iter:   7  11:42:55         -4.09  -179.226602    2      1

Converged after 7 iterations.

Dipole moment: (0.280307, 0.084811, 0.235866) |e|*Ang

Energy contributions relative to reference atoms: (reference = -24663.074771)

Kinetic:       +111.722481
Potential:     -115.695125
External:        +0.000000
XC:            -178.167735
Entropy (-ST):   -0.124945
Local:           +2.976250
Free energy:   -179.289075
Extrapolated:  -179.226602

Fermi level: -4.47496

 Band  Eigenvalues  Occupancy
    0    -24.34614    2.00000
    1    -22.77133    2.00000
    2    -21.74418    2.00000
    3    -21.40181    2.00000
    4    -21.04931    2.00000
    5    -20.68606    2.00000
    6    -20.03647    2.00000
    7    -19.38138    2.00000
    8    -18.89282    2.00000
    9    -18.64509    2.00000
   10    -17.81085    2.00000
   11    -17.41869    2.00000
   12    -16.91054    2.00000
   13    -16.01787    2.00000
   14    -15.57096    2.00000
   15    -14.90731    2.00000
   16    -14.43572    2.00000
   17    -14.17474    2.00000
   18    -13.23386    2.00000
   19    -13.06342    2.00000
   20    -12.67381    2.00000
   21    -12.18153    2.00000
   22    -12.04934    2.00000
   23    -11.72228    2.00000
   24    -11.56067    2.00000
   25    -11.30615    2.00000
   26    -10.72665    2.00000
   27    -10.50789    2.00000
   28    -10.21706    2.00000
   29    -10.06666    2.00000
   30     -9.61401    2.00000
   31     -9.33909    2.00000
   32     -8.78288    2.00000
   33     -8.72122    2.00000
   34     -8.52114    2.00000
   35     -7.80265    2.00000
   36     -7.59932    2.00000
   37     -7.39989    2.00000
   38     -7.25652    2.00000
   39     -7.06989    2.00000
   40     -7.01797    2.00000
   41     -6.54882    2.00000
   42     -6.19431    2.00000
   43     -5.97586    2.00000
   44     -5.56518    1.99996
   45     -5.14494    1.99754
   46     -4.92374    1.97776
   47     -4.72925    1.85418
   48     -4.23746    0.17019
   49     -3.61531    0.00037
   50     -3.11616    0.00000
   51     -3.02523    0.00000
   52     -2.88775    0.00000
   53     -2.36576    0.00000
   54     -2.17248    0.00000
   55     -1.93854    0.00000
   56     -1.60991    0.00000
   57     -1.23589    0.00000
   58     -0.63807    0.00000
   59     -0.50263    0.00000
[...]
   83      8.28909    0.00000
   84      8.33944    0.00000
   85      8.52783    0.00000
   86      8.73072    0.00000
   87      8.81071    0.00000
   88      8.81655    0.00000
   89      8.96303    0.00000
   90      9.08338    0.00000
   91      9.31348    0.00000
   92      9.42260    0.00000
   93      9.52432    0.00000
   94      9.71144    0.00000
   95      9.96208    0.00000
   96     10.07483    0.00000
   97     10.23594    0.00000

Forces in eV/Ang:
  0 C    -0.03307    0.01881    0.04853
  1 C     0.03965    0.05092    0.06452
  2 C     0.03858   -0.01247    0.01262
  3 C     0.03459   -0.05893    0.05947
  4 C    -0.02973    0.01421   -0.00067
  5 C     0.01908    0.00464   -0.01468
  6 C    -0.01701   -0.01316    0.03984
  7 C     0.02100   -0.01262    0.02353
  8 C     0.01577   -0.00231   -0.02550
  9 C    -0.04516    0.00252   -0.02475
 10 C     0.02302    0.03002   -0.03112
 11 C    -0.01931   -0.02963   -0.02126
 12 C     0.01740    0.02231   -0.00911
 13 C     0.03434    0.03699   -0.03897
 14 C    -0.04487   -0.01165   -0.00332
 15 C    -0.01160    0.00916   -0.01116
 16 C    -0.00810   -0.01489    0.04616
 17 C    -0.04745    0.05462   -0.05739
 18 C    -0.00003   -0.06451   -0.01717
 19 C    -0.02437    0.02160   -0.03187
 20 C    -0.03776    0.01237    0.02951
 21 C     0.03563   -0.01517   -0.02760
 22 C     0.03633   -0.03157   -0.03051
 23 C     0.01418   -0.05656    0.03914