User:   esb@s66n14.grendel.cscaa.dk
Date:   Thu Nov  9 10:12:39 2017
Arch:   x86_64
Pid:    15316
Python: 2.7.13
gpaw:   /home/esb/DFT/gpaw_git/gpaw
_gpaw:  /home/esb/DFT/gpaw_git/build/bin.linux-x86_64-2.7/gpaw-python
ase:    /home/esb/DFT/ase_git/ase (version 3.15.0b1)
numpy:  /comm/swstack/core/python/2.7.13/lib/python2.7/site-packages/numpy (version 1.13.3)
scipy:  /comm/swstack/core/python/2.7.13/lib/python2.7/site-packages/scipy (version 0.19.1)
units:  Angstrom and eV
cores:  16
Extra parameters: {'blacs': True}

Input parameters:
  basis: dzp
  gpts: [80 80 48]
  kpts: [1 1 1]
  maxiter: 99
  mixer: {backend: pulay,
          beta: 0.05,
          method: separate,
          nmaxold: 5,
          weight: 75}
  mode: lcao
  nbands: -50
  occupations: {name: fermi-dirac,
                width: 0.1}
  poissonsolver: {eps: 1e-07,
                  name: fd,
                  nn: 3,
                  relax: GS}
  xc: PBE

System changes: positions, numbers, cell, pbc, initial_charges, initial_magmoms

Initialize ...

C-setup:
  name: Carbon
  id: 4aa54d4b901d75f77cc0ea3eec22967b
  Z: 6
  valence: 4
  core: 2
  charge: 0.0
  file: /home/esb/DFT/gpaw-setups-0.8.7929/C.PBE.gz
  cutoffs: 0.64(comp), 1.14(filt), 1.14(core), lmax=2
  valence states:
                energy  radius
    2s(2.00)   -13.751   0.635
    2p(2.00)    -5.284   0.635
    *s          13.461   0.635
    *p          21.927   0.635
    *d           0.000   0.635

  LCAO basis set for C:
    Name: dzp
    File: /home/esb/DFT/gpaw-setups-0.8.7929/C.dzp.basis.gz
    Number of radial functions: 5
    Number of spherical harmonics: 13
      l=0, rc=5.5469 Bohr: 2s-sz confined orbital
      l=1, rc=6.6719 Bohr: 2p-sz confined orbital
      l=0, rc=3.0312 Bohr: 2s-dz split-valence wave
      l=1, rc=3.7500 Bohr: 2p-dz split-valence wave
      l=2, rc=6.6719 Bohr: d-type Gaussian polarization

Reference energy: -24663.074771

Spin-paired calculation

Occupation numbers:
  Fermi-Dirac: width=0.1000 eV

Convergence criteria:
  Maximum total energy change: 0.0005 eV / electron
  Maximum integral of absolute density change: 0.0001 electrons
  Maximum integral of absolute eigenstate change: 4e-08 eV^2
  Maximum number of iterations: 99

Symmetries present (total): 1

  ( 1  0  0)
  ( 0  1  0)
  ( 0  0  1)

1 k-point (Gamma)
1 k-point in the irreducible part of the Brillouin zone
       k-points in crystal coordinates                weights
   0:     0.00000000    0.00000000    0.00000000          1/1

Wave functions: LCAO
  Diagonalizer: Serial LAPACK
  Atomic Correction: dense with blas
  Datatype: float
  Eigensolver: None

LCAO using direct dense diagonalizer

Densities:
  Coarse grid: 80*80*48 grid
  Fine grid: 160*160*96 grid
  Total Charge: 0.000000

Density mixing:
  Method: separate
  Backend: pulay
  Linear mixing parameter: 0.05
  Mixing with 5 old densities
  Damping of long wave oscillations: 75

Hamiltonian:
  XC and Coulomb potentials evaluated on a 160*160*96 grid
  Using the PBE Exchange-Correlation functional
  Interpolation: tri-quintic (5. degree polynomial)
  Poisson solver: Gauss-Seidel solver with 6 multi-grid levels
    Coarsest grid: 5 x 5 x 3 points
    Stencil: 6*3+1=19 point O(h^6) finite-difference Laplacian
    Max iterations: 1000
    Tolerance: 1.000000e-07

Total number of cores used: 16
Domain decomposition: 2 x 4 x 2

Number of atoms: 24
Number of atomic orbitals: 312
Number of bands in calculation: 98
Bands to converge: occupied states only
Number of valence electrons: 96

... initialized

Initializing position-dependent things.

Density initialized from atomic densities
  /        |           C     C  C                 |
 *         |C C  C  C       C   CC                |
 |         |  C C   C     C   CC                  |
 |         .-----------C---CC-C-------------------.
 |        /         C     C                      /

Positions:
   0 C      6.234102   10.583463    4.956606
   1 C      5.089952   10.068947    5.095744
   2 C      8.730410   11.105824    5.328144
   3 C      4.075351    9.228465    5.358003
   4 C      8.364872   10.318825    4.397835
   5 C      9.898563   10.644923    5.599173
   6 C      3.173206    8.282156    5.693216
   7 C      7.845891    9.103760    4.265853
   8 C     10.434076    9.421653    5.216394
   9 C      3.139976    6.088868    6.646039
  10 C      7.104605    8.105829    4.185388
  11 C      9.447729    8.806943    4.304330
  12 C      7.960871    4.206520    5.820503
  13 C      6.647209    3.916540    5.660217
  14 C     10.731988    5.840759    6.458928
  15 C      6.774580    4.219480    6.977434
  16 C      9.540594    5.382812    5.854151
  17 C     11.284718    6.998066    6.380354
  18 C      4.851689    4.665627    6.529217
  19 C      9.136253    6.350992    4.784174
  20 C     10.963267    8.034841    5.513893
  21 C      3.951991    5.618181    6.124947
  22 C      8.516931    7.422584    3.703278
  23 C      9.949949    7.491084    4.585505

Unit cell:
           periodic     x           y           z      points  spacing
  1. axis:    yes   16.000000    0.000000    0.000000    80     0.2000
  2. axis:    yes    0.000000   16.000000    0.000000    80     0.2000
  3. axis:    yes    0.000000    0.000000   10.000000    48     0.2083

Effective grid spacing dv^(1/3) = 0.2027

                     log10-error:    total        iterations:
           time      wfs    density  energy       fermi  poisson
iter:   1  10:12:40          +inf  -158.852105    2      6
iter:   2  10:12:41         -0.85  -155.586783    3      3
iter:   3  10:12:41         -0.90  -156.006123    32     3
iter:   4  10:12:42         -0.90  -154.333231    4      2
iter:   5  10:12:42         -0.94  -153.458009    3      2
iter:   6  10:12:43         -0.97  -151.906159    3      3
iter:   7  10:12:43         -1.13  -151.545759    33     3
iter:   8  10:12:44         -1.25  -151.200415    3      3
iter:   9  10:12:44         -1.37  -151.030884    4      3
iter:  10  10:12:45         -1.56  -150.933477    3      3
iter:  11  10:12:46         -1.71  -150.948667    3      3
iter:  12  10:12:46         -1.78  -150.883737    3      2
iter:  13  10:12:47         -1.96  -150.870440    3      2
iter:  14  10:12:47         -2.16  -150.861689    3      2
iter:  15  10:12:48         -2.28  -150.860789    3      2
iter:  16  10:12:48         -2.41  -150.856240    3      2
iter:  17  10:12:49         -2.64  -150.855575    3      2
iter:  18  10:12:49         -2.80  -150.854150    3      2
iter:  19  10:12:50         -3.00  -150.860995    3      1
iter:  20  10:12:50         -3.10  -150.862746    3      1
iter:  21  10:12:51         -3.32  -150.855382    2      1
iter:  22  10:12:51         -3.43  -150.855130    2      1
iter:  23  10:12:52         -3.56  -150.854175    2      1
iter:  24  10:12:52         -3.68  -150.853327    2      1
iter:  25  10:12:52         -3.88  -150.853503    2      1
iter:  26  10:12:53         -3.93  -150.852270    2      1
iter:  27  10:12:53         -4.09  -150.852466    2      1

Converged after 27 iterations.

Dipole moment: (1.641031, 0.054574, -0.172941) |e|*Ang

Energy contributions relative to reference atoms: (reference = -24663.074771)

Kinetic:       +147.475707
Potential:     -135.594714
External:        +0.000000
XC:            -165.366944
Entropy (-ST):   -0.520078
Local:           +2.893524
Free energy:   -151.112504
Extrapolated:  -150.852466

Fermi level: -4.85884

 Band  Eigenvalues  Occupancy
    0    -25.32970    2.00000
    1    -23.21864    2.00000
    2    -22.80442    2.00000
    3    -22.35679    2.00000
    4    -21.10080    2.00000
    5    -20.71346    2.00000
    6    -20.36738    2.00000
    7    -19.10957    2.00000
    8    -18.50777    2.00000
    9    -18.29015    2.00000
   10    -17.25787    2.00000
   11    -16.94680    2.00000
   12    -16.42475    2.00000
   13    -16.31612    2.00000
   14    -14.73230    2.00000
   15    -14.21607    2.00000
   16    -14.16642    2.00000
   17    -13.76951    2.00000
   18    -13.29879    2.00000
   19    -12.68932    2.00000
   20    -12.25534    2.00000
   21    -11.88749    2.00000
   22    -11.42231    2.00000
   23    -11.13984    2.00000
   24    -10.75116    2.00000
   25    -10.20272    2.00000
   26    -10.06140    2.00000
   27     -9.30105    2.00000
   28     -9.11730    2.00000
   29     -8.78477    2.00000
   30     -8.72761    2.00000
   31     -8.57670    2.00000
   32     -8.31698    2.00000
   33     -7.77819    2.00000
   34     -7.69016    2.00000
   35     -7.63397    2.00000
   36     -7.45472    2.00000
   37     -7.13649    2.00000
   38     -6.97826    2.00000
   39     -6.80402    2.00000
   40     -6.50556    2.00000
   41     -5.68394    1.99948
   42     -5.63451    1.99914
   43     -5.50894    1.99700
   44     -5.40979    1.99194
   45     -5.10209    1.83854
   46     -4.99833    1.60274
   47     -4.92085    1.30051
   48     -4.85556    0.98362
   49     -4.67524    0.27506
   50     -4.34651    0.01184
   51     -3.88591    0.00012
   52     -3.41904    0.00000
   53     -3.29694    0.00000
   54     -3.20863    0.00000
   55     -2.22725    0.00000
   56     -2.02540    0.00000
   57     -2.00782    0.00000
   58     -1.64411    0.00000
   59     -1.37946    0.00000
[...]
   83      7.85020    0.00000
   84      8.28939    0.00000
   85      8.47507    0.00000
   86      8.57640    0.00000
   87      8.66605    0.00000
   88      8.78915    0.00000
   89      9.13813    0.00000
   90      9.28393    0.00000
   91      9.31330    0.00000
   92      9.41957    0.00000
   93      9.66573    0.00000
   94      9.69826    0.00000
   95      9.81438    0.00000
   96      9.92322    0.00000
   97     10.02003    0.00000

Forces in eV/Ang:
  0 C     0.96320    1.57365   -0.58384
  1 C    -1.88800   -1.19368    0.26967
  2 C     2.34226    3.75064    2.50645
  3 C    -1.86363   -2.52194    1.29386
  4 C    -5.74201    1.75736   -3.37177
  5 C     2.72034   -1.04192    1.31546
  6 C     1.48030    1.36788   -0.50192
  7 C     4.43677    6.10984    1.03832
  8 C     0.14824   -0.41997    0.47065
  9 C   -23.69535   15.40880   13.81952
 10 C    -2.08672   -8.82867   -2.57466
 11 C     1.53887    1.84875   -1.14395
 12 C     3.18268    2.41711    2.32490
 13 C    -0.63416   -1.38204   -4.25330
 14 C    -1.68663   -2.19157   -0.04662
 15 C     0.02204    1.03128    1.98535
 16 C    -2.82754    0.47439   -2.45916
 17 C     0.37079    1.48804   -0.29874
 18 C     0.02990    0.17107    0.33682
 19 C     1.12116    1.03586   -0.52533
 20 C     0.26479   -0.49616    0.90671
 21 C    24.77589  -14.64894  -13.89252
 22 C    -5.49285   -3.25008    0.88181
 23 C     2.48546   -2.43948    2.45769

System changes: positions

[...]

Density initialized from wave functions
  /        |           C     C  C                 |
 *         |C C  C  C       C   CC                |
 |         |  C C   C     C   CC                  |
 |         .-----------C---CC-C-------------------.
 |        /         C     C                      /

[...]

Density initialized from wave functions
  /        |           C     C  C                 |
 *         |C C  C  C       C   CC                |
[...]
 |         .------------C--C--C-------------------.
 |        /          C  C                        /

[...]

Density initialized from wave functions
  /        |           C     C  C                 |
 *         | C C C  C     C     C                 |
 |         |   CC  C       C  C                   |
 |         .------------C--C--C-------------------.
 |        /          C  C                        /

[...]

Density initialized from wave functions
  /        |           C     C  C                 |
 *         | C C C  C     C     C                 |
 |         |   CC  C       C  C                   |
 |         .---------C--C--C--C-------------------.
 |        /             C                        /

[...]

Density initialized from wave functions
  /        |           C     C  C                 |
 *         | C C C  C     C     C                 |
 |         |   CC  C       C  C                   |
 |         .---------C--C--C--C-------------------.
 |        /             C                        /

[...]

Density initialized from wave functions
  /        |           C     C  C                 |
 *         | C C C  C     C     C                 |
 |         |   CC          C  C                   |
 |         .-------C-C--C--C--C-------------------.
 |        /             C                        /

[...]

Density initialized from wave functions
  /        |           C     C  C                 |
 *         | C C C  C     C     C                 |
 |         |   CC          C  C                   |
 |         .-------C-C--C--C--C-------------------.
 |        /             C                        /

[...]

Density initialized from wave functions
   /       |                    C                 |
  /        |           C     C                    |
 *         | C C C  C     C     C                 |
 |         |   CC          C  C                   |
 |         .-------C-C--C--C--C-------------------.
 |        /             C                        /

[...]

Density initialized from wave functions
   /       |                    C                 |
  /        |           C     C                    |
 *         | C C C  C     C     C                 |
 |         |   CC          C  C                   |
 |         .-------C-C--C--C--C-------------------.
 |        /             C                        /

[...]

Density initialized from wave functions
   /       |                    C                 |
  /        |           C     C                    |
 *         | C C C  C     C     C                 |
 |         |   CC          C  C                   |
 |         .-------C-C---C-C--C-------------------.
 |        /             C                        /

[...]

Density initialized from wave functions
   /       |                    C                 |
  /        |           C     C                    |
 *         | C C C  C     C     C                 |
 |         |   CC          C  C                   |
 |         .------C--C---C-C--C-------------------.
 |        /             C                        /

[...]

Density initialized from wave functions
   /       |                   C                  |
  /        |           C     C                    |
 *         | C C C  C     C     C                 |
 |         |   CC          C  C                   |
 |         .------C--C---C-C--C-------------------.
 |        /             C                        /

[...]

Density initialized from wave functions
   /       |                 C C                  |
  /        |           C                          |
 *         | C C C  C     C     C                 |
 |         |   C           C  C                   |
 |         .----C-C--C---C-C--C-------------------.
 |        /             C                        /

[...]

Density initialized from wave functions
   /       |                 C C                  |
  /        |           C                          |
 *         | C C C  C     C     C                 |
 |         |   C           C  CC                  |
 |         .----C-C--C---C-C--C-------------------.
 |        /             C                        /

[...]

Density initialized from wave functions
   /       |                 C C                  |
  /        |     C     C                          |
 *         | C C    C     C     C                 |
 |         |   C           C  CC                  |
 |         .----C-C--C---C-C--C-------------------.
 |        /             C                        /

[...]

Density initialized from wave functions
   /       |                 C C                  |
  /        |     C                                |
 *         | C C    C  C  C     C                 |
 |         |   C           C  CC                  |
 |         .----C-C--C---C-C--C-------------------.
 |        /             CC                       /

[...]

Density initialized from wave functions
   /       |                 C C                  |
  /        |   C C                                |
 *         | C      C  C  C     C                 |
 |         |   C           C  CC                  |
 |         .----C-C--C---C-C--C-------------------.
 |        /             CC                       /

[...]

Density initialized from wave functions
   /       |                 C C                  |
  /        |   C C                                |
 *         | C      C  C  C     CC                |
 |         |   C           C  CC                  |
 |         .----C-C--C---C-C--C-------------------.
 |        /             CC                       /

[...]

Density initialized from wave functions
   /       |                 C C                  |
  /        |   C C  C                             |
 *         | C         C  C     CC                |
 |         |   C          C   CC                  |
 |         .----C-C--C---C-C--C-------------------.
 |        /             CC                       /

[...]

Density initialized from wave functions
   /       |                 C C                  |
  /        |   C C  C                             |
 *         | C         C  C     CC                |
 |         |   C          C   CC                  |
 |         .----C-C--C---C-C--C-------------------.
 |        /             CC                       /

[...]

Density initialized from wave functions
   /       |                   C                  |
  /        |   C C  C        C                    |
 *         | C         C  C     CC                |
 |         |   C          C   CC                  |
 |         .----C-C--C---C-C--C-------------------.
 |        /             CC                       /

[...]

Density initialized from wave functions
   /       |                   C                  |
  /        |   C C  C        C                    |
 *         |  C        C  C     CC                |
 |         |   C          C   CC                  |
 |         .----C-C--C---C-C--C-------------------.
 |        /             CC                       /

[...]

Density initialized from wave functions
   /       |                   C                  |
  /        |   C C  C        C                    |
 *         |  C        C  C     CC                |
 |         |   C          C   CC                  |
 |         .----C-C--C---C-CC-C-------------------.
 |        /             CC                       /

[...]

Density initialized from wave functions
   /       |                   C                  |
  /        |   C C  C        C                    |
 *         |  C        C  C     CC                |
 |         |  C           C   CC                  |
 |         .----C-C--C---C-CC-C-------------------.
 |        /             CC                       /

[...]

Density initialized from wave functions
  /        |   C C  C        C C                  |
 *         |  C        C  C     CC                |
 |         |  C           C   CC                  |
 |         .----C-C--C---C-CC-C-------------------.
 |        /             C                        /

[...]

Density initialized from wave functions
  /        |   C C  C        C C                  |
 *         |  C        C  C     CC                |
 |         |  C           C   CC                  |
 |         .----C-C--C---C-CC-C-------------------.
 |        /             C                        /

[...]

Density initialized from wave functions
  /        |   C C  C  C     C C                  |
 *         |  C           C     CC                |
 |         |  C           C   CC                  |
 |         .----C-C--C---C-CC-C-------------------.
 |        /             C                        /

[...]

Density initialized from wave functions
   /       |                   C                  |
  /        |   C C  C  C     C                    |
 *         |  C           C     CC                |
 |         |  C           C   CC                  |
 |         .----C-C--C---C-CC-C-------------------.
 |        /             C                        /

[...]

Density initialized from wave functions
   /       |                   C                  |
  /        |   C C  C  C     C                    |
 *         |  C           C     CC                |
 |         |  C           C   CC                  |
 |         .----C-C--C---C-CC-C-------------------.
 |        /             CC                       /

[...]

Density initialized from wave functions
   /       |                   C                  |
  /        |     C  C  C     C                    |
 *         |  CC          C     CC                |
 |         |  C           C   CC                  |
 |         .----C-C--C---C-CC-C-------------------.
 |        /             CC                       /

[...]

Density initialized from wave functions
  /        |     C  C  C     C C                  |
 *         |  CC          C     CC                |
 |         |  C           C   CC                  |
 |         .----C-C--C---C-CC-C-------------------.
 |        /             CC                       /

[...]

Density initialized from wave functions
  /        |     C  C  C     C C                  |
 *         |  CC          C     CC                |
 |         |  C           C   CC                  |
 |         .----C-C--C---C-CC-C-------------------.
 |        /             CC                       /

[...]

Density initialized from wave functions
  /        |     C  C  C     C  C                 |
 *         |  CC          C     CC                |
 |         |  C           C   CC                  |
 |         .----C-C--C--CC--C-C-------------------.
 |        /              C C                     /

[...]

System changes: positions

Initializing position-dependent things.

Density initialized from wave functions
  /        |     C  C  C     C  C                 |
 *         |  CC          C     CC                |
 |         |  C           C   CC                  |
 |         .----C-C--C--CC--C-C-------------------.
 |        /              C C                     /

Positions:
   0 C      6.230128   10.461810    5.109464
   1 C      5.073502   10.019727    5.343270
   2 C      8.697603   11.041371    5.461728
   3 C      4.027886    9.246599    5.685017
   4 C      7.606321   10.379715    4.859021
   5 C      9.878080   10.604898    5.708329
   6 C      3.469097    8.147363    5.986617
   7 C      8.111989    9.162547    4.146853
   8 C     10.436853    9.420145    5.248687
   9 C      3.397557    6.830099    6.208326
  10 C      7.462448    7.911553    3.856734
  11 C      9.490827    8.854284    4.265756
  12 C      8.519572    4.447373    5.974720
  13 C      7.300233    4.126811    6.039952
  14 C     10.674697    5.802984    6.337164
  15 C      5.967432    4.175533    6.200684
  16 C      9.526040    5.367438    5.643647
  17 C     11.231799    6.959563    6.341541
  18 C      4.818453    4.710478    6.261793
  19 C      9.190882    6.371749    4.587175
  20 C     10.959661    8.024055    5.492423
  21 C      3.874337    5.655762    6.299837
  22 C      7.920365    6.745382    4.030627
  23 C     10.004634    7.524190    4.480499

Unit cell:
           periodic     x           y           z      points  spacing
  1. axis:    yes   16.000000    0.000000    0.000000    80     0.2000
  2. axis:    yes    0.000000   16.000000    0.000000    80     0.2000
  3. axis:    yes    0.000000    0.000000   10.000000    48     0.2083

Effective grid spacing dv^(1/3) = 0.2027

                     log10-error:    total        iterations:
           time      wfs    density  energy       fermi  poisson
iter:   1  10:23:00          +inf  -183.261602    2      4
iter:   2  10:23:00         -2.79  -183.260461    1      1
iter:   3  10:23:01         -2.89  -183.259809    2      1
iter:   4  10:23:01         -3.14  -183.260136    1      1
iter:   5  10:23:02         -3.42  -183.259976    2      1
iter:   6  10:23:02         -3.26  -183.259208    1      1
iter:   7  10:23:03         -3.79  -183.259390    1      1
iter:   8  10:23:03         -3.41  -183.259324    1      1
iter:   9  10:23:04         -4.27  -183.259285    1      1

Converged after 9 iterations.

Dipole moment: (0.091011, 0.040436, -0.034299) |e|*Ang

Energy contributions relative to reference atoms: (reference = -24663.074771)

Kinetic:       +105.881227
Potential:     -114.920982
External:        +0.000000
XC:            -177.297455
Entropy (-ST):   -0.001809
Local:           +3.078829
Free energy:   -183.260189
Extrapolated:  -183.259285

Fermi level: -3.97862

 Band  Eigenvalues  Occupancy
    0    -23.11641    2.00000
    1    -21.39161    2.00000
    2    -20.76938    2.00000
    3    -20.34795    2.00000
    4    -20.15422    2.00000
    5    -19.96019    2.00000
    6    -19.24531    2.00000
    7    -19.15310    2.00000
    8    -18.33843    2.00000
    9    -18.15418    2.00000
   10    -17.60130    2.00000
   11    -17.32261    2.00000
   12    -16.27934    2.00000
   13    -16.20743    2.00000
   14    -15.02218    2.00000
   15    -15.01365    2.00000
   16    -14.87688    2.00000
   17    -14.16348    2.00000
   18    -13.46876    2.00000
   19    -13.22415    2.00000
   20    -12.52695    2.00000
   21    -12.42695    2.00000
   22    -11.78844    2.00000
   23    -11.76563    2.00000
   24    -11.54671    2.00000
   25    -10.45571    2.00000
   26     -9.98740    2.00000
   27     -9.46283    2.00000
   28     -9.26106    2.00000
   29     -9.23340    2.00000
   30     -9.10598    2.00000
   31     -9.02497    2.00000
   32     -8.41283    2.00000
   33     -8.36610    2.00000
   34     -8.35082    2.00000
   35     -8.07203    2.00000
   36     -7.49174    2.00000
   37     -7.08405    2.00000
   38     -6.95151    2.00000
   39     -6.57377    2.00000
   40     -6.41101    2.00000
   41     -6.30438    2.00000
   42     -6.11657    2.00000
   43     -5.80629    2.00000
   44     -5.62403    2.00000
   45     -5.00904    1.99993
   46     -4.89887    1.99980
   47     -4.77602    1.99931
   48     -3.18274    0.00070
   49     -3.02814    0.00015
   50     -2.95650    0.00007
   51     -2.84776    0.00002
   52     -2.77452    0.00001
   53     -2.22429    0.00000
   54     -1.41210    0.00000
   55     -1.22986    0.00000
   56     -1.13532    0.00000
   57     -0.62960    0.00000
   58     -0.19027    0.00000
   59      0.12057    0.00000
[...]
   83      9.24426    0.00000
   84      9.30036    0.00000
   85      9.38675    0.00000
   86      9.47068    0.00000
   87      9.58079    0.00000
   88      9.62902    0.00000
   89      9.71548    0.00000
   90      9.76018    0.00000
   91      9.93665    0.00000
   92      9.94562    0.00000
   93     10.04520    0.00000
   94     10.12045    0.00000
   95     10.36601    0.00000
   96     10.39678    0.00000
   97     10.45260    0.00000

Forces in eV/Ang:
  0 C    -0.01780    0.04590    0.00014
  1 C    -0.00034   -0.00240   -0.00541
  2 C    -0.02355    0.05938    0.01057
  3 C     0.01586   -0.02838    0.03417
  4 C     0.03500    0.00519   -0.03206
  5 C    -0.02105   -0.02448    0.04502
  6 C     0.03281    0.00137   -0.06353
  7 C    -0.01544    0.00776    0.03771
  8 C     0.01253   -0.00556    0.01345
  9 C    -0.02803    0.08741   -0.01904
 10 C     0.03873    0.02484   -0.00285
 11 C     0.01179    0.01689   -0.04256
 12 C    -0.02069   -0.00012   -0.01608
 13 C    -0.01462    0.03491    0.05496
 14 C     0.03492   -0.01577    0.00053
 15 C     0.01298   -0.03736    0.02402
 16 C    -0.00070   -0.02379    0.01342
 17 C     0.01951   -0.04500   -0.02398
 18 C    -0.03032   -0.06314    0.05333
 19 C     0.00389   -0.03806   -0.00054
 20 C     0.02642    0.01568   -0.03766
 21 C     0.01473   -0.04953   -0.03096
 22 C     0.00252    0.04475    0.00333
 23 C    -0.03800    0.02693   -0.01059