User:   esb@s65n31.grendel.cscaa.dk
Date:   Thu Nov  9 09:32:27 2017
Arch:   x86_64
Pid:    15641
Python: 2.7.13
gpaw:   /home/esb/DFT/gpaw_git/gpaw
_gpaw:  /home/esb/DFT/gpaw_git/build/bin.linux-x86_64-2.7/gpaw-python
ase:    /home/esb/DFT/ase_git/ase (version 3.15.0b1)
numpy:  /comm/swstack/core/python/2.7.13/lib/python2.7/site-packages/numpy (version 1.13.3)
scipy:  /comm/swstack/core/python/2.7.13/lib/python2.7/site-packages/scipy (version 0.19.1)
units:  Angstrom and eV
cores:  16
Extra parameters: {'blacs': True}

Input parameters:
  basis: dzp
  gpts: [80 80 48]
  kpts: [1 1 1]
  maxiter: 99
  mixer: {backend: pulay,
          beta: 0.05,
          method: separate,
          nmaxold: 5,
          weight: 75}
  mode: lcao
  nbands: -50
  occupations: {name: fermi-dirac,
                width: 0.1}
  poissonsolver: {eps: 1e-07,
                  name: fd,
                  nn: 3,
                  relax: GS}
  xc: PBE

System changes: positions, numbers, cell, pbc, initial_charges, initial_magmoms

Initialize ...

C-setup:
  name: Carbon
  id: 4aa54d4b901d75f77cc0ea3eec22967b
  Z: 6
  valence: 4
  core: 2
  charge: 0.0
  file: /home/esb/DFT/gpaw-setups-0.8.7929/C.PBE.gz
  cutoffs: 0.64(comp), 1.14(filt), 1.14(core), lmax=2
  valence states:
                energy  radius
    2s(2.00)   -13.751   0.635
    2p(2.00)    -5.284   0.635
    *s          13.461   0.635
    *p          21.927   0.635
    *d           0.000   0.635

  LCAO basis set for C:
    Name: dzp
    File: /home/esb/DFT/gpaw-setups-0.8.7929/C.dzp.basis.gz
    Number of radial functions: 5
    Number of spherical harmonics: 13
      l=0, rc=5.5469 Bohr: 2s-sz confined orbital
      l=1, rc=6.6719 Bohr: 2p-sz confined orbital
      l=0, rc=3.0312 Bohr: 2s-dz split-valence wave
      l=1, rc=3.7500 Bohr: 2p-dz split-valence wave
      l=2, rc=6.6719 Bohr: d-type Gaussian polarization

Reference energy: -24663.074771

Spin-paired calculation

Occupation numbers:
  Fermi-Dirac: width=0.1000 eV

Convergence criteria:
  Maximum total energy change: 0.0005 eV / electron
  Maximum integral of absolute density change: 0.0001 electrons
  Maximum integral of absolute eigenstate change: 4e-08 eV^2
  Maximum number of iterations: 99

Symmetries present (total): 1

  ( 1  0  0)
  ( 0  1  0)
  ( 0  0  1)

1 k-point (Gamma)
1 k-point in the irreducible part of the Brillouin zone
       k-points in crystal coordinates                weights
   0:     0.00000000    0.00000000    0.00000000          1/1

Wave functions: LCAO
  Diagonalizer: Serial LAPACK
  Atomic Correction: dense with blas
  Datatype: float
  Eigensolver: None

LCAO using direct dense diagonalizer

Densities:
  Coarse grid: 80*80*48 grid
  Fine grid: 160*160*96 grid
  Total Charge: 0.000000

Density mixing:
  Method: separate
  Backend: pulay
  Linear mixing parameter: 0.05
  Mixing with 5 old densities
  Damping of long wave oscillations: 75

Hamiltonian:
  XC and Coulomb potentials evaluated on a 160*160*96 grid
  Using the PBE Exchange-Correlation functional
  Interpolation: tri-quintic (5. degree polynomial)
  Poisson solver: Gauss-Seidel solver with 6 multi-grid levels
    Coarsest grid: 5 x 5 x 3 points
    Stencil: 6*3+1=19 point O(h^6) finite-difference Laplacian
    Max iterations: 1000
    Tolerance: 1.000000e-07

Total number of cores used: 16
Domain decomposition: 2 x 4 x 2

Number of atoms: 24
Number of atomic orbitals: 312
Number of bands in calculation: 98
Bands to converge: occupied states only
Number of valence electrons: 96

... initialized

Initializing position-dependent things.

Density initialized from atomic densities
   /       |            C                         |
  /        |         C   C                        |
 *         |      C       C     C  C              |
 |         |      C   C  C C        C             |
 |         .-----C------C----C-C---C--------------.
 |        /      C C   C  C  C                   /
 |       /         C                            /
 |      /             C                        /

Positions:
   0 C      6.274730    4.533318    4.862656
   1 C      7.567119    5.330725    4.779731
   2 C      5.116442    5.281668    4.997692
   3 C      7.906437    3.027591    4.639161
   4 C      6.640152    3.162008    4.770322
   5 C      4.732581    6.472788    5.059918
   6 C      7.625917    6.738184    4.833321
   7 C      6.612039    7.816023    4.912455
   8 C      5.165539    7.814661    5.019131
   9 C      7.656935   10.241733    4.775335
  10 C      7.654213    8.858196    4.828001
  11 C      6.312542   12.498341    4.745992
  12 C      5.041381   12.134258    4.838565
  13 C      8.701647    7.859182    4.774697
  14 C      7.079111   11.370885    4.744714
  15 C     12.064704    7.009948    5.090786
  16 C     12.027224    8.314764    5.034292
  17 C     10.200646    9.828596    4.916491
  18 C     10.351991    4.966336    4.940739
  19 C     10.814364    6.323872    5.012344
  20 C      9.628146    7.171908    5.001978
  21 C      9.171731    4.515423    4.816799
  22 C     11.575147    9.549582    5.005885
  23 C      4.574548    9.445945    4.913698

Unit cell:
           periodic     x           y           z      points  spacing
  1. axis:    yes   16.000000    0.000000    0.000000    80     0.2000
  2. axis:    yes    0.000000   16.000000    0.000000    80     0.2000
  3. axis:    yes    0.000000    0.000000   10.000000    48     0.2083

Effective grid spacing dv^(1/3) = 0.2027

                     log10-error:    total        iterations:
           time      wfs    density  energy       fermi  poisson
iter:   1  09:32:28          +inf  -173.727988    2      6
iter:   2  09:32:29         -0.86  -171.900378    3      3
iter:   3  09:32:30         -0.90  -173.084808    2      4
iter:   4  09:32:30         -0.94  -172.840634    3      2
iter:   5  09:32:31         -0.94  -171.822368    3      2
iter:   6  09:32:31         -0.95  -170.221480    33     3
iter:   7  09:32:32         -1.14  -170.345971    3      3
iter:   8  09:32:32         -1.21  -168.728552    3      3
iter:   9  09:32:33         -1.37  -167.661985    4      3
iter:  10  09:32:33         -1.55  -167.752927    3      3
iter:  11  09:32:34         -1.60  -167.660861    3      3
iter:  12  09:32:34         -1.70  -167.521260    3      2
iter:  13  09:32:35         -1.90  -167.473396    3      2
iter:  14  09:32:35         -2.04  -167.503016    3      2
iter:  15  09:32:36         -2.06  -167.457406    3      2
iter:  16  09:32:36         -2.36  -167.444713    3      2
iter:  17  09:32:37         -2.61  -167.447651    2      2
iter:  18  09:32:37         -2.60  -167.444137    2      2
iter:  19  09:32:38         -2.82  -167.442316    2      2
iter:  20  09:32:38         -2.97  -167.443623    2      2
iter:  21  09:32:39         -3.31  -167.445531    2      1
iter:  22  09:32:39         -3.37  -167.445465    2      1
iter:  23  09:32:39         -3.42  -167.445346    2      1
iter:  24  09:32:40         -3.49  -167.445228    2      1
iter:  25  09:32:40         -3.61  -167.441662    2      1
iter:  26  09:32:41         -3.69  -167.438269    2      1
iter:  27  09:32:41         -4.05  -167.443008    2      1

Converged after 27 iterations.

Dipole moment: (0.051714, -0.173867, 0.034351) |e|*Ang

Energy contributions relative to reference atoms: (reference = -24663.074771)

Kinetic:       +101.113696
Potential:     -109.586726
External:        +0.000000
XC:            -161.711934
Entropy (-ST):   -0.238839
Local:           +2.861376
Free energy:   -167.562427
Extrapolated:  -167.443008

Fermi level: -4.67792

 Band  Eigenvalues  Occupancy
    0    -23.95458    2.00000
    1    -21.86374    2.00000
    2    -21.63658    2.00000
    3    -20.79753    2.00000
    4    -20.36552    2.00000
    5    -20.15750    2.00000
    6    -19.80274    2.00000
    7    -18.98146    2.00000
    8    -18.62138    2.00000
    9    -18.58155    2.00000
   10    -17.88448    2.00000
   11    -16.93180    2.00000
   12    -16.35142    2.00000
   13    -15.94160    2.00000
   14    -14.74057    2.00000
   15    -14.33265    2.00000
   16    -14.30226    2.00000
   17    -13.72850    2.00000
   18    -13.04936    2.00000
   19    -12.90593    2.00000
   20    -12.65312    2.00000
   21    -12.30910    2.00000
   22    -12.00497    2.00000
   23    -11.48837    2.00000
   24    -11.30017    2.00000
   25    -10.81546    2.00000
   26    -10.23302    2.00000
   27     -9.83360    2.00000
   28     -9.44554    2.00000
   29     -8.75227    2.00000
   30     -8.72902    2.00000
   31     -8.47317    2.00000
   32     -8.43862    2.00000
   33     -8.41116    2.00000
   34     -8.03073    2.00000
   35     -7.74900    2.00000
   36     -7.57828    2.00000
   37     -7.34160    2.00000
   38     -6.80545    2.00000
   39     -6.74272    2.00000
   40     -6.28022    2.00000
   41     -6.16990    2.00000
   42     -5.95447    1.99999
   43     -5.86563    1.99999
   44     -5.72816    1.99995
   45     -5.28189    1.99525
   46     -5.01453    1.93325
   47     -4.85294    1.70397
   48     -4.49722    0.28200
   49     -4.32604    0.05757
   50     -4.25209    0.02790
   51     -3.72619    0.00015
   52     -3.07854    0.00000
   53     -2.96502    0.00000
   54     -2.63583    0.00000
   55     -2.49071    0.00000
   56     -2.21391    0.00000
   57     -1.72335    0.00000
   58     -1.58418    0.00000
   59     -1.30560    0.00000
[...]
   83      8.38576    0.00000
   84      8.42745    0.00000
   85      8.86144    0.00000
   86      8.97756    0.00000
   87      9.06575    0.00000
   88      9.17708    0.00000
   89      9.26917    0.00000
   90      9.32747    0.00000
   91      9.51086    0.00000
   92      9.67672    0.00000
   93      9.70211    0.00000
   94      9.79907    0.00000
   95      9.96112    0.00000
   96     10.16539    0.00000
   97     10.19222    0.00000

Forces in eV/Ang:
  0 C     2.34156   -0.70061   -0.31302
  1 C     1.98782    1.34400    0.61890
  2 C    -0.42502    0.37716    0.09511
  3 C     2.85491   -0.10244    0.28059
  4 C    -0.46998    0.10257   -0.03580
  5 C    -0.04300    0.75202   -0.07947
  6 C    -2.34907   -1.93852   -0.33286
  7 C     1.19930    1.10611   -0.17096
  8 C    -0.88735    4.57953   -0.35420
  9 C     0.31048   -1.81357    0.10855
 10 C    -1.92545    0.52887   -0.09627
 11 C     0.08313   -0.70757   -0.03860
 12 C     0.04330    1.00968    0.02288
 13 C    -8.82487    5.53757   -1.65249
 14 C    -1.00272    1.15420    0.06516
 15 C    -0.69471   -0.75487   -0.24946
 16 C     0.02741   -0.78117    0.18970
 17 C     4.59182   -0.00267    0.27385
 18 C     1.34132    0.07886   -0.06708
 19 C    -0.61511    0.93896    0.35707
 20 C    12.52573   -6.84238    1.93373
 21 C    -7.21079   -0.62847   -0.51313
 22 C    -4.20007    1.74481   -0.36128
 23 C     1.27810   -4.94577    0.30623

System changes: positions

[...]

Density initialized from wave functions
   /       |            C                         |
  /        |         C   C                        |
 *         |      C       C     C  C              |
 |         |      C   C  C C        C             |
 |         .-----C------C----C-C---C--------------.
[...]

[...]

Density initialized from wave functions
   /       |           C                          |
  /        |            C                         |
 *         |            C             CC          |
 |         |   C        C            C            |
 |         .---C-C---CC---C-C--C---C--------------.
 |        /     C  C  C  C  C                    /
 |       /          C  C                        /

[...]

Density initialized from wave functions
   /       |           C                          |
  /        |            C                         |
 *         |            C             CC          |
 |         |   C        C            C            |
 |         .---C-C--C-C---C-C--C---C--------------.
 |        /     C  C  C  C  C                    /
 |       /          C  C                        /

[...]

Density initialized from wave functions
   /       |           C                          |
  /        |            C                         |
 *         |            C             CC          |
 |         |   C        C            C            |
 |         .---C-C--C-C---C-C--C---C--------------.
 |        /     C  C  C  C  C                    /
 |       /          C  C                        /

[...]

Density initialized from wave functions
   /       |           C                          |
  /        |            C                         |
 *         |            C             CC          |
 |         |   C        C            C            |
 |         .-----C--C-C---C-C--C---C--------------.
 |        /    CC  C  C  C  C                    /
 |       /          C  C                        /

[...]

Density initialized from wave functions
   /       |           C                          |
  /        |            C                         |
 *         |            C              C          |
 |         |   C        C            C            |
 |         .-----C--C-C---C-C--C---C--------------.
 |        /    CC  C  C  C  C                    /
 |       /          C  C                        /

[...]

Density initialized from wave functions
    /      |           C                          |
  /        |            C              C          |
 *         |            C              C          |
 |         |   C        C            C            |
 |         .-----C--C-C--C--C--C---C--------------.
 |        /    CC  C  C  C  C                    /
 |       /          C  C                        /

[...]

Density initialized from wave functions
    /      |           C                          |
  /        |            C              C          |
 *         |            C              C          |
 |         |   C        C            C            |
 |         .-----C--C-C--C--C--C--C---------------.
 |        /    CC  C  C  C  C                    /
 |       /          C  C                        /

[...]

Density initialized from wave functions
    /      |            C                         |
  /        |            C               C         |
 *         |            C              C          |
 |         |   C       C             C            |
 |         .-----C--C-C--C--C--C--C---------------.
 |        /    CC  C  C  C  C                    /
 |       /          C  C                        /

[...]

Density initialized from wave functions
    /      |            C                         |
  /        |            C               C         |
 *         |            C              C          |
 |         |   C       C             C            |
 |         .----C---C-C--C--C--C--C---------------.
 |        /    CC  C  C  C  C                    /
 |       /          C  C                        /

[...]

Density initialized from wave functions
    /      |            C                         |
  /        |            C               C         |
 *         |            C              C          |
 |         |   C       C             C            |
 |         .----C---C-C--C--C--C--C---------------.
 |        /    CC  C  C  C  C                    /
 |       /          C  C                        /

[...]

Density initialized from wave functions
    /      |            C                         |
  /        |            C               C         |
 *         |            C              C          |
 |         |   C       C             C            |
 |         .----C---C-C--C--C--C--C---------------.
 |        /    CC     C  C  C                    /
 |       /         CC  C                        /

[...]

Density initialized from wave functions
    /      |              C                       |
   /       |             C                        |
  /        |            C                 C       |
 *         |           C                C         |
 |         |   C       C             C            |
 |         .----C---C-C--C--C--C--C---------------.
 |        /    CC     C  C  C                    /
 |       /         CC  C                        /

[...]

Density initialized from wave functions
    /      |              C                       |
   /       |             C                        |
  /        |            C                         |
 *         |           C                C C       |
 |         |   C       C             C            |
 |         .----C---C-C--C--C--C--C---------------.
 |        /    CC     C  C  C                    /
 |       /         CC  C                        /

[...]

Density initialized from wave functions
    /      |              C                       |
   /       |             C                        |
  /        |            C                         |
 *         |           C                C C       |
 |         |  C       C              C            |
 |         .----C---C-C--C--C--C--C---------------.
 |        /    CC     C  C  C                    /
 |       /         CC  C                        /

[...]

Density initialized from wave functions
    /      |              C                       |
   /       |             C                        |
  /        |            C                         |
 *         |           C                C C       |
 |         |  C       C              C            |
 |         .----C--C--C--C--C--C--C---------------.
 |        /    CC     C  C  C                    /
 |       /         CC   C                       /

[...]

Density initialized from wave functions
    /      |              C                       |
   /       |             C                        |
  /        |            C                         |
 *         |           C                C C       |
 |         |  C       C              C            |
 |         .----C--C--C--C--C--C--C---------------.
 |        /    CC     C  C  C                    /
 |       /         CC   C                       /

[...]

Density initialized from wave functions
   /       |             CC                       |
  /        |            C                         |
 *         |           C                C  C      |
 |         |  C       C              C            |
 |         .----C--C--C--C--C--C--C---------------.
 |        /    CC     C  C  C                    /
 |       /         CC   C                       /

[...]

Density initialized from wave functions
   /       |             CC                       |
  /        |            C                         |
 *         |           C                C  C      |
 |         |  C       C              C            |
 |         .----C--C--C--C--C--C--C---------------.
 |        /    CC     C  C  C                    /
 |       /         CC   C                       /

[...]

Density initialized from wave functions
   /       |             CC                       |
  /        |            C                         |
 *         |           C                C  C      |
 |         |  C       C              C            |
 |         .----C--C--C-C---C--C--C---------------.
 |        /    CC     C  C  C                    /
 |       /         CC   C                       /

[...]

Density initialized from wave functions
   /       |             CC                       |
  /        |            C                         |
 *         |           C                C  C      |
 |         |  C       C              C            |
 |         .----C--C--C-C---C--C--C---------------.
 |        /    CC     C  C  C                    /
 |       /         CC   C                       /

[...]

Density initialized from wave functions
   /       |             CC                       |
  /        |            C                         |
 *         |           C                C  C      |
 |         |  C       C           C  C            |
 |         .----C--C--C-C--C---C------------------.
 |        /    CC     C  C  C                    /
 |       /         CC   C                       /

[...]

Density initialized from wave functions
   /       |             CC                       |
  /        |            C                         |
 *         |           C                C  C      |
 |         |  C       C           C  C            |
 |         .----C--C--C-C--C---C------------------.
 |        /    CC     C  C  C                    /
 |       /         CC   C                       /

[...]

Density initialized from wave functions
    /      |              C                       |
   /       |             C                        |
  /        |            C                         |
 *         |           C                C  C      |
 |         |  C       C           C  C            |
 |         .----C--C--C-C--C---C------------------.
 |        /    CC     C  C  C                    /
 |       /         CC   C                       /

[...]

Density initialized from wave functions
    /      |              C                       |
   /       |             C                        |
  /        |            C                         |
 *         |           C                C  C      |
 |         |  C       C           C  C            |
 |         .----C--C--C-C--C---C------------------.
 |        /    CC     C  C  C                    /
 |       /         CC   C                       /

[...]

Density initialized from wave functions
    /      |              C                       |
   /       |             C                        |
  /        |            C                         |
 *         |           C                C  C      |
 |         |  C       C           C  C            |
 |         .----C--C--C-C--C---C------------------.
 |        /    CC     C  C  C                    /
 |       /         C C  C                       /

[...]

System changes: positions

Initializing position-dependent things.

Density initialized from wave functions
    /      |              C                       |
   /       |             C                        |
  /        |            C                         |
 *         |           C                C  C      |
 |         |  C       C           C  C            |
 |         .----C--C--C-C--C---C------------------.
 |        /    CC     C  C  C                    /
 |       /         C C  C                       /

Positions:
   0 C      6.281540    4.049548    4.942570
   1 C      7.123549    5.216764    4.733429
   2 C      4.920943    4.472066    4.964899
   3 C      8.453013    3.411479    5.076897
   4 C      7.238316    2.999836    5.133972
   5 C      4.231939    5.509073    4.864126
   6 C      6.741990    6.546906    4.602048
   7 C      5.598751    7.423732    4.621727
   8 C      4.206123    6.953783    4.731339
   9 C      6.308653    9.968379    4.627790
  10 C      6.478120    8.625392    4.581211
  11 C      6.500253   12.560569    4.755457
  12 C      6.709910   13.847062    4.886628
  13 C      7.656650    7.671725    4.554879
  14 C      6.415785   11.240092    4.685747
  15 C     11.640771    7.501733    4.875241
  16 C     12.642947    8.290461    4.935245
  17 C     14.697153    9.934605    5.063979
  18 C      9.418976    5.932698    4.766923
  19 C     10.384705    7.007972    4.778029
  20 C      8.990862    7.310063    4.628238
  21 C      8.566854    4.828647    4.837359
  22 C     13.713822    9.068299    5.003871
  23 C      3.150529    7.827546    4.700441

Unit cell:
           periodic     x           y           z      points  spacing
  1. axis:    yes   16.000000    0.000000    0.000000    80     0.2000
  2. axis:    yes    0.000000   16.000000    0.000000    80     0.2000
  3. axis:    yes    0.000000    0.000000   10.000000    48     0.2083

Effective grid spacing dv^(1/3) = 0.2027

                     log10-error:    total        iterations:
           time      wfs    density  energy       fermi  poisson
iter:   1  09:51:28          +inf  -176.929558    2      4
iter:   2  09:51:28         -3.18  -176.928810    2      1
iter:   3  09:51:29         -3.35  -176.929500    2      1
iter:   4  09:51:29         -3.63  -176.929542    2      1
iter:   5  09:51:30         -3.82  -176.929723    2      1
iter:   6  09:51:30         -4.02  -176.929567    2      1

Converged after 6 iterations.

Dipole moment: (0.085907, -2.145126, -0.113665) |e|*Ang

Energy contributions relative to reference atoms: (reference = -24663.074771)

Kinetic:       +110.466828
Potential:     -118.627652
External:        +0.000000
XC:            -171.622693
Entropy (-ST):   -0.230487
Local:           +2.969194
Free energy:   -177.044810
Extrapolated:  -176.929567

Fermi level: -5.06601

 Band  Eigenvalues  Occupancy
    0    -24.02738    2.00000
    1    -23.20324    2.00000
    2    -22.56953    2.00000
    3    -21.28205    2.00000
    4    -20.14296    2.00000
    5    -20.00452    2.00000
    6    -19.86733    2.00000
    7    -19.24887    2.00000
    8    -18.44386    2.00000
    9    -18.28416    2.00000
   10    -17.91058    2.00000
   11    -17.83933    2.00000
   12    -16.97059    2.00000
   13    -16.32157    2.00000
   14    -15.96467    2.00000
   15    -15.33770    2.00000
   16    -14.61109    2.00000
   17    -14.47885    2.00000
   18    -14.21061    2.00000
   19    -13.96705    2.00000
   20    -13.48163    2.00000
   21    -11.98713    2.00000
   22    -11.77402    2.00000
   23    -11.45298    2.00000
   24    -11.43527    2.00000
   25    -11.26982    2.00000
   26    -10.60043    2.00000
   27    -10.35994    2.00000
   28     -9.95388    2.00000
   29     -9.52493    2.00000
   30     -9.08801    2.00000
   31     -8.58076    2.00000
   32     -8.34633    2.00000
   33     -8.26340    2.00000
   34     -8.10228    2.00000
   35     -7.97927    2.00000
   36     -7.62312    2.00000
   37     -7.53931    2.00000
   38     -6.92445    2.00000
   39     -6.77730    2.00000
   40     -6.56114    2.00000
   41     -6.31507    1.99999
   42     -6.12868    1.99995
   43     -5.54884    1.98413
   44     -5.54707    1.98385
   45     -5.41883    1.94296
   46     -5.38449    1.92051
   47     -5.30610    1.83378
   48     -4.90224    0.32555
   49     -4.51549    0.00810
   50     -4.30465    0.00099
   51     -4.14347    0.00020
   52     -3.12796    0.00000
   53     -2.59557    0.00000
   54     -2.05474    0.00000
   55     -1.79190    0.00000
   56     -1.64419    0.00000
   57     -1.63004    0.00000
   58     -0.99603    0.00000
   59     -0.02597    0.00000
[...]
   83      8.32644    0.00000
   84      8.48773    0.00000
   85      8.52638    0.00000
   86      8.79001    0.00000
   87      8.79670    0.00000
   88      8.99166    0.00000
   89      9.10833    0.00000
   90      9.24164    0.00000
   91      9.36977    0.00000
   92      9.50175    0.00000
   93      9.60498    0.00000
   94      9.71520    0.00000
   95      9.80019    0.00000
   96      9.87297    0.00000
   97     10.06520    0.00000

Forces in eV/Ang:
  0 C     0.00691    0.02766    0.01805
  1 C     0.04040    0.00810   -0.00754
  2 C    -0.03455   -0.00152   -0.00111
  3 C     0.01679    0.01941   -0.01623
  4 C    -0.00177   -0.02180    0.01134
  5 C    -0.00964    0.01097   -0.00623
  6 C    -0.00841    0.00116    0.01771
  7 C     0.00885   -0.00753   -0.01371
  8 C    -0.01876    0.00669    0.00594
  9 C    -0.03609   -0.02039   -0.01923
 10 C    -0.04753    0.00075   -0.00857
 11 C     0.02246    0.00448    0.02469
 12 C    -0.05769    0.04160   -0.01281
 13 C    -0.00093   -0.01977    0.02580
 14 C    -0.00428   -0.02711   -0.01677
 15 C     0.00503   -0.02936   -0.00039
 16 C     0.02462   -0.01753   -0.00608
 17 C     0.04393   -0.03450    0.01751
 18 C     0.06036   -0.07398    0.00923
 19 C    -0.02560    0.06072    0.00168
 20 C    -0.00122    0.08694   -0.00705
 21 C     0.01199    0.03931    0.01820
 22 C     0.02627    0.01706    0.00241
 23 C    -0.02752    0.00382    0.01531