User:   esb@s65n11.grendel.cscaa.dk
Date:   Thu Nov  9 09:52:30 2017
Arch:   x86_64
Pid:    75222
Python: 2.7.13
gpaw:   /home/esb/DFT/gpaw_git/gpaw
_gpaw:  /home/esb/DFT/gpaw_git/build/bin.linux-x86_64-2.7/gpaw-python
ase:    /home/esb/DFT/ase_git/ase (version 3.15.0b1)
numpy:  /comm/swstack/core/python/2.7.13/lib/python2.7/site-packages/numpy (version 1.13.3)
scipy:  /comm/swstack/core/python/2.7.13/lib/python2.7/site-packages/scipy (version 0.19.1)
units:  Angstrom and eV
cores:  16
Extra parameters: {'blacs': True}

Input parameters:
  basis: dzp
  gpts: [80 80 48]
  kpts: [1 1 1]
  maxiter: 99
  mixer: {backend: pulay,
          beta: 0.05,
          method: separate,
          nmaxold: 5,
          weight: 75}
  mode: lcao
  nbands: -50
  occupations: {name: fermi-dirac,
                width: 0.1}
  poissonsolver: {eps: 1e-07,
                  name: fd,
                  nn: 3,
                  relax: GS}
  xc: PBE

System changes: positions, numbers, cell, pbc, initial_charges, initial_magmoms

Initialize ...

C-setup:
  name: Carbon
  id: 4aa54d4b901d75f77cc0ea3eec22967b
  Z: 6
  valence: 4
  core: 2
  charge: 0.0
  file: /home/esb/DFT/gpaw-setups-0.8.7929/C.PBE.gz
  cutoffs: 0.64(comp), 1.14(filt), 1.14(core), lmax=2
  valence states:
                energy  radius
    2s(2.00)   -13.751   0.635
    2p(2.00)    -5.284   0.635
    *s          13.461   0.635
    *p          21.927   0.635
    *d           0.000   0.635

  LCAO basis set for C:
    Name: dzp
    File: /home/esb/DFT/gpaw-setups-0.8.7929/C.dzp.basis.gz
    Number of radial functions: 5
    Number of spherical harmonics: 13
      l=0, rc=5.5469 Bohr: 2s-sz confined orbital
      l=1, rc=6.6719 Bohr: 2p-sz confined orbital
      l=0, rc=3.0312 Bohr: 2s-dz split-valence wave
      l=1, rc=3.7500 Bohr: 2p-dz split-valence wave
      l=2, rc=6.6719 Bohr: d-type Gaussian polarization

Reference energy: -24663.074771

Spin-paired calculation

Occupation numbers:
  Fermi-Dirac: width=0.1000 eV

Convergence criteria:
  Maximum total energy change: 0.0005 eV / electron
  Maximum integral of absolute density change: 0.0001 electrons
  Maximum integral of absolute eigenstate change: 4e-08 eV^2
  Maximum number of iterations: 99

Symmetries present (total): 1

  ( 1  0  0)
  ( 0  1  0)
  ( 0  0  1)

1 k-point (Gamma)
1 k-point in the irreducible part of the Brillouin zone
       k-points in crystal coordinates                weights
   0:     0.00000000    0.00000000    0.00000000          1/1

Wave functions: LCAO
  Diagonalizer: Serial LAPACK
  Atomic Correction: dense with blas
  Datatype: float
  Eigensolver: None

LCAO using direct dense diagonalizer

Densities:
  Coarse grid: 80*80*48 grid
  Fine grid: 160*160*96 grid
  Total Charge: 0.000000

Density mixing:
  Method: separate
  Backend: pulay
  Linear mixing parameter: 0.05
  Mixing with 5 old densities
  Damping of long wave oscillations: 75

Hamiltonian:
  XC and Coulomb potentials evaluated on a 160*160*96 grid
  Using the PBE Exchange-Correlation functional
  Interpolation: tri-quintic (5. degree polynomial)
  Poisson solver: Gauss-Seidel solver with 6 multi-grid levels
    Coarsest grid: 5 x 5 x 3 points
    Stencil: 6*3+1=19 point O(h^6) finite-difference Laplacian
    Max iterations: 1000
    Tolerance: 1.000000e-07

Total number of cores used: 16
Domain decomposition: 2 x 4 x 2

Number of atoms: 24
Number of atomic orbitals: 312
Number of bands in calculation: 98
Bands to converge: occupied states only
Number of valence electrons: 96

... initialized

Initializing position-dependent things.

Density initialized from atomic densities
  /        |    C            C  C                 |
 *         |  C     C  C  C   C   C               |
 |         | C       C    C   CC C                |
 |         .---C---C-C---C--C---------------------.
 |        /          C    C                      /
 |       /             C                        /

Positions:
   0 C      6.109356   10.724318    4.587181
   1 C      5.002496   10.138557    4.764403
   2 C      8.623441   11.367017    4.767283
   3 C      7.509525   10.538073    4.552001
   4 C      8.011976    9.163822    4.624036
   5 C      9.858653   10.421551    5.070145
   6 C      9.422307    9.084404    4.993991
   7 C     11.081623    5.208559    6.317269
   8 C     11.612298    6.409360    6.202597
   9 C      9.271008    6.576419    5.323905
  10 C     11.419870    7.644342    5.809301
  11 C     10.081878    7.822915    5.339924
  12 C      9.367469    4.132462    5.116581
  13 C      9.519101    5.543678    5.209460
  14 C      3.478645    7.461403    5.782887
  15 C      5.816388    6.119330    5.454633
  16 C      8.349364    3.398632    5.171257
  17 C      4.483426    5.475644    5.523497
  18 C      8.198879    6.195252    5.294327
  19 C      6.237274    7.531132    5.555899
  20 C      7.023028    3.875364    5.245263
  21 C      3.962109    8.671975    5.906811
  22 C      3.243281    6.174632    5.664165
  23 C      7.020796    5.340016    5.298345

Unit cell:
           periodic     x           y           z      points  spacing
  1. axis:    yes   16.000000    0.000000    0.000000    80     0.2000
  2. axis:    yes    0.000000   16.000000    0.000000    80     0.2000
  3. axis:    yes    0.000000    0.000000   10.000000    48     0.2083

Effective grid spacing dv^(1/3) = 0.2027

                     log10-error:    total        iterations:
           time      wfs    density  energy       fermi  poisson
iter:   1  09:52:31          +inf  -161.541915    3      6
iter:   2  09:52:32         -0.88  -160.286324    3      3
iter:   3  09:52:32         -0.93  -158.518684    4      3
iter:   4  09:52:33         -1.04  -157.373675    34     3
iter:   5  09:52:34         -1.17  -156.941754    30     3
iter:   6  09:52:34         -1.38  -156.914152    4      3
iter:   7  09:52:35         -1.51  -156.813025    3      3
iter:   8  09:52:35         -1.65  -156.784332    3      3
iter:   9  09:52:36         -1.79  -156.778954    3      3
iter:  10  09:52:36         -1.92  -156.767495    3      2
iter:  11  09:52:37         -2.03  -156.757827    3      2
iter:  12  09:52:37         -2.26  -156.752880    3      2
iter:  13  09:52:38         -2.40  -156.749254    3      2
iter:  14  09:52:39         -2.58  -156.746637    3      2
iter:  15  09:52:39         -2.72  -156.745718    3      2
iter:  16  09:52:40         -2.91  -156.753935    2      1
iter:  17  09:52:40         -2.98  -156.749326    2      1
iter:  18  09:52:41         -3.07  -156.749032    2      1
iter:  19  09:52:41         -3.30  -156.744525    2      1
iter:  20  09:52:42         -3.42  -156.741837    2      1
iter:  21  09:52:42         -3.58  -156.743161    2      1
iter:  22  09:52:43         -3.67  -156.742770    2      1
iter:  23  09:52:43         -3.80  -156.743615    2      1
iter:  24  09:52:44         -3.90  -156.745247    2      1
iter:  25  09:52:44         -4.14  -156.744145    2      1

Converged after 25 iterations.

Dipole moment: (0.294798, -0.416075, -0.214018) |e|*Ang

Energy contributions relative to reference atoms: (reference = -24663.074771)

Kinetic:       +135.052243
Potential:     -128.769865
External:        +0.000000
XC:            -165.664257
Entropy (-ST):   -0.522799
Local:           +2.899133
Free energy:   -157.005545
Extrapolated:  -156.744145

Fermi level: -4.79984

 Band  Eigenvalues  Occupancy
    0    -27.92758    2.00000
    1    -22.12410    2.00000
    2    -21.87290    2.00000
    3    -21.23060    2.00000
    4    -20.98554    2.00000
    5    -20.21061    2.00000
    6    -19.52730    2.00000
    7    -18.65599    2.00000
    8    -18.03536    2.00000
    9    -17.73011    2.00000
   10    -17.14792    2.00000
   11    -16.91889    2.00000
   12    -16.51183    2.00000
   13    -16.48114    2.00000
   14    -15.75420    2.00000
   15    -15.07916    2.00000
   16    -14.40168    2.00000
   17    -14.10717    2.00000
   18    -13.69330    2.00000
   19    -13.49156    2.00000
   20    -12.97281    2.00000
   21    -12.41267    2.00000
   22    -11.74817    2.00000
   23    -11.46407    2.00000
   24    -10.58546    2.00000
   25    -10.56003    2.00000
   26     -9.84375    2.00000
   27     -9.79191    2.00000
   28     -9.55889    2.00000
   29     -9.40945    2.00000
   30     -8.83407    2.00000
   31     -8.61986    2.00000
   32     -8.41568    2.00000
   33     -8.23048    2.00000
   34     -7.91411    2.00000
   35     -7.58344    2.00000
   36     -7.45127    2.00000
   37     -7.42564    2.00000
   38     -6.77728    2.00000
   39     -6.54744    2.00000
   40     -6.28235    2.00000
   41     -6.16844    2.00000
   42     -5.92928    1.99998
   43     -5.52010    1.99851
   44     -5.45911    1.99726
   45     -5.14537    1.93878
   46     -4.90905    1.49755
   47     -4.84641    1.22873
   48     -4.80564    1.02896
   49     -4.59344    0.22530
   50     -4.48267    0.08049
   51     -4.17929    0.00403
   52     -3.95294    0.00042
   53     -3.54666    0.00001
   54     -3.42695    0.00000
   55     -2.99215    0.00000
   56     -2.82926    0.00000
   57     -2.40645    0.00000
   58     -2.13912    0.00000
   59     -0.70825    0.00000
[...]
   83      8.08875    0.00000
   84      8.41357    0.00000
   85      8.66835    0.00000
   86      8.93227    0.00000
   87      8.98537    0.00000
   88      9.08804    0.00000
   89      9.31946    0.00000
   90      9.40936    0.00000
   91      9.52090    0.00000
   92      9.61173    0.00000
   93      9.68414    0.00000
   94      9.72806    0.00000
   95      9.82574    0.00000
   96      9.97800    0.00000
   97     10.16344    0.00000

Forces in eV/Ang:
  0 C     0.05120   -0.76909    0.62082
  1 C    -2.31375   -2.54253    1.26008
  2 C     2.75464   -1.99881    0.50553
  3 C    -1.25569    0.14578    0.15330
  4 C     0.38271    0.77978    0.20995
  5 C    -2.70406    1.92963   -1.00318
  6 C     0.59260   -2.48771    0.95913
  7 C     1.07968   -1.35046    0.66682
  8 C     0.64519   -1.04964    0.49264
  9 C    11.69252   43.27958    2.16302
 10 C    -1.96136    0.70972   -1.02047
 11 C     0.57259    3.40352    0.15323
 12 C     2.72825    3.17057   -0.58086
 13 C    10.31455  -39.70719   -2.48102
 14 C     0.29654    3.07564   -0.63650
 15 C    -0.48411    1.00186   -0.02059
 16 C    -2.52244   -0.60499    0.26445
 17 C    -1.95105    3.07694    0.23993
 18 C   -23.52444   -7.68381   -0.10624
 19 C    -1.85552   -1.11509   -0.19446
 20 C     0.72769    0.52919   -0.21619
 21 C     2.78536    2.01063   -1.47151
 22 C     3.84694   -4.10180   -0.22710
 23 C     0.04029    0.31149    0.26929

System changes: positions

[...]

Density initialized from wave functions
  /        |    C            C  C                 |
 *         |  C     C  C  C   C   C               |
 |         | C       C    C C CC C                |
 |         .---C---C-C---C--C---------------------.
 |        /          C    C                      /
 |       /             C                        /

[...]

Density initialized from wave functions
  /        |    C            C C                  |
 *         |  C    C   C  C   C   C               |
[...]
 |        /          C     C                     /
 |       /              C                       /

[...]

Density initialized from wave functions
  /        |                C C                   |
 *         |  C C  C  C  C  C     C               |
 |         |   CC      C    C C   C               |
 |         .-------C-C--C----C---C----------------.
 |        /          C  C  C                     /

[...]

Density initialized from wave functions
  /        |                C C                   |
 *         |  C C  C  C  C  C     C               |
 |         |   CC      C    C C   C               |
 |         .-------C-C--C----C---C----------------.
 |        /          C  C  C                     /

[...]

Density initialized from wave functions
  /        |                C C                   |
 *         |  C C  C  C  C  C     C               |
 |         |  C        C    C C   C               |
 |         .----C--C-C--C----C---C----------------.
 |        /          C  C  C                     /

[...]

Density initialized from wave functions
  /        |                C C                   |
 *         |  C C  C  C  C  C     C               |
 |         |  C        C    C C   C               |
 |         .----C--C-C--C----C---C----------------.
 |        /          C  C  C                     /

[...]

Density initialized from wave functions
  /        |                C C                   |
 *         |    C  C  C  C  C     C               |
 |         |  C        C    C C   C               |
 |         .----C--C-C--C----C---C----------------.
 |        /          C  C  C                     /

[...]

Density initialized from wave functions
  /        |                C C                   |
 *         |    C  C  C  C  C     C               |
 |         | CC        C    C C   C               |
 |         .----C--C-C--C----C---C----------------.
 |        /          C  C  C                     /

[...]

Density initialized from wave functions
  /        |                C C                   |
 *         |    C  C  C  C  C     C               |
 |         | CC        C    C C   C               |
 |         .----C--C-C--C----C---C----------------.
 |        /          C  C  C                     /

[...]

Density initialized from wave functions
  /        |                C C                   |
 *         |    C  C  C  C  C                     |
 |         | CC        C    C C   C               |
 |         .----C--C-C--C----C---C----------------.
 |        /          C  C  C                     /

[...]

Density initialized from wave functions
  /        |                C C                   |
 *         |   C   C  C  C   C                    |
 |         | CC        C    C C   C               |
 |         .----C--C-C--C----C---C----------------.
 |        /          C  C  C                     /

[...]

Density initialized from wave functions
  /        |                C C                   |
 *         |   C   C  C  C   C                    |
 |         | CC        C    C C   C               |
 |         .----C---CC---C---C---C----------------.
 |        /          C  C  C                     /

[...]

Density initialized from wave functions
  /        |                C C                   |
 *         |   C  C   C  C   C                    |
 |         | CC        C    C C   C               |
 |         .----C---CC---C---C---CC---------------.
 |        /          C  C  C                     /

[...]

Density initialized from wave functions
  /        |                C C                   |
 *         |   C  C   C  C   C                    |
 |         | CC        C    C C   C               |
 |         .----C---CC---C---C---CC---------------.
 |        /          C  C  C                     /

[...]

Density initialized from wave functions
  /        |                C C                   |
 *         |   C  C   C  C   C                    |
 |         | CC        C      C   C               |
 |         .----C---CC--C---CC---CC---------------.
 |        /          C  C  C                     /

[...]

Density initialized from wave functions
  /        |                C C                   |
 *         |   C   C  C  C   C                    |
 |         | CC        C      C   C               |
 |         .----C--C-C--C---CC---CC---------------.
 |        /          C  C  C                     /

[...]

Density initialized from wave functions
  /        |                C C                   |
 *         |   C   C  C  C   C                    |
 |         |  C        C      C   C               |
 |         .----C--C-C--C---CC---CC---------------.
 |        /          C  C  C                     /

[...]

Density initialized from wave functions
  /        |                C C                   |
 *         |   C   C  C  C   C                    |
 |         | CC        C      C   C               |
 |         .----C--C-C--C---CC---CC---------------.
 |        /          C  C  C                     /

[...]

Density initialized from wave functions
  /        |                C C                   |
 *         |   C   C  C  C   C                    |
 |         |  C        C      C   C               |
 |         .----C--C-C--C---CC---CC---------------.
 |        /          C  C  C                     /

[...]

Density initialized from wave functions
  /        |                C C                   |
 *         |   C   C  C  C   C                    |
 |         | C         C      C   C               |
 |         .--C-C---CC--C---CC---CC---------------.
 |        /          C  C  C                     /

[...]

Density initialized from wave functions
  /        |                C C                   |
 *         |   C   C  C  C   C                    |
 |         | CC        C      C   C               |
 |         .----C---CC--C---CC---CC---------------.
 |        /          C  C  C                     /

[...]

Density initialized from wave functions
  /        |                C                     |
 *         |   C   C  C  C   CC                   |
 |         | C         C      C   C               |
 |         .--C-C---CC--C---CC---CC---------------.
 |        /          C  C  C                     /

[...]

Density initialized from wave functions
  /        |                C C                   |
 *         |   C   C  C  C   C                    |
 |         | C         C      C   C               |
 |         .--C-C---CC--C---CC---CC---------------.
 |        /          C  C  C                     /

[...]

Density initialized from wave functions
  /        |                C C                   |
 *         |   C   C  C  C   C                    |
 |         | C         C      C   C               |
 |         .--C-C--C-C--C---CC---CC---------------.
 |        /          C  C  C                     /

[...]

Density initialized from wave functions
  /        |                C                     |
 *         |   C   C  C  C   CC                   |
 |         |  C        C      C   C               |
 |         .--C-C--C-C--C---CC---CC---------------.
 |        /          C  C  C                     /

[...]

Density initialized from wave functions
  /        |                C                     |
 *         |   C   C  C  C   CC                   |
 |         | C         C C    C   C               |
 |         .--C-C---CC--C---CC---CC---------------.
 |        /          C  C  C                     /

[...]

Density initialized from wave functions
  /        |                C                     |
 *         |   C   C  C  C   CC                   |
 |         | C         C      C   C               |
 |         .--C-C---CC--C---CC---CC---------------.
 |        /          C  C  C                     /

[...]

Density initialized from wave functions
  /        |                C                     |
 *         |   C   C  C  C   CC                   |
 |         | C         C C    C   C               |
 |         .--C-C--C-C--C---CC---CC---------------.
 |        /          C  C  C                     /

[...]

Density initialized from wave functions
  /        |                C                     |
 *         |   C   C  C  C   CC                   |
 |         | C         C C    C   C               |
 |         .--C-C---CC--C---CC---CC---------------.
 |        /          C  C  C                     /

[...]

Density initialized from wave functions
  /        |                C                     |
 *         |   C   C  C  C   CC                   |
 |         | CC        C C    C   C               |
 |         .----C---CC--C---CC---CC---------------.
 |        /          C  C  C                     /

[...]

Density initialized from wave functions
  /        |                C                     |
 *         |   C   C  C  C   CC                   |
 |         | CC        C C    C   C               |
 |         .----C---CC--C---CC---CC---------------.
 |        /          C  C  C                     /

[...]

Density initialized from wave functions
  /        |                C                     |
 *         |   C   C  C  C    C                   |
 |         | CC        C C   CC   C               |
 |         .----C--C-C--C---CC---CC---------------.
 |        /          C  C  C                     /

[...]

Density initialized from wave functions
  /        |                C                     |
 *         |   C   C  C  C    C                   |
 |         | CC        C C   CC   C               |
 |         .----C---CC--C---CC---CC---------------.
 |        /          C  C  C                     /

[...]

Density initialized from wave functions
 *         |   C   C  C  C  C C                   |
 |         | CC        C C   CC   C               |
 |         .----C---CC--C---CC---CC---------------.
 |        /          C  C  C                     /

[...]

Density initialized from wave functions
  /        |                C                     |
 *         |   C   C  C  C    C                   |
 |         | CC        C C   CC   C               |
 |         .----C---CC--C---CC---CC---------------.
 |        /          C  C  C                     /

[...]

Density initialized from wave functions
 *         |   C   C  C  C  C C                   |
 |         | CC        C C   CC   C               |
 |         .----C---CC--C---CC---CC---------------.
 |        /          C  C  C                     /

[...]

Density initialized from wave functions
 *         |   C   C  C  C  C C                   |
 |         | CC        C C   CC   C               |
 |         .----C---CC---C--CC---CC---------------.
 |        /          C  C  C                     /

[...]

System changes: positions

Initializing position-dependent things.

Density initialized from wave functions
 *         |   C   C  C  C  C C                   |
 |         | CC        C C   CC   C               |
 |         .----C---CC---C--CC---CC---------------.
 |        /          C  C  C                     /

Positions:
   0 C      5.845559   10.200466    4.692844
   1 C      4.571675   10.180735    4.657591
   2 C      8.385241   10.649667    4.660461
   3 C      7.168617    9.859991    4.774223
   4 C      7.665108    8.451221    4.991007
   5 C      9.435229    9.924971    4.778218
   6 C      9.160730    8.535773    4.974009
   7 C     11.800996    5.108547    5.343198
   8 C     11.985390    6.396024    5.180474
   9 C      9.500400    6.078773    5.277858
  10 C     11.499205    7.619818    5.045835
  11 C     10.056582    7.435461    5.102261
  12 C      9.701391    3.626037    5.569670
  13 C     10.374948    4.866626    5.403511
  14 C      2.986778    8.283723    4.912047
  15 C      6.014443    6.203361    5.302518
  16 C      8.418039    3.469673    5.611555
  17 C      4.664396    6.401180    5.257773
  18 C      8.096512    6.039501    5.309670
  19 C      7.156822    7.164778    5.170795
  20 C      7.087566    3.675466    5.628731
  21 C      3.452831    9.469923    4.733607
  22 C      3.629479    7.131109    5.120482
  23 C      7.002796    5.080962    5.446294

Unit cell:
           periodic     x           y           z      points  spacing
  1. axis:    yes   16.000000    0.000000    0.000000    80     0.2000
  2. axis:    yes    0.000000   16.000000    0.000000    80     0.2000
  3. axis:    yes    0.000000    0.000000   10.000000    48     0.2083

Effective grid spacing dv^(1/3) = 0.2027

                     log10-error:    total        iterations:
           time      wfs    density  energy       fermi  poisson
iter:   1  10:19:35          +inf  -182.745152    3      5
iter:   2  10:19:36         -2.82  -182.743863    2      1
iter:   3  10:19:37         -2.95  -182.741475    2      1
iter:   4  10:19:37         -3.22  -182.742088    2      1
iter:   5  10:19:38         -3.43  -182.741385    2      1
iter:   6  10:19:38         -3.47  -182.741732    2      1
iter:   7  10:19:39         -3.71  -182.742491    2      1
iter:   8  10:19:39         -3.66  -182.741667    2      1
iter:   9  10:19:40         -4.11  -182.741539    2      1

Converged after 9 iterations.

Dipole moment: (-0.698376, 0.484576, -0.064899) |e|*Ang

Energy contributions relative to reference atoms: (reference = -24663.074771)

Kinetic:       +111.708466
Potential:     -120.160904
External:        +0.000000
XC:            -177.147119
Entropy (-ST):   -0.264477
Local:           +2.990257
Free energy:   -182.873778
Extrapolated:  -182.741539

Fermi level: -4.37244

 Band  Eigenvalues  Occupancy
    0    -22.99009    2.00000
    1    -22.05060    2.00000
    2    -21.64612    2.00000
    3    -20.98292    2.00000
    4    -20.46510    2.00000
    5    -19.82568    2.00000
    6    -19.61202    2.00000
    7    -19.20785    2.00000
    8    -18.63968    2.00000
    9    -18.23051    2.00000
   10    -18.00371    2.00000
   11    -17.27227    2.00000
   12    -16.47032    2.00000
   13    -16.38014    2.00000
   14    -15.22944    2.00000
   15    -15.02532    2.00000
   16    -14.59646    2.00000
   17    -13.89398    2.00000
   18    -13.26982    2.00000
   19    -13.06590    2.00000
   20    -12.71756    2.00000
   21    -12.01563    2.00000
   22    -11.62045    2.00000
   23    -11.33699    2.00000
   24    -10.79690    2.00000
   25    -10.66113    2.00000
   26    -10.23759    2.00000
   27    -10.10200    2.00000
   28     -9.66518    2.00000
   29     -9.51309    2.00000
   30     -9.38332    2.00000
   31     -9.15209    2.00000
   32     -9.12925    2.00000
   33     -8.97795    2.00000
   34     -8.46290    2.00000
   35     -7.80865    2.00000
   36     -7.46598    2.00000
   37     -7.39027    2.00000
   38     -6.95718    2.00000
   39     -6.88986    2.00000
   40     -6.80174    2.00000
   41     -6.30754    2.00000
   42     -6.18138    2.00000
   43     -6.11473    2.00000
   44     -5.55518    1.99999
   45     -5.48271    1.99997
   46     -4.83255    1.98012
   47     -4.46818    1.44523
   48     -4.27244    0.53789
   49     -3.97249    0.03599
   50     -3.59062    0.00080
   51     -3.06205    0.00000
   52     -2.69506    0.00000
   53     -1.93803    0.00000
   54     -1.74534    0.00000
   55     -1.65646    0.00000
   56     -1.53789    0.00000
   57     -1.26087    0.00000
   58     -0.96358    0.00000
   59     -0.54051    0.00000
[...]
   83      8.86105    0.00000
   84      9.00616    0.00000
   85      9.13055    0.00000
   86      9.21021    0.00000
   87      9.28587    0.00000
   88      9.32261    0.00000
   89      9.38817    0.00000
   90      9.59399    0.00000
   91      9.80038    0.00000
   92      9.92514    0.00000
   93     10.19092    0.00000
   94     10.19268    0.00000
   95     10.25723    0.00000
   96     10.38344    0.00000
   97     10.38914    0.00000

Forces in eV/Ang:
  0 C     0.00400   -0.00252   -0.02034
  1 C    -0.00193    0.00439    0.01735
  2 C     0.02143   -0.02509    0.01849
  3 C    -0.00702   -0.01010    0.01218
  4 C    -0.00043   -0.01885   -0.03213
  5 C    -0.03184   -0.01159   -0.01241
  6 C     0.00842    0.00321   -0.01070
  7 C    -0.01075   -0.00266    0.00627
  8 C    -0.00079    0.00265   -0.00159
  9 C     0.01500    0.03255   -0.00135
 10 C    -0.00170    0.00266   -0.00367
 11 C     0.01078    0.01568   -0.02135
 12 C     0.01114   -0.01483   -0.00346
 13 C     0.01043   -0.01166    0.01478
 14 C     0.00648   -0.00391    0.02138
 15 C     0.00474   -0.01983   -0.00014
 16 C    -0.01052    0.01211    0.02458
 17 C    -0.01562    0.00831   -0.01422
 18 C    -0.00046   -0.00578    0.02526
 19 C     0.02652    0.02567   -0.00870
 20 C    -0.02158   -0.02833   -0.02764
 21 C     0.00451    0.02440    0.01568
 22 C    -0.00837   -0.00610   -0.00985
 23 C     0.00584    0.01619    0.00103