User:   esb@s65n32.grendel.cscaa.dk
Date:   Wed Nov  8 14:13:00 2017
Arch:   x86_64
Pid:    13339
Python: 2.7.13
gpaw:   /home/esb/DFT/gpaw_git/gpaw
_gpaw:  /home/esb/DFT/gpaw_git/build/bin.linux-x86_64-2.7/gpaw-python
ase:    /home/esb/DFT/ase_git/ase (version 3.15.0b1)
numpy:  /comm/swstack/core/python/2.7.13/lib/python2.7/site-packages/numpy (version 1.13.3)
scipy:  /comm/swstack/core/python/2.7.13/lib/python2.7/site-packages/scipy (version 0.19.1)
units:  Angstrom and eV
cores:  16
Extra parameters: {'blacs': True}

Input parameters:
  basis: dzp
  gpts: [80 80 48]
  kpts: [1 1 1]
  maxiter: 99
  mixer: {backend: pulay,
          beta: 0.05,
          method: separate,
          nmaxold: 5,
          weight: 75}
  mode: lcao
  nbands: -50
  occupations: {name: fermi-dirac,
                width: 0.1}
  poissonsolver: {eps: 1e-07,
                  name: fd,
                  nn: 3,
                  relax: GS}
  xc: PBE

System changes: positions, numbers, cell, pbc, initial_charges, initial_magmoms

Initialize ...

C-setup:
  name: Carbon
  id: 4aa54d4b901d75f77cc0ea3eec22967b
  Z: 6
  valence: 4
  core: 2
  charge: 0.0
  file: /home/esb/DFT/gpaw-setups-0.8.7929/C.PBE.gz
  cutoffs: 0.64(comp), 1.14(filt), 1.14(core), lmax=2
  valence states:
                energy  radius
    2s(2.00)   -13.751   0.635
    2p(2.00)    -5.284   0.635
    *s          13.461   0.635
    *p          21.927   0.635
    *d           0.000   0.635

  LCAO basis set for C:
    Name: dzp
    File: /home/esb/DFT/gpaw-setups-0.8.7929/C.dzp.basis.gz
    Number of radial functions: 5
    Number of spherical harmonics: 13
      l=0, rc=5.5469 Bohr: 2s-sz confined orbital
      l=1, rc=6.6719 Bohr: 2p-sz confined orbital
      l=0, rc=3.0312 Bohr: 2s-dz split-valence wave
      l=1, rc=3.7500 Bohr: 2p-dz split-valence wave
      l=2, rc=6.6719 Bohr: d-type Gaussian polarization

Reference energy: -24663.074771

Spin-paired calculation

Occupation numbers:
  Fermi-Dirac: width=0.1000 eV

Convergence criteria:
  Maximum total energy change: 0.0005 eV / electron
  Maximum integral of absolute density change: 0.0001 electrons
  Maximum integral of absolute eigenstate change: 4e-08 eV^2
  Maximum number of iterations: 99

Symmetries present (total): 1

  ( 1  0  0)
  ( 0  1  0)
  ( 0  0  1)

1 k-point (Gamma)
1 k-point in the irreducible part of the Brillouin zone
       k-points in crystal coordinates                weights
   0:     0.00000000    0.00000000    0.00000000          1/1

Wave functions: LCAO
  Diagonalizer: Serial LAPACK
  Atomic Correction: dense with blas
  Datatype: float
  Eigensolver: None

LCAO using direct dense diagonalizer

Densities:
  Coarse grid: 80*80*48 grid
  Fine grid: 160*160*96 grid
  Total Charge: 0.000000

Density mixing:
  Method: separate
  Backend: pulay
  Linear mixing parameter: 0.05
  Mixing with 5 old densities
  Damping of long wave oscillations: 75

Hamiltonian:
  XC and Coulomb potentials evaluated on a 160*160*96 grid
  Using the PBE Exchange-Correlation functional
  Interpolation: tri-quintic (5. degree polynomial)
  Poisson solver: Gauss-Seidel solver with 6 multi-grid levels
    Coarsest grid: 5 x 5 x 3 points
    Stencil: 6*3+1=19 point O(h^6) finite-difference Laplacian
    Max iterations: 1000
    Tolerance: 1.000000e-07

Total number of cores used: 16
Domain decomposition: 2 x 4 x 2

Number of atoms: 24
Number of atomic orbitals: 312
Number of bands in calculation: 98
Bands to converge: occupied states only
Number of valence electrons: 96

... initialized

Initializing position-dependent things.

Density initialized from atomic densities
   /       |                C                     |
  /        |     C        C  C  C                 |
 *         |      C   C   C   C                   |
 |         |       C     C C  C  C                |
 |         .-----------C-------C-C----------------.
 |        /   C  C         C                     /
 |       /              C                       /
 |      /            C                         /

Positions:
   0 C      9.321657    5.762029    4.625143
   1 C      4.929350    8.615176    5.638911
   2 C     10.231660    7.103944    5.402016
   3 C      9.661842   11.378953    5.156534
   4 C     11.275538    6.612452    5.090150
   5 C      8.477210    4.029416    4.965386
   6 C      7.577958   10.328181    4.667004
   7 C      6.375234    8.483983    5.735022
   8 C      8.267506    8.572686    4.760877
   9 C      8.919534   10.084367    5.536431
  10 C      7.866288    7.486434    5.407795
  11 C      5.059533    6.284296    4.263677
  12 C      8.209862   11.883090    5.203237
  13 C     10.105967    9.935143    5.578974
  14 C      9.922434    8.210946    5.426389
  15 C     10.173630    7.835555    4.328754
  16 C     10.615958    9.981048    4.311775
  17 C      7.445523   10.883219    5.573207
  18 C      7.171436   11.898036    4.931502
  19 C      3.658795    5.925207    4.700090
  20 C      4.806238    9.583644    4.437975
  21 C      7.757683    5.012880    5.511026
  22 C      4.095536    9.683305    5.514106
  23 C      7.338737    3.163956    4.454602

Unit cell:
           periodic     x           y           z      points  spacing
  1. axis:    yes   16.000000    0.000000    0.000000    80     0.2000
  2. axis:    yes    0.000000   16.000000    0.000000    80     0.2000
  3. axis:    yes    0.000000    0.000000   10.000000    48     0.2083

Effective grid spacing dv^(1/3) = 0.2027

                     log10-error:    total        iterations:
           time      wfs    density  energy       fermi  poisson
iter:   1  14:13:03          +inf  -122.090584    3      6
iter:   2  14:13:03         -0.83  -119.162688    4      3
iter:   3  14:13:04         -0.90  -116.582417    3      3
iter:   4  14:13:04         -0.96  -115.274730    4      3
iter:   5  14:13:05         -1.04  -114.854136    3      3
iter:   6  14:13:05         -1.11  -113.984477    4      3
iter:   7  14:13:06         -1.31  -113.832256    4      3
iter:   8  14:13:07         -1.38  -113.708239    4      3
iter:   9  14:13:07         -1.61  -113.599521    3      2
iter:  10  14:13:08         -1.76  -113.570160    3      3
iter:  11  14:13:08         -1.81  -113.572807    3      3
iter:  12  14:13:09         -2.02  -113.553224    3      2
iter:  13  14:13:09         -2.13  -113.554220    3      2
iter:  14  14:13:10         -2.31  -113.555339    3      2
iter:  15  14:13:10         -2.37  -113.552646    3      2
iter:  16  14:13:11         -2.52  -113.550509    3      2
iter:  17  14:13:12         -2.62  -113.550417    3      2
iter:  18  14:13:12         -2.96  -113.547611    2      2
iter:  19  14:13:13         -3.20  -113.547838    2      1
iter:  20  14:13:13         -3.39  -113.546041    2      1
iter:  21  14:13:14         -3.44  -113.546164    2      1
iter:  22  14:13:14         -3.48  -113.545195    2      1
iter:  23  14:13:15         -3.63  -113.545749    2      1
iter:  24  14:13:15         -3.82  -113.546249    2      1
iter:  25  14:13:16         -3.94  -113.545800    2      1
iter:  26  14:13:16         -4.17  -113.545826    2      1

Converged after 26 iterations.

Dipole moment: (0.689995, 0.362855, 0.764580) |e|*Ang

Energy contributions relative to reference atoms: (reference = -24663.074771)

Kinetic:       +283.570882
Potential:     -224.117961
External:        +0.000000
XC:            -175.555661
Entropy (-ST):   -0.515931
Local:           +2.814880
Free energy:   -113.803792
Extrapolated:  -113.545826

Fermi level: -5.11141

 Band  Eigenvalues  Occupancy
    0    -31.17245    2.00000
    1    -29.12651    2.00000
    2    -26.34108    2.00000
    3    -23.42084    2.00000
    4    -22.29848    2.00000
    5    -21.55871    2.00000
    6    -21.13345    2.00000
    7    -19.95860    2.00000
    8    -19.52074    2.00000
    9    -17.60810    2.00000
   10    -17.17284    2.00000
   11    -17.00508    2.00000
   12    -16.35860    2.00000
   13    -16.17196    2.00000
   14    -15.35429    2.00000
   15    -14.99459    2.00000
   16    -14.80068    2.00000
   17    -14.47569    2.00000
   18    -13.42153    2.00000
   19    -13.00303    2.00000
   20    -12.27194    2.00000
   21    -11.85253    2.00000
   22    -11.28979    2.00000
   23    -10.82909    2.00000
   24    -10.46811    2.00000
   25    -10.28416    2.00000
   26    -10.03922    2.00000
   27     -9.74955    2.00000
   28     -9.16000    2.00000
   29     -8.84986    2.00000
   30     -8.74690    2.00000
   31     -8.63390    2.00000
   32     -8.35565    2.00000
   33     -8.23763    2.00000
   34     -7.95384    2.00000
   35     -7.69535    2.00000
   36     -7.23240    2.00000
   37     -7.07711    2.00000
   38     -6.75365    2.00000
   39     -6.50635    2.00000
   40     -6.16546    1.99995
   41     -6.06197    1.99985
   42     -5.98079    1.99966
   43     -5.67004    1.99253
   44     -5.52810    1.96947
   45     -5.37064    1.86073
   46     -5.24138    1.57158
   47     -5.22979    1.53125
   48     -5.05431    0.72202
   49     -4.95147    0.33613
   50     -4.63152    0.01634
   51     -4.25044    0.00036
   52     -4.14401    0.00013
   53     -3.59921    0.00000
   54     -3.53178    0.00000
   55     -3.50794    0.00000
   56     -2.75498    0.00000
   57     -2.52558    0.00000
   58     -2.39332    0.00000
   59     -2.33096    0.00000
[...]
   83      6.71269    0.00000
   84      7.05490    0.00000
   85      7.24267    0.00000
   86      7.52622    0.00000
   87      7.65286    0.00000
   88      7.82017    0.00000
   89      7.87146    0.00000
   90      7.90633    0.00000
   91      8.11323    0.00000
   92      8.57621    0.00000
   93      8.85187    0.00000
   94      8.93850    0.00000
   95      9.03120    0.00000
   96      9.22546    0.00000
   97      9.40551    0.00000

Forces in eV/Ang:
  0 C    -0.92730   -0.84040   -0.07371
  1 C     5.21041   -1.97155    1.12400
  2 C    -4.50557  -20.59003   12.12372
  3 C    -2.77442    4.08775   -2.57688
  4 C    12.13146   -7.85921   -4.39701
  5 C    -2.07578   -3.30254   -2.66200
  6 C     1.29213  -24.54056  -33.97271
  7 C    -0.40221   -3.33940   -0.52760
  8 C     2.28848    1.84151   -0.47205
  9 C   -18.71222    2.47434   -0.15080
 10 C    -6.23389    0.46997    1.95086
 11 C    -5.21707   -0.98726    2.24942
 12 C    42.21539   11.77233    6.96336
 13 C    15.53015   -4.90108    3.41643
 14 C    -9.08485   23.49329   15.36606
 15 C     3.22705    2.70578  -21.97475
 16 C     2.74175    2.15560   -2.70018
 17 C    -7.90634   -2.86469   42.29650
 18 C   -33.11218   14.04315  -15.20416
 19 C     5.66920    1.54952   -1.59579
 20 C     1.66597    1.15221   -4.80586
 21 C    -0.92493    1.73716    1.06430
 22 C    -3.98860    0.99507    3.14089
 23 C     3.89242    2.72101    1.61236

System changes: positions

[...]

Density initialized from wave functions
   /       |              C  C                    |
  /        |     C        C  C  C                 |
 *         |      C   C   C   C                   |
 |         |       C     C C  C  C                |
 |         .-----------C-------C-C----------------.
 |        /   C  C         C                     /
[...]
 |         |      C  C  C  C     C                |
 |         .----C-C--------C--C---C---------------.
 |        /           C C                        /
 |       /          C                           /

[...]

Density initialized from wave functions
   /       |                 C C                  |
  /        |             C   C C C                |
 *         |        C  C C     C                  |
 |         |      C  C  C  C     C                |
 |         .----C-C--------C--C---C---------------.
 |        /           C C                        /
 |       /         C                            /

[...]

Density initialized from wave functions
   /       |                 C C                  |
  /        |           C C   C C C                |
 *         |        C    C     C                  |
 |         |      C  C  C  C     C                |
 |         .----C-C--------C--C---C---------------.
 |        /           C C                        /
 |       /         C                            /

[...]

Density initialized from wave functions
   /       |                 C C                  |
  /        |           C C   C C C                |
 *         |        C    C     C                  |
 |         |      C  C  C  C     CC               |
 |         .----C-C--------C--C-------------------.
 |        /           C C                        /
 |       /         C                            /

[...]

Density initialized from wave functions
   /       |                 C C                  |
  /        |           C C   C C C                |
 *         |        C    C     C                  |
 |         |      C  C  C  C     CC               |
 |         .------C--------C--C-------------------.
 |        /      C    C C                        /
 |       /         C                            /

[...]

Density initialized from wave functions
   /       |                C  C                  |
  /        |           C C   C C C                |
 *         |        C    C     C                  |
 |         |      C  C  C  C     CC               |
 |         .------C--------C--C-------------------.
 |        /      C    C C                        /
 |       /         C                            /

[...]

Density initialized from wave functions
   /       |                C  C                  |
  /        |           C C   C C C                |
 *         |        C    C     C                  |
 |         |      C  C  C  C     CC               |
 |         .------C--------C---C------------------.
 |        /      C    C C                        /
 |       /         C                            /

[...]

Density initialized from wave functions
   /       |                C  C                  |
  /        |           C C   C C C                |
 *         |        C    C     C                  |
 |         |      C  C  C  C     CC               |
 |         .------C--------C---C------------------.
 |        /      C    C C                        /
 |       /         C                            /

[...]

Density initialized from wave functions
   /       |                C  C                  |
  /        |           C C   C C C                |
 *         |        C    C     C                  |
 |         |      C     C  C     CC               |
 |         .------C--C-----C---C------------------.
 |        /      C    C C                        /
 |       /         C                            /

[...]

Density initialized from wave functions
   /       |             C  C  C                  |
  /        |           C     C C C                |
 *         |        C    C     C                  |
 |         |      C     C  C     CC               |
 |         .------C--C-----C---C------------------.
 |        /      C    C C                        /
 |       /         C                            /

[...]

Density initialized from wave functions
   /       |             C  C C                   |
  /        |           C     C C C                |
 *         |        C    C     C                  |
 |         |     C       C C     CC               |
 |         .------C--C-----C---C------------------.
 |        /       C  C  C                        /
 |       /        C                             /

[...]

Density initialized from wave functions
   /       |             C  C  C                  |
  /        |           C     C  CC                |
 *         |        C    C     C                  |
 |         |     C       C C   C CC               |
 |         .------C--C-----C----------------------.
 |        /       C  C  C                        /
 |       /        C                             /

[...]

Density initialized from wave functions
   /       |             C  C  C                  |
  /        |           C     C  CC                |
 *         |        C    C     C                  |
 |         |     C       C C   C CC               |
 |         .------C--C-----C----------------------.
 |        /       C   C C                        /
 |       /        C                             /

[...]

Density initialized from wave functions
   /       |             C  C  C                  |
  /        |           C     C  CC                |
 *         |        C    C     C                  |
 |         |     C       C C   C CC               |
 |         .------C--C-----C----------------------.
 |        /      CC   C C                        /

[...]

Density initialized from wave functions
   /       |             C  C  C                  |
  /        |           C     C  C C               |
 *         |        C    C     C                  |
 |         |     C       C C   C CC               |
 |         .------C--C-----C----------------------.
 |        /      CC   C C                        /

[...]

Density initialized from wave functions
   /       |                C  C                  |
  /        |           C C   C  C C               |
 *         |        C    C     C                  |
 |         |     C       C C   C CC               |
 |         .------C--C-----C----------------------.
 |        /      CC   C C                        /

[...]

Density initialized from wave functions
   /       |                C  C                  |
  /        |           C C   C  C C               |
 *         |        C    C     C                  |
 |         |     C       C C   C CC               |
 |         .------C--C-----C----------------------.
 |        /      CC   C  C                       /

[...]

Density initialized from wave functions
   /       |                C C                   |
  /        |             C   C  C C               |
 *         |        C  C C     C                  |
 |         |     C      C  C   C CC               |
 |         .------C--C-----C----------------------.
 |        /      CC   C  C                       /

[...]

Density initialized from wave functions
   /       |                C C                   |
  /        |             C   C  CC                |
 *         |        C  C C     C                  |
 |         |     C      C  C   C CC               |
 |         .------C--C-----C----------------------.
 |        /      C C  C  C                       /

[...]

Density initialized from wave functions
   /       |                C C                   |
  /        |             C   C C C                |
 *         |        C  C C     C                  |
 |         |     C      C  C   C CC               |
 |         .------C--C-----C----------------------.
 |        /      C C  C  C                       /

[...]

Density initialized from wave functions
   /       |             C  C C                   |
  /        |                 C C C                |
 *         |        C  C C     C                  |
 |         |     C      C  C   C CC               |
 |         .------C--C-----C----------------------.
 |        /      C C  C  C                       /

[...]

Density initialized from wave functions
   /       |                C C                   |
  /        |             C   C C C                |
 *         |        C  C C     C C                |
 |         |     C      C  C   C  C               |
 |         .------C--C-----C----------------------.
 |        /      C C  C  C                       /

[...]

Density initialized from wave functions
   /       |                C C                   |
  /        |           C C   C C C                |
 *         |        C    C     C C                |
 |         |     C      C  C   C  C               |
 |         .------C--C-----C----------------------.
 |        /      C C  C  C                       /

[...]

Density initialized from wave functions
   /       |                C C                   |
  /        |             C   C C C                |
 *         |        C  C C     C C                |
 |         |     C      C  C   C  C               |
 |         .------C--C---C-C----------------------.
 |        /      C C  C                          /

[...]

Density initialized from wave functions
   /       |                C C                   |
  /        |             C   C C C                |
 *         |        C  C C     C C                |
 |         |     C      C  C   C  C               |
 |         .------C--C---C-C----------------------.
 |        /      C C  C                          /

[...]

Density initialized from wave functions
   /       |                C C                   |
  /        |             C   C C C                |
 *         |        C  C C     C C                |
 |         |     C      C  C   C  C               |
 |         .------C--C-----C----------------------.
 |        /      C C  C  C                       /

[...]

Density initialized from wave functions
   /       |                C C                   |
  /        |             C  C  C C                |
 *         |        C  C C     C C                |
 |         |     C      C  C   C  C               |
 |         .------C--C-----C----------------------.
 |        /      C    C  C                       /
 |       /         C                            /

[...]

Density initialized from wave functions
   /       |                C C                   |
  /        |             C  C  C C                |
 *         |        C  C C     C C                |
 |         |     C   C  C  C   C   C              |
 |         .------C--------C----------------------.
 |        /      C    C  C                       /
 |       /         C                            /

[...]

System changes: positions

Initializing position-dependent things.

Density initialized from wave functions
   /       |                C C                   |
  /        |             C  C  C C                |
 *         |        C  C C     C C                |
 |         |     C      C  C   C  C               |
 |         .------C--C-----C----------------------.
 |        /      C    C  C                       /
 |       /         C                            /

Positions:
   0 C      9.250780    6.255832    5.372242
   1 C      4.944928    7.798754    4.589344
   2 C     11.179025    7.557348    5.664344
   3 C      9.041725   11.778453    5.387672
   4 C     10.672979    6.227493    5.601601
   5 C      7.526224    4.283557    5.028561
   6 C      6.301740   10.752036    4.783200
   7 C      6.310243    7.499682    4.824957
   8 C      8.825929    7.663093    5.295121
   9 C      8.618784   10.364209    5.406035
  10 C      7.508154    8.256990    5.042147
  11 C      5.287113    6.447587    4.609432
  12 C      7.935361   12.511924    5.010073
  13 C      9.938603    9.843161    5.548405
  14 C     10.070118    8.461115    5.499478
  15 C     12.080157    6.457487    5.861338
  16 C     10.363612   11.214820    5.104439
  17 C      7.416248    9.756505    5.013305
  18 C      6.746221   12.087455    4.794291
  19 C      5.155535    5.064773    4.557319
  20 C      5.012474   10.191093    4.626670
  21 C      8.437416    5.146799    5.216975
  22 C      4.408403    9.095768    4.557097
  23 C      6.220952    4.376574    4.754138

Unit cell:
           periodic     x           y           z      points  spacing
  1. axis:    yes   16.000000    0.000000    0.000000    80     0.2000
  2. axis:    yes    0.000000   16.000000    0.000000    80     0.2000
  3. axis:    yes    0.000000    0.000000   10.000000    48     0.2083

Effective grid spacing dv^(1/3) = 0.2027

                     log10-error:    total        iterations:
           time      wfs    density  energy       fermi  poisson
iter:   1  14:43:28          +inf  -182.320223    2      5
iter:   2  14:43:28         -3.17  -182.319451    2      1
iter:   3  14:43:29         -3.24  -182.318485    2      1
iter:   4  14:43:29         -3.38  -182.318703    2      1
iter:   5  14:43:30         -3.55  -182.317914    2      1
iter:   6  14:43:30         -3.78  -182.321718    2      1
iter:   7  14:43:31         -3.35  -182.319466    2      1
iter:   8  14:43:31         -4.09  -182.318754    2      1

Converged after 8 iterations.

Dipole moment: (-0.808597, 0.254743, 0.009913) |e|*Ang

Energy contributions relative to reference atoms: (reference = -24663.074771)

Kinetic:       +111.375711
Potential:     -117.609597
External:        +0.000000
XC:            -178.992936
Entropy (-ST):   -0.147162
Local:           +2.981649
Free energy:   -182.392335
Extrapolated:  -182.318754

Fermi level: -4.12169

 Band  Eigenvalues  Occupancy
    0    -23.42198    2.00000
    1    -23.15852    2.00000
    2    -22.82959    2.00000
    3    -21.24916    2.00000
    4    -20.80952    2.00000
    5    -20.60139    2.00000
    6    -19.80335    2.00000
    7    -19.53579    2.00000
    8    -19.01968    2.00000
    9    -18.19501    2.00000
   10    -18.03478    2.00000
   11    -17.19917    2.00000
   12    -16.26814    2.00000
   13    -15.73981    2.00000
   14    -15.34810    2.00000
   15    -14.85494    2.00000
   16    -14.29344    2.00000
   17    -13.77166    2.00000
   18    -13.37462    2.00000
   19    -12.99268    2.00000
   20    -12.55731    2.00000
   21    -12.49574    2.00000
   22    -11.38550    2.00000
   23    -11.05937    2.00000
   24    -10.86578    2.00000
   25    -10.76105    2.00000
   26    -10.23697    2.00000
   27    -10.14637    2.00000
   28     -9.89110    2.00000
   29     -9.65329    2.00000
   30     -9.58402    2.00000
   31     -9.15654    2.00000
   32     -8.80675    2.00000
   33     -8.71170    2.00000
   34     -8.60442    2.00000
   35     -8.29465    2.00000
   36     -8.10554    2.00000
   37     -7.82377    2.00000
   38     -7.47926    2.00000
   39     -7.17708    2.00000
   40     -6.59163    2.00000
   41     -6.45809    2.00000
   42     -6.27590    2.00000
   43     -5.73156    2.00000
   44     -5.33727    1.99999
   45     -5.27238    1.99998
   46     -4.94963    1.99949
   47     -4.32144    1.76107
   48     -3.92208    0.23923
   49     -3.18404    0.00017
   50     -3.08101    0.00006
   51     -2.76961    0.00000
   52     -2.50921    0.00000
   53     -2.35939    0.00000
   54     -1.87361    0.00000
   55     -1.57897    0.00000
   56     -1.55626    0.00000
   57     -0.40176    0.00000
   58     -0.13047    0.00000
   59      0.52636    0.00000
[...]
   83      8.71761    0.00000
   84      8.73861    0.00000
   85      9.04323    0.00000
   86      9.16513    0.00000
   87      9.35306    0.00000
   88      9.39440    0.00000
   89      9.51204    0.00000
   90      9.57943    0.00000
   91      9.82099    0.00000
   92      9.89577    0.00000
   93     10.08887    0.00000
   94     10.14170    0.00000
   95     10.19073    0.00000
   96     10.38099    0.00000
   97     10.50103    0.00000

Forces in eV/Ang:
  0 C    -0.01479    0.00220    0.00086
  1 C    -0.01917   -0.00923   -0.01953
  2 C     0.01312   -0.02382    0.03859
  3 C    -0.00033    0.00846    0.03720
  4 C     0.02764   -0.01442    0.02593
  5 C    -0.00563    0.02772   -0.03980
  6 C     0.02161   -0.02507   -0.03496
  7 C    -0.00709   -0.01466   -0.00442
  8 C    -0.01223   -0.01383    0.03529
  9 C    -0.03343   -0.00760    0.00296
 10 C    -0.03360   -0.02038   -0.00463
 11 C    -0.00476   -0.00816    0.01973
 12 C     0.00840    0.05045    0.04204
 13 C    -0.00432   -0.00232   -0.00666
 14 C     0.02004    0.01643    0.05171
 15 C     0.01976   -0.03838   -0.00715
 16 C     0.03849   -0.04883   -0.05839
 17 C    -0.02156    0.01093    0.02363
 18 C    -0.01328    0.04057   -0.01313
 19 C     0.04439   -0.02530   -0.00084
 20 C     0.00481   -0.01690   -0.02459
 21 C    -0.00159    0.00830   -0.01897
 22 C    -0.02417    0.01649    0.01656
 23 C    -0.01496    0.04325    0.02606