User:   esb@s65n63.grendel.cscaa.dk
Date:   Wed Nov  8 16:14:54 2017
Arch:   x86_64
Pid:    73152
Python: 2.7.13
gpaw:   /home/esb/DFT/gpaw_git/gpaw
_gpaw:  /home/esb/DFT/gpaw_git/build/bin.linux-x86_64-2.7/gpaw-python
ase:    /home/esb/DFT/ase_git/ase (version 3.15.0b1)
numpy:  /comm/swstack/core/python/2.7.13/lib/python2.7/site-packages/numpy (version 1.13.3)
scipy:  /comm/swstack/core/python/2.7.13/lib/python2.7/site-packages/scipy (version 0.19.1)
units:  Angstrom and eV
cores:  16
Extra parameters: {'blacs': True}

Input parameters:
  basis: dzp
  gpts: [80 80 48]
  kpts: [1 1 1]
  maxiter: 99
  mixer: {backend: pulay,
          beta: 0.05,
          method: separate,
          nmaxold: 5,
          weight: 75}
  mode: lcao
  nbands: -50
  occupations: {name: fermi-dirac,
                width: 0.1}
  poissonsolver: {eps: 1e-07,
                  name: fd,
                  nn: 3,
                  relax: GS}
  xc: PBE

System changes: positions, numbers, cell, pbc, initial_charges, initial_magmoms

Initialize ...

C-setup:
  name: Carbon
  id: 4aa54d4b901d75f77cc0ea3eec22967b
  Z: 6
  valence: 4
  core: 2
  charge: 0.0
  file: /home/esb/DFT/gpaw-setups-0.8.7929/C.PBE.gz
  cutoffs: 0.64(comp), 1.14(filt), 1.14(core), lmax=2
  valence states:
                energy  radius
    2s(2.00)   -13.751   0.635
    2p(2.00)    -5.284   0.635
    *s          13.461   0.635
    *p          21.927   0.635
    *d           0.000   0.635

  LCAO basis set for C:
    Name: dzp
    File: /home/esb/DFT/gpaw-setups-0.8.7929/C.dzp.basis.gz
    Number of radial functions: 5
    Number of spherical harmonics: 13
      l=0, rc=5.5469 Bohr: 2s-sz confined orbital
      l=1, rc=6.6719 Bohr: 2p-sz confined orbital
      l=0, rc=3.0312 Bohr: 2s-dz split-valence wave
      l=1, rc=3.7500 Bohr: 2p-dz split-valence wave
      l=2, rc=6.6719 Bohr: d-type Gaussian polarization

Reference energy: -24663.074771

Spin-paired calculation

Occupation numbers:
  Fermi-Dirac: width=0.1000 eV

Convergence criteria:
  Maximum total energy change: 0.0005 eV / electron
  Maximum integral of absolute density change: 0.0001 electrons
  Maximum integral of absolute eigenstate change: 4e-08 eV^2
  Maximum number of iterations: 99

Symmetries present (total): 1

  ( 1  0  0)
  ( 0  1  0)
  ( 0  0  1)

1 k-point (Gamma)
1 k-point in the irreducible part of the Brillouin zone
       k-points in crystal coordinates                weights
   0:     0.00000000    0.00000000    0.00000000          1/1

Wave functions: LCAO
  Diagonalizer: Serial LAPACK
  Atomic Correction: dense with blas
  Datatype: float
  Eigensolver: None

LCAO using direct dense diagonalizer

Densities:
  Coarse grid: 80*80*48 grid
  Fine grid: 160*160*96 grid
  Total Charge: 0.000000

Density mixing:
  Method: separate
  Backend: pulay
  Linear mixing parameter: 0.05
  Mixing with 5 old densities
  Damping of long wave oscillations: 75

Hamiltonian:
  XC and Coulomb potentials evaluated on a 160*160*96 grid
  Using the PBE Exchange-Correlation functional
  Interpolation: tri-quintic (5. degree polynomial)
  Poisson solver: Gauss-Seidel solver with 6 multi-grid levels
    Coarsest grid: 5 x 5 x 3 points
    Stencil: 6*3+1=19 point O(h^6) finite-difference Laplacian
    Max iterations: 1000
    Tolerance: 1.000000e-07

Total number of cores used: 16
Domain decomposition: 2 x 4 x 2

Number of atoms: 24
Number of atomic orbitals: 312
Number of bands in calculation: 98
Bands to converge: occupied states only
Number of valence electrons: 96

... initialized

Initializing position-dependent things.

Density initialized from atomic densities
   /       |              C  C  C                 |
  /        |         C  C        C                |
 *         |  C   C       C  C                    |
 |         |C    C   C   C        C C             |
 |         .--C-------C-C-------------------------.
 |        /               C        CC            /
 |       /                  C   C               /

Positions:
   0 C      4.548957    8.939707    5.657963
   1 C      4.733159    7.480995    5.572564
   2 C      6.376847   11.186431    5.037006
   3 C      7.618496    7.892146    5.083733
   4 C      9.287865    9.365081    5.503145
   5 C      3.221666    8.953746    5.073537
   6 C      9.703293   11.628251    5.229182
   7 C      3.583383    7.300031    4.754851
   8 C      2.326475    8.023627    4.685535
   9 C     12.410988    7.630790    3.472649
  10 C     11.130780    9.401833    4.267874
  11 C     10.302319   10.308830    5.187805
  12 C      6.896575    6.037715    5.427738
  13 C      5.801057    9.585181    5.710387
  14 C     12.283197    6.357552    4.098067
  15 C      9.743316    5.409110    3.999264
  16 C      7.207872   11.749818    5.506202
  17 C      8.182572    8.807970    5.696344
  18 C      8.526434   12.057310    5.365932
  19 C      9.078321    4.780271    4.853391
  20 C     11.499863    5.322866    4.208707
  21 C      7.968472    5.235883    5.895306
  22 C      6.167468    7.203883    5.592687
  23 C     12.252411    8.824002    4.427462

Unit cell:
           periodic     x           y           z      points  spacing
  1. axis:    yes   16.000000    0.000000    0.000000    80     0.2000
  2. axis:    yes    0.000000   16.000000    0.000000    80     0.2000
  3. axis:    yes    0.000000    0.000000   10.000000    48     0.2083

Effective grid spacing dv^(1/3) = 0.2027

                     log10-error:    total        iterations:
           time      wfs    density  energy       fermi  poisson
iter:   1  16:14:55          +inf  -166.983849    2      6
iter:   2  16:14:56         -0.92  -166.036765    3      3
iter:   3  16:14:57         -0.95  -163.203895    35     4
iter:   4  16:14:57         -1.19  -162.886583    3      3
iter:   5  16:14:58         -1.27  -162.634250    33     3
iter:   6  16:14:58         -1.44  -162.543003    4      3
iter:   7  16:14:59         -1.64  -162.503289    3      3
iter:   8  16:14:59         -1.80  -162.483795    3      2
iter:   9  16:15:00         -1.87  -162.464252    3      2
iter:  10  16:15:00         -1.99  -162.453638    3      2
iter:  11  16:15:01         -2.16  -162.442561    2      2
iter:  12  16:15:01         -2.29  -162.442797    3      2
iter:  13  16:15:02         -2.43  -162.438851    3      2
iter:  14  16:15:02         -2.78  -162.439910    2      2
iter:  15  16:15:03         -2.97  -162.443081    2      1
iter:  16  16:15:03         -3.03  -162.443846    2      1
iter:  17  16:15:04         -3.22  -162.435946    2      1
iter:  18  16:15:04         -3.57  -162.439454    2      1
iter:  19  16:15:05         -3.66  -162.440041    2      1
iter:  20  16:15:05         -3.72  -162.439750    2      1
iter:  21  16:15:06         -3.81  -162.440187    2      1
iter:  22  16:15:06         -3.99  -162.439811    2      1
iter:  23  16:15:07         -4.10  -162.439782    2      1

Converged after 23 iterations.

Dipole moment: (0.178050, 0.211665, 0.261336) |e|*Ang

Energy contributions relative to reference atoms: (reference = -24663.074771)

Kinetic:       +106.049859
Potential:     -111.786948
External:        +0.000000
XC:            -159.433538
Entropy (-ST):   -0.391037
Local:           +2.926363
Free energy:   -162.635301
Extrapolated:  -162.439782

Fermi level: -4.54892

 Band  Eigenvalues  Occupancy
    0    -23.61917    2.00000
    1    -21.78352    2.00000
    2    -21.13567    2.00000
    3    -20.48221    2.00000
    4    -20.24556    2.00000
    5    -19.78982    2.00000
    6    -19.65298    2.00000
    7    -19.21249    2.00000
    8    -18.70788    2.00000
    9    -17.86203    2.00000
   10    -17.26922    2.00000
   11    -16.94491    2.00000
   12    -16.01577    2.00000
   13    -15.78597    2.00000
   14    -15.21299    2.00000
   15    -14.76740    2.00000
   16    -13.82630    2.00000
   17    -13.05503    2.00000
   18    -12.42332    2.00000
   19    -12.31098    2.00000
   20    -11.70716    2.00000
   21    -10.96292    2.00000
   22    -10.71744    2.00000
   23    -10.52253    2.00000
   24    -10.36397    2.00000
   25    -10.20114    2.00000
   26     -9.81770    2.00000
   27     -9.58847    2.00000
   28     -9.30370    2.00000
   29     -8.87577    2.00000
   30     -8.74700    2.00000
   31     -8.48892    2.00000
   32     -8.33715    2.00000
   33     -8.26898    2.00000
   34     -7.87585    2.00000
   35     -7.51262    2.00000
   36     -7.39479    2.00000
   37     -7.37486    2.00000
   38     -6.88382    2.00000
   39     -6.69760    2.00000
   40     -6.66337    2.00000
   41     -6.31616    2.00000
   42     -5.98575    2.00000
   43     -5.71779    1.99998
   44     -5.62818    1.99996
   45     -5.24466    1.99810
   46     -4.81208    1.86573
   47     -4.57309    1.12025
   48     -4.51886    0.85079
   49     -4.27752    0.12429
   50     -4.16154    0.04071
   51     -3.62139    0.00019
   52     -2.95982    0.00000
   53     -2.72051    0.00000
   54     -2.51159    0.00000
   55     -2.36534    0.00000
   56     -1.80146    0.00000
   57     -1.48566    0.00000
   58     -1.15550    0.00000
   59     -1.10479    0.00000
[...]
   83      8.23180    0.00000
   84      8.36231    0.00000
   85      8.65330    0.00000
   86      8.69195    0.00000
   87      8.74612    0.00000
   88      9.10696    0.00000
   89      9.13800    0.00000
   90      9.22819    0.00000
   91      9.34434    0.00000
   92      9.46786    0.00000
   93      9.55557    0.00000
   94      9.62106    0.00000
   95      9.88991    0.00000
   96     10.03792    0.00000
   97     10.09812    0.00000

Forces in eV/Ang:
  0 C     2.19072    2.80027    0.33984
  1 C     2.28705    0.26507   -0.26341
  2 C   -17.57911  -14.45515   -5.19295
  3 C    -9.64271   -7.13234   -1.17004
  4 C     4.18553    3.46614   -0.06120
  5 C     0.03127    0.51398    0.03239
  6 C     0.36026    0.07055   -0.17362
  7 C    -1.31320   -0.56918    0.23599
  8 C     0.54471   -0.83669   -0.42942
  9 C     1.13616   -0.70273    4.07813
 10 C    -2.20986    5.89110    3.70026
 11 C    -0.96262   -2.94398   -2.11900
 12 C     3.94924   -2.27711    2.29322
 13 C    -1.81961    3.26942   -1.84966
 14 C    -0.44554    1.26883   -1.71165
 15 C     7.77847   -0.02196   -1.25961
 16 C    15.41062   11.45587    6.68305
 17 C     2.77202    2.67318    3.01067
 18 C     1.10002   -0.17688    0.62086
 19 C    -6.80687    0.68819    5.80430
 20 C    -3.91773    1.59534   -1.38606
 21 C     0.24280    0.19609   -5.07048
 22 C     1.14959   -0.74775   -2.18242
 23 C     1.51471   -4.36901   -3.90883

System changes: positions

[...]

Density initialized from wave functions
   /       |              C  C  C                 |
  /        |         C C         C                |
 *         |  C   C       C   C                   |
 |         |C    C   C  C         C C             |
 |         .--C-------C-C-------------------------.
 |        /               C        CC            /
 |       /                  C   C               /

[...]

Density initialized from wave functions
   /       |              C  C  C                 |
  /        |         C C         C                |
[...]
  /        |         C C      C C                 |
 *         |  C   C        C                      |
 |         |C    C  C   C         C C             |
 |         .--C-------C-C-------------------------.
 |        /               C        CC            /
 |       /                   C  C               /

[...]

Density initialized from wave functions
   /       |              C  C  C                 |
  /        |         C C      C C                 |
 *         |  C   C        C                      |
 |         |C    C  C   C         C C             |
 |         .--C-------C-C-------------------------.
 |        /               C        CC            /
 |       /                   C  C               /

[...]

Density initialized from wave functions
   /       |              C  C  C                 |
  /        |         C C      C C                 |
 *         |  C   C        C                      |
 |         |C    C  C   C          CC             |
 |         .--C-------C-C-------------------------.
 |        /               C        CC            /
 |       /                   C  C               /

[...]

Density initialized from wave functions
   /       |              C  C  C                 |
  /        |         C C      C C                 |
 *         |  C   C        C                      |
 |         |C    C  C   C          C              |
 |         .--C-------C-C-----------C-------------.
 |        /               C        CC            /
 |       /                   C  C               /

[...]

Density initialized from wave functions
   /       |              C  C  C                 |
  /        |         C C        C                 |
 *         |  C   C        C C                    |
 |         |C    C  C   C          C              |
 |         .--C-------C-C-----------C-------------.
 |        /               C        CC            /
 |       /                   C  C               /

[...]

Density initialized from wave functions
   /       |              C  C  C                 |
  /        |         C C        C                 |
 *         |  C   C        C C                    |
 |         |C    C  C   C          C              |
 |         .--C-------C-C-----------C-------------.
 |        /               C        CC            /
 |       /                   C  C               /

[...]

Density initialized from wave functions
   /       |              C  C  C                 |
  /        |         C C        C                 |
 *         |  C   C        C C                    |
 |         |C    C  C C C          C              |
 |         .--C---------C-----------C-------------.
 |        /               C        CC            /
 |       /                   C  C               /

[...]

Density initialized from wave functions
   /       |              C  C  C                 |
  /        |         C C        C                 |
 *         |  C   C        C C     C              |
 |         |C    C  C C C                         |
 |         .--C---------C-----------C-------------.
 |        /               C        CC            /
 |       /                   C  C               /

[...]

Density initialized from wave functions
   /       |              C  C  C                 |
  /        |         C C        C                 |
 *         |  C   C        C C     C              |
 |         |C    C  C C C                         |
 |         .--C---------C-----------C-------------.
 |        /               C        CC            /
 |       /                   C  C               /

[...]

Density initialized from wave functions
   /       |              C  C                    |
  /        |         C C        C                 |
 *         |  C   C        C C     C              |
 |         |C    C  C C C                         |
 |         .--C--------C------------C-------------.
 |        /               C        C C           /
 |       /                   C  C               /

[...]

Density initialized from wave functions
   /       |              C  C                    |
  /        |        C  C        C                 |
 *         |  C   C        C C     C              |
 |         |C    C  C C C                         |
 |         .--C--------C------------C-------------.
 |        /               C        C C           /
 |       /                   C  C               /

[...]

Density initialized from wave functions
   /       |              C  C                    |
  /        |        C  C        CC                |
 *         |  C   C     C  C C     C              |
 |         |C    C  C C                           |
 |         .--C--------C------------C-------------.
 |        /               C        C C           /
 |       /                   C  C               /

[...]

Density initialized from wave functions
   /       |              C  C                    |
  /        |        C  C        CC                |
 *         |  C   C     C  C C     C              |
 |         C     C  C C                           |
 |         .--C--------C------------C-------------.
 |        /               C        CC            /
 |       /                   C  C               /

[...]

Density initialized from wave functions
   /       |              C  C                    |
  /        |        C  C        CC                |
 *         |  C   C     C  C  C    C              |
 |         C     C  C                             |
 |         .--C-------CC------------C-------------.
 |        /               C        CC            /
 |       /                   C  C               /

[...]

Density initialized from wave functions
   /       |           C  C  C                    |
  /        |        C           CC                |
 *         |  C   C     C  C  C    C              |
 |         C     C  C               C             |
 |         .--C-------CC--------------------------.
 |        /               C         C            /
 |       /                   C  C  C            /

[...]

Density initialized from wave functions
   /       |           C  C  C                    |
  /        |        C           CC                |
 *         |  C   C     C  C  C    C              |
 |         C     C  C C             C             |
 |         .--C--------C--------------------------.
 |        /               C         C            /
 |       /                   C  C  C            /

[...]

Density initialized from wave functions
   /       |           C  C  C                    |
  /        |        C           CC                |
 *         |  C   C     C  C  C    C              |
 |         C     C  C C              C            |
 |         .--C--------C--------------------------.
 |        /               C         C            /
 |       /                   C  C  C            /

[...]

Density initialized from wave functions
   /       |           C  C  C                    |
  /        |        C           C                 |
 *         |  C   C     C  C  C  C C              |
 |         C     C  C C              C            |
 |         .--C--------C--------------------------.
 |        /               C         C            /
 |       /                   C  C  C            /

[...]

Density initialized from wave functions
   /       |           C  C  C                    |
  /        |        C           C                 |
 *         |  C   C     C  C  C  C C              |
 |         C  C  C  C C              C            |
 |        /            C  C         C            /
 |       /                   C  C  C            /

[...]

Density initialized from wave functions
   /       |           C  C  C                    |
  /        |        C           C                 |
 *         |  C   C     C  C  C  C C              |
 |         C  C  C  C C             C             |
 |        /            C  C         C            /
 |       /                   C  C  C            /

[...]

Density initialized from wave functions
   /       |           C  C  C                    |
  /        |        C           C                 |
 *         |  C   C     C  C  C  C C              |
 |         C  C   C C C             C             |
 |        /            C  C        CC            /
 |       /                   C  C               /

[...]

Density initialized from wave functions
   /       |           C  C  C                    |
  /        |        C           C                 |
 *         |  C   C     C  C  C  C C              |
 |         C  C   C C C             C             |
 |        /            C  C        CC            /
 |       /                   C  C               /

[...]

Density initialized from wave functions
   /       |           C  C  C                    |
  /        |        C           C                 |
 *         |     C      C  C  C  C C              |
 |         C  C   C C C             C             |
 |        /            C  C        CC            /
 |       /                   C  C               /

[...]

Density initialized from wave functions
   /       |           C  C  C                    |
  /        |        C           C                 |
 *         |     C      C  C  C  C C              |
 |         C  C   C C C             C             |
 |        /            C  C        CC            /
 |       /                   C  C               /

[...]

Density initialized from wave functions
   /       |           C  C  C                    |
  /        |        C           CC                |
 *         |     C      C  C  C     C             |
 |         C  C   C C C             C             |
 |        /            C  C        CC            /
 |       /                   C  C               /

[...]

Density initialized from wave functions
   /       |           C  C  C                    |
  /        |        C           CC                |
 *         |     C      C  C  C     C             |
 |         C  C   C C C             C             |
 |        /            C  C        CC            /
 |       /                   C  C               /

[...]

Density initialized from wave functions
   /       |           C  C  C                    |
  /        |        C           CC                |
 *         |     C      C  C  C     C             |
 |         C  C   C C               C             |
 |         .----------C---------------------------.
 |        /            C  C        CC            /
 |       /                   C  C               /

[...]

System changes: positions

Initializing position-dependent things.

Density initialized from wave functions
   /       |           C  C  C                    |
  /        |        C           CC                |
 *         |     C      C  C  C     C             |
 |         C  C   C C               C             |
 |         .----------C---------------------------.
 |        /            C  C        CC            /
 |       /                   C  C               /

Positions:
   0 C      4.360432    9.223486    5.358530
   1 C      4.821516    7.772330    5.453817
   2 C      6.108489   11.147570    5.568287
   3 C      7.487823    7.652910    5.649212
   4 C      9.476056    9.321062    5.368874
   5 C      3.000382    8.840544    4.969809
   6 C      9.726234   11.590095    5.149154
   7 C      3.583505    7.185934    5.089279
   8 C      2.310579    7.669470    4.807715
   9 C     12.511980    7.550929    3.913586
  10 C     11.643608    9.896883    4.524776
  11 C     10.401679   10.344201    5.034073
  12 C      7.148572    6.282532    5.462288
  13 C      5.096985   10.340314    5.452164
  14 C     12.188073    6.319287    3.901705
  15 C     10.273898    4.699276    4.370772
  16 C      7.199891   11.851878    5.491169
  17 C      8.489386    8.585481    5.590889
  18 C      8.512484   11.931711    5.409155
  19 C      8.993240    4.736515    4.764831
  20 C     11.353683    5.281284    4.025227
  21 C      7.851063    5.129342    5.160697
  22 C      6.119370    7.271355    5.565670
  23 C     12.257967    8.836683    4.203141

Unit cell:
           periodic     x           y           z      points  spacing
  1. axis:    yes   16.000000    0.000000    0.000000    80     0.2000
  2. axis:    yes    0.000000   16.000000    0.000000    80     0.2000
  3. axis:    yes    0.000000    0.000000   10.000000    48     0.2083

Effective grid spacing dv^(1/3) = 0.2027

                     log10-error:    total        iterations:
           time      wfs    density  energy       fermi  poisson
iter:   1  16:21:09          +inf  -181.026319    2      4
iter:   2  16:21:09         -2.77  -181.025862    2      1
iter:   3  16:21:10         -3.03  -181.025522    2      1
iter:   4  16:21:10         -3.11  -181.024977    2      1
iter:   5  16:21:11         -3.25  -181.028337    2      1
iter:   6  16:21:11         -2.85  -181.024551    2      1
iter:   7  16:21:12         -3.47  -181.024506    2      1
iter:   8  16:21:12         -2.93  -181.025675    2      1
iter:   9  16:21:13         -4.11  -181.025044    2      1

Converged after 9 iterations.

Dipole moment: (0.199847, 0.023954, 0.069785) |e|*Ang

Energy contributions relative to reference atoms: (reference = -24663.074771)

Kinetic:       +100.762170
Potential:     -110.966119
External:        +0.000000
XC:            -173.838520
Entropy (-ST):   -0.078079
Local:           +3.056465
Free energy:   -181.064083
Extrapolated:  -181.025044

Fermi level: -4.34949

 Band  Eigenvalues  Occupancy
    0    -23.30922    2.00000
    1    -22.95547    2.00000
    2    -21.00871    2.00000
    3    -20.34093    2.00000
    4    -20.18806    2.00000
    5    -19.78054    2.00000
    6    -19.38333    2.00000
    7    -19.00949    2.00000
    8    -18.80872    2.00000
    9    -18.17752    2.00000
   10    -18.01790    2.00000
   11    -17.39790    2.00000
   12    -16.73682    2.00000
   13    -16.08871    2.00000
   14    -15.66170    2.00000
   15    -15.35510    2.00000
   16    -14.54387    2.00000
   17    -14.46289    2.00000
   18    -13.87197    2.00000
   19    -13.43627    2.00000
   20    -13.02573    2.00000
   21    -12.38483    2.00000
   22    -12.14607    2.00000
   23    -11.74686    2.00000
   24    -10.77441    2.00000
   25    -10.44020    2.00000
   26     -9.89798    2.00000
   27     -9.69809    2.00000
   28     -9.33168    2.00000
   29     -9.26808    2.00000
   30     -8.92420    2.00000
   31     -8.91681    2.00000
   32     -8.73532    2.00000
   33     -8.57768    2.00000
   34     -7.96530    2.00000
   35     -7.90697    2.00000
   36     -7.57709    2.00000
   37     -7.25013    2.00000
   38     -7.13079    2.00000
   39     -7.03991    2.00000
   40     -6.60611    2.00000
   41     -6.46099    2.00000
   42     -6.19485    2.00000
   43     -5.60431    1.99999
   44     -5.09603    1.99886
   45     -4.95909    1.99551
   46     -4.82635    1.98316
   47     -4.69012    1.93580
   48     -4.03988    0.08654
   49     -3.39365    0.00014
   50     -3.06383    0.00001
   51     -2.73163    0.00000
   52     -1.89422    0.00000
   53     -1.73380    0.00000
   54     -1.40022    0.00000
   55     -1.10498    0.00000
   56     -1.01250    0.00000
   57     -0.49773    0.00000
   58     -0.25738    0.00000
   59     -0.01273    0.00000
[...]
   83      8.73850    0.00000
   84      8.80264    0.00000
   85      8.88976    0.00000
   86      8.94691    0.00000
   87      9.04712    0.00000
   88      9.46163    0.00000
   89      9.55150    0.00000
   90      9.59508    0.00000
   91      9.62587    0.00000
   92      9.78584    0.00000
   93      9.97945    0.00000
   94     10.01618    0.00000
   95     10.14542    0.00000
   96     10.29492    0.00000
   97     10.38674    0.00000

Forces in eV/Ang:
  0 C    -0.00225    0.00639    0.05480
  1 C     0.02992   -0.04663   -0.02547
  2 C     0.05616    0.00019   -0.04913
  3 C    -0.01413    0.05681   -0.03254
  4 C    -0.04571   -0.03467   -0.00960
  5 C    -0.02620   -0.02390    0.03876
  6 C     0.02433    0.04343   -0.03502
  7 C     0.03072    0.01624   -0.01083
  8 C    -0.07568   -0.02974    0.01825
  9 C     0.00217    0.00232    0.01315
 10 C     0.00161    0.05370    0.06517
 11 C    -0.02549   -0.00863    0.02451
 12 C    -0.01031   -0.04039   -0.01371
 13 C     0.00915    0.01066    0.00251
 14 C     0.01378   -0.02365    0.00467
 15 C    -0.02598   -0.04904   -0.00870
 16 C    -0.01732   -0.04303   -0.00401
 17 C     0.01004   -0.01895    0.01188
 18 C    -0.00547   -0.02649   -0.02020
 19 C    -0.02004    0.01743    0.00048
 20 C    -0.01644    0.02038    0.03741
 21 C    -0.01436    0.04471   -0.03188
 22 C     0.06568    0.00101    0.03620
 23 C     0.01959    0.00003    0.01993