User:   esb@s65n31.grendel.cscaa.dk
Date:   Wed Nov  8 14:13:01 2017
Arch:   x86_64
Pid:    5986
Python: 2.7.13
gpaw:   /home/esb/DFT/gpaw_git/gpaw
_gpaw:  /home/esb/DFT/gpaw_git/build/bin.linux-x86_64-2.7/gpaw-python
ase:    /home/esb/DFT/ase_git/ase (version 3.15.0b1)
numpy:  /comm/swstack/core/python/2.7.13/lib/python2.7/site-packages/numpy (version 1.13.3)
scipy:  /comm/swstack/core/python/2.7.13/lib/python2.7/site-packages/scipy (version 0.19.1)
units:  Angstrom and eV
cores:  16
Extra parameters: {'blacs': True}

Input parameters:
  basis: dzp
  gpts: [80 80 48]
  kpts: [1 1 1]
  maxiter: 99
  mixer: {backend: pulay,
          beta: 0.05,
          method: separate,
          nmaxold: 5,
          weight: 75}
  mode: lcao
  nbands: -50
  occupations: {name: fermi-dirac,
                width: 0.1}
  poissonsolver: {eps: 1e-07,
                  name: fd,
                  nn: 3,
                  relax: GS}
  xc: PBE

System changes: positions, numbers, cell, pbc, initial_charges, initial_magmoms

Initialize ...

C-setup:
  name: Carbon
  id: 4aa54d4b901d75f77cc0ea3eec22967b
  Z: 6
  valence: 4
  core: 2
  charge: 0.0
  file: /home/esb/DFT/gpaw-setups-0.8.7929/C.PBE.gz
  cutoffs: 0.64(comp), 1.14(filt), 1.14(core), lmax=2
  valence states:
                energy  radius
    2s(2.00)   -13.751   0.635
    2p(2.00)    -5.284   0.635
    *s          13.461   0.635
    *p          21.927   0.635
    *d           0.000   0.635

  LCAO basis set for C:
    Name: dzp
    File: /home/esb/DFT/gpaw-setups-0.8.7929/C.dzp.basis.gz
    Number of radial functions: 5
    Number of spherical harmonics: 13
      l=0, rc=5.5469 Bohr: 2s-sz confined orbital
      l=1, rc=6.6719 Bohr: 2p-sz confined orbital
      l=0, rc=3.0312 Bohr: 2s-dz split-valence wave
      l=1, rc=3.7500 Bohr: 2p-dz split-valence wave
      l=2, rc=6.6719 Bohr: d-type Gaussian polarization

Reference energy: -24663.074771

Spin-paired calculation

Occupation numbers:
  Fermi-Dirac: width=0.1000 eV

Convergence criteria:
  Maximum total energy change: 0.0005 eV / electron
  Maximum integral of absolute density change: 0.0001 electrons
  Maximum integral of absolute eigenstate change: 4e-08 eV^2
  Maximum number of iterations: 99

Symmetries present (total): 1

  ( 1  0  0)
  ( 0  1  0)
  ( 0  0  1)

1 k-point (Gamma)
1 k-point in the irreducible part of the Brillouin zone
       k-points in crystal coordinates                weights
   0:     0.00000000    0.00000000    0.00000000          1/1

Wave functions: LCAO
  Diagonalizer: Serial LAPACK
  Atomic Correction: dense with blas
  Datatype: float
  Eigensolver: None

LCAO using direct dense diagonalizer

Densities:
  Coarse grid: 80*80*48 grid
  Fine grid: 160*160*96 grid
  Total Charge: 0.000000

Density mixing:
  Method: separate
  Backend: pulay
  Linear mixing parameter: 0.05
  Mixing with 5 old densities
  Damping of long wave oscillations: 75

Hamiltonian:
  XC and Coulomb potentials evaluated on a 160*160*96 grid
  Using the PBE Exchange-Correlation functional
  Interpolation: tri-quintic (5. degree polynomial)
  Poisson solver: Gauss-Seidel solver with 6 multi-grid levels
    Coarsest grid: 5 x 5 x 3 points
    Stencil: 6*3+1=19 point O(h^6) finite-difference Laplacian
    Max iterations: 1000
    Tolerance: 1.000000e-07

Total number of cores used: 16
Domain decomposition: 2 x 4 x 2

Number of atoms: 24
Number of atomic orbitals: 312
Number of bands in calculation: 98
Bands to converge: occupied states only
Number of valence electrons: 96

... initialized

Initializing position-dependent things.

Density initialized from atomic densities
  /        |        C      C      C               |
 *         |     C     C  C    C                  |
 |         |   CC    C       CC C                 |
 |         .------C-C-----------C-----------------.
 |        /     C     C C   C   C                /
 |       /       C      C                       /

Positions:
   0 C     11.352004    5.454652    4.449275
   1 C      4.440964    6.045058    5.724440
   2 C     10.991048    6.854136    5.007197
   3 C      7.979632    9.077355    5.023508
   4 C      8.470675    3.888168    4.266049
   5 C      3.649857    8.094819    4.801734
   6 C      5.924390   11.574839    4.351587
   7 C      7.904668   11.194754    5.089456
   8 C      4.805589    4.680468    5.087588
   9 C     10.580297    8.105453    4.573901
  10 C      9.882024    8.951151    5.492571
  11 C      7.737845    3.432072    5.441691
  12 C      8.333080    4.776241    4.874431
  13 C      9.530467    9.947856    4.323897
  14 C      9.923195    5.190644    4.727425
  15 C      3.959513    7.041450    5.309146
  16 C      3.870161   10.085772    4.637641
  17 C     10.732446   10.260624    5.435131
  18 C      6.069084    8.338064    4.975318
  19 C      9.286904    7.786224    4.824494
  20 C      4.951638   10.509224    5.412680
  21 C      5.867297    3.320757    4.701593
  22 C      5.119620    6.565507    4.779922
  23 C      6.364618    5.536236    5.289577

Unit cell:
           periodic     x           y           z      points  spacing
  1. axis:    yes   16.000000    0.000000    0.000000    80     0.2000
  2. axis:    yes    0.000000   16.000000    0.000000    80     0.2000
  3. axis:    yes    0.000000    0.000000   10.000000    48     0.2083

Effective grid spacing dv^(1/3) = 0.2027

                     log10-error:    total        iterations:
           time      wfs    density  energy       fermi  poisson
iter:   1  14:13:03          +inf  -131.614123    2      6
iter:   2  14:13:04         -0.89  -129.239072    4      3
iter:   3  14:13:04         -0.95  -127.117017    4      3
iter:   4  14:13:05         -1.04  -126.776974    4      3
iter:   5  14:13:05         -1.10  -126.158861    2      3
iter:   6  14:13:06         -1.19  -125.847021    4      3
iter:   7  14:13:06         -1.38  -125.714595    4      3
iter:   8  14:13:07         -1.67  -125.694205    3      3
iter:   9  14:13:07         -1.83  -125.671641    3      3
iter:  10  14:13:08         -1.98  -125.669368    3      2
iter:  11  14:13:08         -2.06  -125.663071    3      2
iter:  12  14:13:09         -2.27  -125.659264    3      2
iter:  13  14:13:09         -2.42  -125.655930    3      2
iter:  14  14:13:10         -2.57  -125.654222    3      2
iter:  15  14:13:10         -2.73  -125.660872    3      1
iter:  16  14:13:11         -2.84  -125.660327    3      1
iter:  17  14:13:11         -2.98  -125.652272    3      2
iter:  18  14:13:12         -3.20  -125.652726    2      1
iter:  19  14:13:12         -3.33  -125.652549    2      1
iter:  20  14:13:13         -3.48  -125.649890    2      1
iter:  21  14:13:13         -3.67  -125.650406    2      1
iter:  22  14:13:14         -3.91  -125.651739    2      1
iter:  23  14:13:14         -4.04  -125.651366    2      1

Converged after 23 iterations.

Dipole moment: (-0.191068, -0.140449, 0.233735) |e|*Ang

Energy contributions relative to reference atoms: (reference = -24663.074771)

Kinetic:       +108.172867
Potential:     -100.954726
External:        +0.000000
XC:            -135.258481
Entropy (-ST):   -0.464354
Local:           +2.621152
Free energy:   -125.883543
Extrapolated:  -125.651366

Fermi level: -4.68085

 Band  Eigenvalues  Occupancy
    0    -27.72066    2.00000
    1    -25.95687    2.00000
    2    -24.29386    2.00000
    3    -21.21893    2.00000
    4    -20.93446    2.00000
    5    -19.64668    2.00000
    6    -18.85424    2.00000
    7    -18.29115    2.00000
    8    -17.72127    2.00000
    9    -16.63538    2.00000
   10    -16.07864    2.00000
   11    -15.67990    2.00000
   12    -14.82729    2.00000
   13    -14.46001    2.00000
   14    -13.81553    2.00000
   15    -13.58123    2.00000
   16    -13.04023    2.00000
   17    -12.76930    2.00000
   18    -12.52436    2.00000
   19    -12.21938    2.00000
   20    -11.83609    2.00000
   21    -11.20910    2.00000
   22    -10.70974    2.00000
   23    -10.55567    2.00000
   24    -10.39051    2.00000
   25    -10.21421    2.00000
   26     -9.69240    2.00000
   27     -9.32948    2.00000
   28     -9.14356    2.00000
   29     -8.85536    2.00000
   30     -8.63921    2.00000
   31     -8.26781    2.00000
   32     -7.93965    2.00000
   33     -7.75872    2.00000
   34     -7.56055    2.00000
   35     -7.35234    2.00000
   36     -7.22335    2.00000
   37     -7.11343    2.00000
   38     -6.98947    2.00000
   39     -6.48700    2.00000
   40     -6.22032    2.00000
   41     -6.06384    2.00000
   42     -5.68954    1.99992
   43     -5.62436    1.99984
   44     -5.06643    1.95857
   45     -4.89714    1.79373
   46     -4.86838    1.73413
   47     -4.80795    1.56182
   48     -4.64240    0.81010
   49     -4.40730    0.12182
   50     -4.16429    0.01135
   51     -4.11651    0.00706
   52     -3.96016    0.00148
   53     -3.73995    0.00016
   54     -3.49688    0.00001
   55     -3.47548    0.00001
   56     -3.20705    0.00000
   57     -2.97553    0.00000
   58     -2.77328    0.00000
   59     -2.53233    0.00000
[...]
   83      4.90839    0.00000
   84      5.68464    0.00000
   85      5.78407    0.00000
   86      6.05610    0.00000
   87      6.76990    0.00000
   88      7.18407    0.00000
   89      7.51262    0.00000
   90      7.76254    0.00000
   91      7.84747    0.00000
   92      8.55405    0.00000
   93      8.82147    0.00000
   94      8.92748    0.00000
   95      9.05862    0.00000
   96      9.20615    0.00000
   97      9.39481    0.00000

Forces in eV/Ang:
  0 C    -4.88716    2.08477    2.15847
  1 C     1.00193  -20.20342   11.25082
  2 C     1.52001   -4.33327   -2.50059
  3 C    -0.25777    0.22931   -1.17917
  4 C     3.26303  -26.85237  -17.78377
  5 C    -2.89735   11.07899   -3.72778
  6 C     0.40607   -3.28854    3.83702
  7 C    -1.01541   -2.77272   -0.86790
  8 C     4.24829   -2.30796    1.28808
  9 C     5.47091   -1.95920   -2.17334
 10 C     0.53204    4.85073    3.92834
 11 C    -2.37071   -0.75617   -0.79932
 12 C     1.29570   27.36901   16.22145
 13 C    -1.22295    3.73456    0.57523
 14 C     0.32419    1.14454    0.70222
 15 C   -11.03488    9.69994   -0.34894
 16 C     0.58278   -2.54777    1.57552
 17 C    -3.36673   -2.03985   -1.42494
 18 C     2.16330    0.64719    0.07501
 19 C    -6.75859   -1.31474    1.11371
 20 C     1.75701    1.27647   -4.69549
 21 C    -0.96170    3.38348    1.82509
 22 C    14.32518    3.41367   -7.71671
 23 C    -2.19790   -0.56514   -1.40774

System changes: positions

[...]

Density initialized from wave functions
  /        |        C      C      C               |
 *         |     C     C  C    C                  |
 |         |   CC    C      C C C                 |
 |         .------C-C-----------C-----------------.
 |        /     C     C C   C   C                /
 |       /       C      C                       /

[...]

Density initialized from wave functions
  /        |        C      C      C               |
 *         |     C     C  C    C                  |
 |         |   CC    C      C C C                 |
 |         .------C-C-----------C-----------------.
[...]
 |      /             C                        /

[...]

Density initialized from wave functions
  /        |                  C C                 |
 *         |     C  C  C  C      C                |
 |         |  CC          C   C C                 |
 |         .--C----C--C-C--------C----------------.
 |        /     C           C  C                 /
 |       /      C  C     C                      /
 |      /             C                        /

[...]

Density initialized from wave functions
  /        |                  C C                 |
 *         |     C  C  C  C      C                |
 |         |  CC           C  C C                 |
 |         .--C----C--C-C--------C----------------.
 |        /     C           C  C                 /
 |       /       C C     C                      /
 |      /             C                        /

[...]

Density initialized from wave functions
  /        |                  C C                 |
 *         |     C  C  C  C      C                |
 |         |  CC        C  C  C C                 |
 |         .--C----C--C----------C----------------.
 |        /     C           C  C                 /
 |       /       C C     C                      /
 |      /             C                        /

[...]

Density initialized from wave functions
  /        |                  C C                 |
 *         |     C  C  C  C      C                |
 |         |  CC        C C   C C                 |
 |         .--C----C--C----------C----------------.
 |        /     C            C C                 /
 |       /       C  C     C                     /
 |      /             C                        /

[...]

Density initialized from wave functions
  /        |                  C C                 |
 *         |     C  C  C  C      C                |
 |         | C C        C C   C C                 |
 |         .--C----C--C--------C-C----------------.
 |        /     C            C                   /
 |       /       C  C     C                     /
 |      /              C                       /

[...]

Density initialized from wave functions
  /        |                  C C                 |
 *         |   C C  C  C  C      C                |
 |         | C          C C   C C                 |
 |         .--C----C--C--------C-C----------------.
 |        /     C            C                   /
 |       /       C  C     C                     /
 |      /              C                       /

[...]

Density initialized from wave functions
  /        |                  C C                 |
 *         |   C C  C  C  C      C                |
 |         | C          C C   C C                 |
 |         .--C------C---------C-C----------------.
 |        /     C  C         C                   /
 |       /       C  C  C  C                     /

[...]

Density initialized from wave functions
  /        |                  C C                 |
 *         |   C C  C  C  C      C                |
 |         | C          C C   C C                 |
 |         .-C-------C---------C-C----------------.
 |        /     C  C         C                   /
 |       /       C  C  C  C                     /

[...]

Density initialized from wave functions
  /        |                  C C                 |
 *         |   C C  C  C  C      C                |
 |         | C          C C   C C                 |
 |         .-C-------C---------C-C----------------.
 |        /     C  C         C                   /
 |       /       C  C  C  C                     /

[...]

Density initialized from wave functions
  /        |           C      C C                 |
 *         |   C C  C     C      C                |
 |         | C          C C  C  C                 |
 |         .-C-------C---------C-C----------------.
 |        /     C  C         C                   /
 |       /       C  C  C  C                     /

[...]

Density initialized from wave functions
  /        |           C      C C                 |
 *         |  C  C  C     C      C                |
 |         | C          C C   C C                 |
 |         .-C-------C---------C-C----------------.
 |        /     C  C         C                   /
 |       /       C  C  C  C                     /

[...]

Density initialized from wave functions
  /        |           C      C C                 |
 *         |  C  C  C     C      C                |
 |         | C          C C  C  C                 |
 |         .-C-------C-----------C----------------.
 |        /     C  C         C C                 /
 |       /       C  C  C  C                     /

[...]

Density initialized from wave functions
  /        |           C      C C                 |
 *         |  C  C  C     C      C                |
 |         | C          C C  C  C                 |
 |         .-C-------C-----------C----------------.
 |        /     C  C         C C                 /
 |       /       C  C  C  C                     /

[...]

Density initialized from wave functions
  /        |           C      C C                 |
 *         |  C  C  C     C      C                |
 |         | C            C  C  C                 |
 |         .-C-------C--C--------C----------------.
 |        /     C  C         C C                 /
 |       /       C  C  C  C                     /

[...]

Density initialized from wave functions
  /        |           C      C C                 |
 *         |  C  C  C     C      C                |
 |         | C            C  C  C                 |
 |         .-C-------C--C--------C----------------.
 |        /     C  C         C C                 /
 |       /       C  C  C  C                     /

[...]

Density initialized from wave functions
  /        |           C      C C                 |
 *         |  C  C  C     C      C                |
 |         | C            C  C  C                 |
 |         .-C-------C--C------C-C----------------.
 |        /     C  C         C                   /
 |       /       C  C  C  C                     /

[...]

Density initialized from wave functions
  /        |           C     C  C                 |
 *         |  C  C  C     C      C                |
 |         | C            C   C C                 |
 |         .-C-------C--C------C-C----------------.
 |        /     C  C         C                   /
 |       /       C  C  C  C                     /

[...]

Density initialized from wave functions
  /        |        C  C     C  C                 |
 *         |  C  C        C      C                |
 |         | C            C   C C                 |
 |         .-C-------C--C------C-C----------------.
 |        /     C  C         C                   /
 |       /       C  C  C  C                     /

[...]

Density initialized from wave functions
  /        |        C  C     C  C                 |
 *         |  C  C        C      C                |
 |         | C            C   C C                 |
 |         .-C-------C--C------C-C----------------.
 |        /     C  C         C                   /
 |       /       C  C  C  C                     /

[...]

Density initialized from wave functions
  /        |        C  C     C  C                 |
 *         |  C  C        C      C                |
 |         | C            C   C C                 |
 |         .-C-------C--C------C-C----------------.
 |        /     C  C      C  C                   /
 |       /       C  C  C                        /

[...]

Density initialized from wave functions
  /        |        C  C     C  C                 |
 *         |  C  C        C      C                |
 |         | C            C   C  C                |
 |         .-C-------C--C-------CC----------------.
 |        /     C  C      C  C                   /
 |       /       C  C  C                        /

[...]

Density initialized from wave functions
  /        |        C  C     C  C                 |
 *         |  C  C        C      C                |
 |         | C            C   C  C                |
 |         .-C-------C--C-------CC----------------.
 |        /     C  C      C  C                   /
 |       /       C  C  C                        /

[...]

Density initialized from wave functions
  /        |        C  C     C  C                 |
 *         |  C  C        C      C                |
 |         | C            C   C  C                |
 |         .-C-------C--C------C-C----------------.
 |        /     C  C      C  C                   /
 |       /       C  C  C                        /

[...]

Density initialized from wave functions
  /        |        C  C     C  C                 |
 *         |  C  C        C      C                |
 |         | C            C   C  C                |
 |         .-C----------C-------CC----------------.
 |        /     C  C C    C  C                   /
 |       /       C  C  C                        /

[...]

Density initialized from wave functions
  /        |        C  C     C  C                 |
 *         |  C  C        C      C                |
 |         | C            C   C  C                |
 |         .-C----------C-------C-C---------------.
 |        /     CCC  C    C  C                   /
 |       /          C  C                        /

[...]

Density initialized from wave functions
  /        |        C  C     C  C                 |
 *         |  C  C        C      C                |
 |         | C            C   C  C                |
 |         .-C----------C-------CC----------------.
 |        /     CCC  C    C  C                   /
 |       /          C  C                        /

[...]

Density initialized from wave functions
  /        |        C  C     C  C                 |
 *         |  C  C        C      C                |
 |         | C            C   C  C                |
 |         .-C----------C-------CC----------------.
 |        /     CC C C    C  C                   /
 |       /          C  C                        /

[...]

Density initialized from wave functions
  /        |        C  C     C  C                 |
 *         |  C  C        C      C                |
 |         | C            C   C  C                |
 |         .-C----------C-------CC----------------.
 |        /     CC C C    C  C                   /
 |       /          C  C                        /

[...]

System changes: positions

Initializing position-dependent things.

Density initialized from wave functions
  /        |        C  C     C  C                 |
 *         |  C  C        C      C                |
 |         | C            C   C  C                |
 |         .-C----------C-------C-C---------------.
 |        /     CCC  C    C  C                   /
 |       /          C  C                        /

Positions:
   0 C     11.018861    5.898549    4.935852
   1 C      3.494879    5.646947    5.157590
   2 C     11.516983    7.100904    4.902350
   3 C      8.154275    8.995749    4.521513
   4 C      8.131852    3.513917    5.181954
   5 C      3.321391    8.181232    5.451071
   6 C      6.301023   10.443037    5.223881
   7 C      7.695759   10.379813    4.989030
   8 C      4.763503    5.073603    4.772189
   9 C     10.838546    8.281878    4.697688
  10 C     10.596033    9.708192    4.865049
  11 C      6.835482    3.655882    5.091708
  12 C      9.320646    4.053496    5.097806
  13 C      8.751582   11.266791    5.208853
  14 C     10.434850    4.724862    5.076700
  15 C      3.130963    6.847976    5.319013
  16 C      4.020475    9.233331    5.424068
  17 C      9.989359   10.902145    5.060117
  18 C      7.277075    7.948014    4.297466
  19 C      9.530624    8.761304    4.477195
  20 C      5.126119   10.011067    5.330030
  21 C      5.564430    3.946225    5.050687
  22 C      6.514374    6.932551    4.230498
  23 C      5.650033    5.950698    4.196641

Unit cell:
           periodic     x           y           z      points  spacing
  1. axis:    yes   16.000000    0.000000    0.000000    80     0.2000
  2. axis:    yes    0.000000   16.000000    0.000000    80     0.2000
  3. axis:    yes    0.000000    0.000000   10.000000    48     0.2083

Effective grid spacing dv^(1/3) = 0.2027

                     log10-error:    total        iterations:
           time      wfs    density  energy       fermi  poisson
iter:   1  14:28:28          +inf  -181.992615    3      5
iter:   2  14:28:29         -2.50  -181.986225    2      1
iter:   3  14:28:29         -2.70  -181.981868    3      1
iter:   4  14:28:30         -3.13  -181.982211    2      1
iter:   5  14:28:30         -3.11  -181.982072    2      1
iter:   6  14:28:31         -3.33  -181.981769    2      1
iter:   7  14:28:31         -3.09  -181.983045    3      1
iter:   8  14:28:31         -3.03  -181.982269    3      1
iter:   9  14:28:32         -3.40  -181.982076    2      1
iter:  10  14:28:32         -3.95  -181.982296    2      1
iter:  11  14:28:33         -3.89  -181.982152    2      1
iter:  12  14:28:33         -3.71  -181.982197    2      1
iter:  13  14:28:34         -4.24  -181.982248    2      1

Converged after 13 iterations.

Dipole moment: (-0.064692, 0.131009, -0.134502) |e|*Ang

Energy contributions relative to reference atoms: (reference = -24663.074771)

Kinetic:       +102.010980
Potential:     -112.212145
External:        +0.000000
XC:            -174.842575
Entropy (-ST):   -0.041566
Local:           +3.082276
Free energy:   -182.003032
Extrapolated:  -181.982248

Fermi level: -4.07615

 Band  Eigenvalues  Occupancy
    0    -23.43723    2.00000
    1    -21.50547    2.00000
    2    -21.10987    2.00000
    3    -20.20075    2.00000
    4    -20.11705    2.00000
    5    -19.92658    2.00000
    6    -19.43613    2.00000
    7    -19.24632    2.00000
    8    -18.86965    2.00000
    9    -18.41639    2.00000
   10    -18.04270    2.00000
   11    -17.24619    2.00000
   12    -17.01308    2.00000
   13    -16.22243    2.00000
   14    -15.80936    2.00000
   15    -15.49661    2.00000
   16    -14.82013    2.00000
   17    -14.29830    2.00000
   18    -13.85891    2.00000
   19    -13.45208    2.00000
   20    -12.81709    2.00000
   21    -12.51026    2.00000
   22    -12.25088    2.00000
   23    -12.10837    2.00000
   24    -11.76623    2.00000
   25    -10.57445    2.00000
   26    -10.37104    2.00000
   27     -9.61512    2.00000
   28     -9.08109    2.00000
   29     -8.94784    2.00000
   30     -8.82140    2.00000
   31     -8.73169    2.00000
   32     -8.65873    2.00000
   33     -8.53430    2.00000
   34     -8.15836    2.00000
   35     -8.01863    2.00000
   36     -7.54719    2.00000
   37     -7.44784    2.00000
   38     -7.31769    2.00000
   39     -7.15701    2.00000
   40     -6.75152    2.00000
   41     -6.20548    2.00000
   42     -5.88650    2.00000
   43     -5.79467    2.00000
   44     -5.51838    2.00000
   45     -5.17838    1.99997
   46     -4.61092    1.99053
   47     -4.49523    1.97018
   48     -3.68124    0.03781
   49     -3.35539    0.00148
   50     -2.95156    0.00003
   51     -2.82463    0.00001
   52     -2.57325    0.00000
   53     -1.97575    0.00000
   54     -1.85885    0.00000
   55     -1.12836    0.00000
   56     -0.85169    0.00000
   57     -0.33489    0.00000
   58     -0.04554    0.00000
   59      0.35985    0.00000
[...]
   83      8.83890    0.00000
   84      8.96596    0.00000
   85      9.08096    0.00000
   86      9.33716    0.00000
   87      9.49881    0.00000
   88      9.52658    0.00000
   89      9.60857    0.00000
   90      9.64553    0.00000
   91      9.71860    0.00000
   92      9.77238    0.00000
   93      9.87617    0.00000
   94     10.12322    0.00000
   95     10.16459    0.00000
   96     10.31152    0.00000
   97     10.35119    0.00000

Forces in eV/Ang:
  0 C     0.02420   -0.05150    0.01827
  1 C     0.01974   -0.06316    0.03168
  2 C    -0.03809   -0.06723   -0.00651
  3 C    -0.02480   -0.02929   -0.06975
  4 C     0.02302   -0.04159    0.03184
  5 C    -0.04387    0.01965   -0.00440
  6 C    -0.05994    0.03741   -0.06829
  7 C     0.02015   -0.02836   -0.00176
  8 C    -0.01492   -0.01625   -0.00045
  9 C     0.03167    0.00140    0.03622
 10 C     0.01622    0.04601    0.01143
 11 C    -0.04102   -0.00566   -0.04102
 12 C    -0.00986    0.04318   -0.00898
 13 C     0.05070   -0.00217    0.00659
 14 C     0.07190    0.04075    0.00762
 15 C    -0.00084    0.04009    0.02564
 16 C    -0.02315    0.00041    0.05559
 17 C     0.00995   -0.01693    0.02900
 18 C     0.04517    0.04801   -0.02178
 19 C    -0.06941    0.03461    0.00014
 20 C     0.03045   -0.01470    0.02329
 21 C     0.00935   -0.00165   -0.00093
 22 C    -0.00726    0.07140   -0.06330
 23 C    -0.02991   -0.03581    0.05018