User:   esb@s65n33.grendel.cscaa.dk
Date:   Thu Nov  9 09:42:26 2017
Arch:   x86_64
Pid:    74088
Python: 2.7.13
gpaw:   /home/esb/DFT/gpaw_git/gpaw
_gpaw:  /home/esb/DFT/gpaw_git/build/bin.linux-x86_64-2.7/gpaw-python
ase:    /home/esb/DFT/ase_git/ase (version 3.15.0b1)
numpy:  /comm/swstack/core/python/2.7.13/lib/python2.7/site-packages/numpy (version 1.13.3)
scipy:  /comm/swstack/core/python/2.7.13/lib/python2.7/site-packages/scipy (version 0.19.1)
units:  Angstrom and eV
cores:  16
Extra parameters: {'blacs': True}

Input parameters:
  basis: dzp
  gpts: [80 80 48]
  kpts: [1 1 1]
  maxiter: 99
  mixer: {backend: pulay,
          beta: 0.05,
          method: separate,
          nmaxold: 5,
          weight: 75}
  mode: lcao
  nbands: -50
  occupations: {name: fermi-dirac,
                width: 0.1}
  poissonsolver: {eps: 1e-07,
                  name: fd,
                  nn: 3,
                  relax: GS}
  xc: PBE

System changes: positions, numbers, cell, pbc, initial_charges, initial_magmoms

Initialize ...

C-setup:
  name: Carbon
  id: 4aa54d4b901d75f77cc0ea3eec22967b
  Z: 6
  valence: 4
  core: 2
  charge: 0.0
  file: /home/esb/DFT/gpaw-setups-0.8.7929/C.PBE.gz
  cutoffs: 0.64(comp), 1.14(filt), 1.14(core), lmax=2
  valence states:
                energy  radius
    2s(2.00)   -13.751   0.635
    2p(2.00)    -5.284   0.635
    *s          13.461   0.635
    *p          21.927   0.635
    *d           0.000   0.635

  LCAO basis set for C:
    Name: dzp
    File: /home/esb/DFT/gpaw-setups-0.8.7929/C.dzp.basis.gz
    Number of radial functions: 5
    Number of spherical harmonics: 13
      l=0, rc=5.5469 Bohr: 2s-sz confined orbital
      l=1, rc=6.6719 Bohr: 2p-sz confined orbital
      l=0, rc=3.0312 Bohr: 2s-dz split-valence wave
      l=1, rc=3.7500 Bohr: 2p-dz split-valence wave
      l=2, rc=6.6719 Bohr: d-type Gaussian polarization

Reference energy: -24663.074771

Spin-paired calculation

Occupation numbers:
  Fermi-Dirac: width=0.1000 eV

Convergence criteria:
  Maximum total energy change: 0.0005 eV / electron
  Maximum integral of absolute density change: 0.0001 electrons
  Maximum integral of absolute eigenstate change: 4e-08 eV^2
  Maximum number of iterations: 99

Symmetries present (total): 1

  ( 1  0  0)
  ( 0  1  0)
  ( 0  0  1)

1 k-point (Gamma)
1 k-point in the irreducible part of the Brillouin zone
       k-points in crystal coordinates                weights
   0:     0.00000000    0.00000000    0.00000000          1/1

Wave functions: LCAO
  Diagonalizer: Serial LAPACK
  Atomic Correction: dense with blas
  Datatype: float
  Eigensolver: None

LCAO using direct dense diagonalizer

Densities:
  Coarse grid: 80*80*48 grid
  Fine grid: 160*160*96 grid
  Total Charge: 0.000000

Density mixing:
  Method: separate
  Backend: pulay
  Linear mixing parameter: 0.05
  Mixing with 5 old densities
  Damping of long wave oscillations: 75

Hamiltonian:
  XC and Coulomb potentials evaluated on a 160*160*96 grid
  Using the PBE Exchange-Correlation functional
  Interpolation: tri-quintic (5. degree polynomial)
  Poisson solver: Gauss-Seidel solver with 6 multi-grid levels
    Coarsest grid: 5 x 5 x 3 points
    Stencil: 6*3+1=19 point O(h^6) finite-difference Laplacian
    Max iterations: 1000
    Tolerance: 1.000000e-07

Total number of cores used: 16
Domain decomposition: 2 x 4 x 2

Number of atoms: 24
Number of atomic orbitals: 312
Number of bands in calculation: 98
Bands to converge: occupied states only
Number of valence electrons: 96

... initialized

Initializing position-dependent things.

Density initialized from atomic densities
  /        |           C  CC  C                   |
 *         |         C  C C  C C                  |
 |         | C           C  C   CC                |
 |         .-------C-C--------C-C-----------------.
 |        /    C     C        C                  /
 |       /             C  C                     /

Positions:
   0 C      7.547506    9.927920    6.079185
   1 C      6.292227    9.906462    5.955954
   2 C     10.726437    5.232759    5.649679
   3 C      9.804456    8.588518    6.205694
   4 C      5.821230    6.144205    5.530180
   5 C      8.231229    3.193640    5.166810
   6 C      7.623718    7.619452    5.783774
   7 C      9.566873    6.171946    5.751354
   8 C      8.187501    6.278243    5.673598
   9 C      6.199631    7.574717    5.690599
  10 C      7.020895    3.892263    5.339407
  11 C      9.489486    3.319451    5.320676
  12 C     10.382163    7.408801    6.006993
  13 C      8.422937    8.818233    6.022144
  14 C     11.454974    6.415528    5.935323
  15 C      7.030295    5.348430    5.504043
  16 C     10.697761    3.903902    5.296983
  17 C     10.366398    9.405956    4.387809
  18 C     10.796407    8.178112    4.309688
  19 C      9.878865    7.165717    4.772173
  20 C      7.809452   10.175471    4.986225
  21 C      9.016181    9.454922    4.850008
  22 C      4.722877    4.250913    5.396976
  23 C      3.405582    6.559922    5.598811

Unit cell:
           periodic     x           y           z      points  spacing
  1. axis:    yes   16.000000    0.000000    0.000000    80     0.2000
  2. axis:    yes    0.000000   16.000000    0.000000    80     0.2000
  3. axis:    yes    0.000000    0.000000   10.000000    48     0.2083

Effective grid spacing dv^(1/3) = 0.2027

                     log10-error:    total        iterations:
           time      wfs    density  energy       fermi  poisson
iter:   1  09:42:28          +inf  -157.246833    2      6
iter:   2  09:42:28         -0.85  -153.428930    33     3
iter:   3  09:42:29         -0.92  -155.437041    5      3
iter:   4  09:42:30         -0.81  -152.276317    4      2
iter:   5  09:42:30         -0.92  -152.178949    3      2
iter:   6  09:42:31         -0.93  -151.190145    4      3
iter:   7  09:42:32         -1.05  -150.249263    4      3
iter:   8  09:42:32         -1.18  -149.905690    4      3
iter:   9  09:42:33         -1.42  -149.916062    4      3
iter:  10  09:42:34         -1.56  -149.837072    3      2
iter:  11  09:42:34         -1.72  -149.827479    3      3
iter:  12  09:42:35         -1.89  -149.821496    3      2
iter:  13  09:42:36         -1.95  -149.807760    3      2
iter:  14  09:42:36         -2.10  -149.795926    3      2
iter:  15  09:42:37         -2.26  -149.792132    3      2
iter:  16  09:42:37         -2.47  -149.790156    3      2
iter:  17  09:42:38         -2.60  -149.787911    3      2
iter:  18  09:42:39         -2.76  -149.788877    2      2
iter:  19  09:42:39         -2.81  -149.794117    2      1
iter:  20  09:42:40         -2.87  -149.796466    2      1
iter:  21  09:42:41         -2.99  -149.790105    3      2
iter:  22  09:42:41         -3.23  -149.792089    2      1
iter:  23  09:42:42         -3.33  -149.789805    2      1
iter:  24  09:42:42         -3.42  -149.788206    2      1
iter:  25  09:42:43         -3.48  -149.787235    3      1
iter:  26  09:42:44         -3.85  -149.789156    2      1
iter:  27  09:42:44         -4.04  -149.788222    2      1

Converged after 27 iterations.

Dipole moment: (-0.027811, -0.301938, 0.340688) |e|*Ang

Energy contributions relative to reference atoms: (reference = -24663.074771)

Kinetic:       +178.448099
Potential:     -154.890152
External:        +0.000000
XC:            -175.934685
Entropy (-ST):   -0.550798
Local:           +2.863914
Free energy:   -150.063621
Extrapolated:  -149.788222

Fermi level: -4.46626

 Band  Eigenvalues  Occupancy
    0    -27.61044    2.00000
    1    -26.42338    2.00000
    2    -23.28892    2.00000
    3    -22.09840    2.00000
    4    -20.98621    2.00000
    5    -20.67000    2.00000
    6    -19.86582    2.00000
    7    -19.26421    2.00000
    8    -19.20051    2.00000
    9    -18.03247    2.00000
   10    -17.81894    2.00000
   11    -16.82422    2.00000
   12    -16.23337    2.00000
   13    -15.45890    2.00000
   14    -15.00925    2.00000
   15    -14.85817    2.00000
   16    -14.18298    2.00000
   17    -13.64902    2.00000
   18    -13.52113    2.00000
   19    -12.88212    2.00000
   20    -12.74970    2.00000
   21    -12.59783    2.00000
   22    -11.99494    2.00000
   23    -11.86164    2.00000
   24    -11.59365    2.00000
   25    -11.51056    2.00000
   26    -11.43018    2.00000
   27    -10.66574    2.00000
   28    -10.47493    2.00000
   29     -9.92585    2.00000
   30     -9.33328    2.00000
   31     -8.95010    2.00000
   32     -8.74635    2.00000
   33     -8.23171    2.00000
   34     -7.89358    2.00000
   35     -7.72894    2.00000
   36     -7.28297    2.00000
   37     -7.09457    2.00000
   38     -6.84264    2.00000
   39     -6.51439    2.00000
   40     -5.99910    2.00000
   41     -5.82597    2.00000
   42     -5.39895    1.99982
   43     -5.08468    1.99588
   44     -5.06358    1.99492
   45     -4.85612    1.96026
   46     -4.63941    1.69920
   47     -4.48365    1.08671
   48     -4.40374    0.69717
   49     -4.32512    0.39202
   50     -4.19328    0.12247
   51     -4.07031    0.03743
   52     -3.94924    0.01130
   53     -3.80933    0.00280
   54     -3.10384    0.00000
   55     -2.67156    0.00000
   56     -2.38380    0.00000
   57     -2.22214    0.00000
   58     -1.82947    0.00000
   59     -1.76747    0.00000
[...]
   83      8.05792    0.00000
   84      8.26552    0.00000
   85      8.41433    0.00000
   86      8.50998    0.00000
   87      8.55608    0.00000
   88      8.82087    0.00000
   89      9.14283    0.00000
   90      9.27260    0.00000
   91      9.41267    0.00000
   92      9.49119    0.00000
   93      9.55404    0.00000
   94      9.68601    0.00000
   95      9.79325    0.00000
   96     10.00656    0.00000
   97     10.07140    0.00000

Forces in eV/Ang:
  0 C     1.85232   -3.75274   24.26086
  1 C    -9.39624   -0.22641   -2.22877
  2 C     0.68113    0.20321    0.18554
  3 C    -1.15383    4.81128    5.16254
  4 C    -1.97392    0.84997    0.34052
  5 C    -4.08443    1.06271    0.21778
  6 C    -0.92947   -2.28451   -0.12485
  7 C    -1.06184   -2.60633   -0.54208
  8 C    -4.99275   -0.69444    1.08022
  9 C     0.23061   -0.45556   -0.07863
 10 C     1.14773    1.12749   -0.03151
 11 C     1.77364    0.29769   -0.23395
 12 C     2.26551   -3.51681    7.24363
 13 C    -0.37960   -5.89653    5.61945
 14 C     3.76140   -0.44897    1.14190
 15 C     1.45746   -1.00570    0.13268
 16 C    -0.42769   -0.44672    0.36131
 17 C    -3.39010    4.18332   -0.56896
 18 C     1.81713   -4.30519   -4.16183
 19 C     1.72177    0.20052   -8.80369
 20 C     3.71177    8.14872  -22.68738
 21 C     3.48306    3.63370   -6.34614
 22 C     1.31441    2.93693    0.15768
 23 C     2.65686   -1.87127   -0.22095

System changes: positions

[...]

Density initialized from wave functions
   /       |              C                       |
  /        |          C    C  C                   |
 *         |         C  C C  C C                  |
 |         | C           C  C   CC                |
 |         .-------C-C--------C-C-----------------.
 |        /    C     C        C                  /
 |       /             C  C                     /

[...]
   /       |              C   C                   |
  /        |          C    C    C                 |
 *         |          C  C      C                 |
 |         |       C         C                    |
 |         .----C-----C--C--CCC-------------------.
 |        /    C    C    C    CC                 /
 |       /            C                         /

[...]

Density initialized from wave functions
   /       |              C   C                   |
  /        |          C    C    C                 |
 *         |          C  C      C                 |
 |         |       C         C                    |
 |         .----C-----C--C--C-C-------------------.
 |        /     C   C    C    CC                 /
 |       /            C                         /

[...]

Density initialized from wave functions
   /       |              C   C                   |
  /        |          C    C    C                 |
 *         |          C  C   C  C                 |
 |         |       C                              |
 |         .----C-----C--C--C-C-------------------.
 |        /     C   C    C    CC                 /
 |       /            C                         /

[...]

Density initialized from wave functions
   /       |              C   C                   |
  /        |          C    C    C                 |
 *         |          C  C   C  C                 |
 |         |       C                              |
 |         .----C-----C--C--C-C-------------------.
 |        /     C   C    C    CC                 /
 |       /            C                         /

[...]

Density initialized from wave functions
   /       |                  C                   |
  /        |          C   CC    C                 |
 *         |          C  C   C  C                 |
 |         |       C                              |
 |         .----C-----C--C--C-C-------------------.
 |        /     C   C    C    CC                 /
 |       /            C                         /

[...]

Density initialized from wave functions
   /       |                  C                   |
  /        |          C   CC    C                 |
 *         |          C  C   C  C                 |
 |         |       C                              |
 |         .----C-----C--C--C-C-------------------.
 |        /     C   C    C    CC                 /
 |       /            C                         /

[...]

Density initialized from wave functions
   /       |                  C                   |
  /        |          C  C C    C                 |
 *         |          C  C   C  C                 |
 |         |       C                              |
 |         .----C-----C--C--C-CC------------------.
 |        /     C   C    C    CC                 /
 |       /            C                         /

[...]

Density initialized from wave functions
   /       |                  C                   |
  /        |          C  C C    C                 |
 *         |         C   C    C C                 |
 |         |       C                              |
 |         .----C-----C--C--C-CC------------------.
 |        /      C  C    C    CC                 /
 |       /            C                         /

[...]

Density initialized from wave functions
   /       |                  C                   |
  /        |          C  C C    C                 |
 *         |         C   C    C C                 |
 |         |       C     C                        |
 |         .----C-----C-----C-CC------------------.
 |        /      C  C    C    CC                 /
 |       /            C                         /

[...]

Density initialized from wave functions
   /       |                  C                   |
  /        |          C   CC    C                 |
 *         |         C   C      C                 |
 |         |       C     C    C                   |
 |         .----C-----C-----C-CC------------------.
 |        /      C  C    C    CC                 /
 |       /            C                         /

[...]

Density initialized from wave functions
   /       |                  C                   |
  /        |          C   CC    C                 |
 *         |         C   C      C                 |
 |         |       C          C                   |
 |         .----C-----C--C--CCCC------------------.
 |        /      C  C    C    CC                 /
 |       /            C                         /

[...]

Density initialized from wave functions
   /       |                  C                   |
  /        |          C   CC    C                 |
 *         |         C   C      C                 |
 |         |       C          C                   |
 |         .----C-----C--C--CCCC------------------.
 |        /      C  C    C    CC                 /
 |       /            C                         /

[...]

Density initialized from wave functions
   /       |                  C                   |
  /        |          C   CC    C                 |
 *         |         C   C      C                 |
 |         |       C          C                   |
 |         .----C-----C--C---CCC------------------.
 |        /      C  C    C  C CC                 /
 |       /            C                         /

[...]

Density initialized from wave functions
   /       |                  C                   |
  /        |          C   CC    C                 |
 *         |         C   C      C                 |
 |         |       C          C                   |
 |         .----C-----C--C---CCC------------------.
 |        /      C  C    C  C CC                 /
 |       /            C                         /

[...]

Density initialized from wave functions
   /       |                  C                   |
  /        |          C   CC    C                 |
 *         |         C   C      C                 |
 |         |       C          C                   |
 |         .----C-----C--C---CCC------------------.
 |        /      C  C    C   CCC                 /
 |       /            C                         /

[...]

Density initialized from wave functions
   /       |                  C                   |
  /        |          C   CC    C                 |
 *         |         C   C      C                 |
 |         |       C          C                   |
 |         .----C-----C--C---CCC------------------.
 |        /      C  C    C   CCC                 /
 |       /            C                         /

[...]

Density initialized from wave functions
   /       |                  C                   |
  /        |          C   CC    C                 |
 *         |         C   C      C                 |
 |         |       C          C                   |
 |         .----C-----C--C---C-C------------------.
 |        /      C  C     C  CCC                 /
 |       /            C                         /

[...]

Density initialized from wave functions
   /       |                  C                   |
  /        |          C   CC    C                 |
 *         |         C   C      C                 |
 |         |       C          C                   |
 |         .----C-----C--C---C-C------------------.
 |        /      C  C     C  CCC                 /
 |       /            C                         /

[...]

Density initialized from wave functions
   /       |                  C                   |
  /        |          C  C C   C                  |
 *         |         C   C      C                 |
 |         |       C          C                   |
 |         .----C-----C--C---C-C------------------.
 |        /      C  C     C  CCC                 /
 |       /            C                         /

[...]

Density initialized from wave functions
   /       |                  C                   |
  /        |          C  C C   C                  |
 *         |          C  C      C                 |
 |         |        C         C                   |
 |         .----C-----C--C---C-C------------------.
 |        /      C  C     C  CCC                 /
 |       /            C                         /

[...]

Density initialized from wave functions
   /       |                  C                   |
  /        |          C  C C   C                  |
 *         |          C  C      C                 |
 |         |        C         C                   |
 |         .----C-----C--C---CCC------------------.
 |        /      C  C     C  C C                 /
 |       /            C                         /

[...]

Density initialized from wave functions
   /       |                  C                   |
  /        |          C  C C   C                  |
 *         |          C  C      C                 |
 |         |        C         C                   |
 |         .----C-----C---C--CCC------------------.
 |        /      C  C     C  C C                 /
 |       /            C                         /

[...]

Density initialized from wave functions
   /       |                  C                   |
  /        |          C  C C   C                  |
 *         |          C  C      C                 |
 |         |        C         C                   |
 |         .-----C----C---C--CCC------------------.
 |        /      C  C     C    C                 /
 |       /            C                         /

[...]

Density initialized from wave functions
   /       |                  C                   |
  /        |          C  C C   C                  |
 *         |          C  C      C                 |
 |         |                  C                   |
 |         .-----C--C-C---C--CCC------------------.
 |        /      C  C     C    C                 /
 |       /            C                         /

[...]

Density initialized from wave functions
   /       |                  C                   |
  /        |          C  C C   C                  |
 *         |          C  C      C                 |
 |         |                  C                   |
 |         .-----C--C-C---C--CCC------------------.
 |        /      C  C     C    C                 /
 |       /            C                         /

[...]

Density initialized from wave functions
   /       |                  C                   |
  /        |          C  C C   C                  |
 *         |          C  C      C                 |
 |         |                  C                   |
 |         .-----C--C-C---C--C-C------------------.
 |        /      C  C     C    C                 /
 |       /            C                         /

[...]

System changes: positions

Initializing position-dependent things.

Density initialized from wave functions
   /       |                  C                   |
  /        |          C  C C   C                  |
 *         |          C  C      C                 |
 |         |                  C                   |
 |         .-----C--C-C---C--C-C------------------.
 |        /      C  C     C    C                 /
 |       /            C                         /

Positions:
   0 C      7.525059    9.811336    5.837654
   1 C      6.224400    9.203543    5.697818
   2 C     10.627483    5.455231    5.916923
   3 C      9.795588    8.636564    6.919010
   4 C      6.016135    6.481171    5.300579
   5 C      7.933117    3.321990    5.147377
   6 C      7.951767    7.628908    5.684363
   7 C      9.876053    6.236180    4.810481
   8 C      8.441614    6.386795    5.162681
   9 C      6.474422    7.813669    5.579242
  10 C      6.886237    4.203016    4.988844
  11 C      9.188774    3.582428    5.431584
  12 C     10.524673    7.556521    7.017922
  13 C      8.550206    8.752605    6.307874
  14 C     11.094730    6.373765    6.860844
  15 C      7.241261    5.641464    5.079004
  16 C     10.319424    4.086785    5.861561
  17 C      9.883983    9.623055    3.373804
  18 C     10.217285    8.362265    3.507213
  19 C     10.348116    7.127630    3.916522
  20 C      8.097267   10.680945    4.898117
  21 C      9.072543   10.390660    4.093468
  22 C      5.429634    4.302604    5.003844
  23 C      4.975666    5.494121    5.237282

Unit cell:
           periodic     x           y           z      points  spacing
  1. axis:    yes   16.000000    0.000000    0.000000    80     0.2000
  2. axis:    yes    0.000000   16.000000    0.000000    80     0.2000
  3. axis:    yes    0.000000    0.000000   10.000000    48     0.2083

Effective grid spacing dv^(1/3) = 0.2027

                     log10-error:    total        iterations:
           time      wfs    density  energy       fermi  poisson
iter:   1  10:04:30          +inf  -180.493581    2      5
iter:   2  10:04:30         -3.10  -180.493676    2      1
iter:   3  10:04:31         -3.20  -180.493497    2      1
iter:   4  10:04:31         -3.35  -180.493086    2      1
iter:   5  10:04:32         -3.45  -180.492985    2      1
iter:   6  10:04:33         -3.73  -180.492632    2      1
iter:   7  10:04:33         -3.80  -180.492945    2      1
iter:   8  10:04:34         -4.09  -180.493266    2      1

Converged after 8 iterations.

Dipole moment: (0.279122, -0.012234, -0.152783) |e|*Ang

Energy contributions relative to reference atoms: (reference = -24663.074771)

Kinetic:       +108.653916
Potential:     -115.989729
External:        +0.000000
XC:            -176.082290
Entropy (-ST):   -0.190651
Local:           +3.020163
Free energy:   -180.588592
Extrapolated:  -180.493266

Fermi level: -4.54606

 Band  Eigenvalues  Occupancy
    0    -23.17469    2.00000
    1    -22.01123    2.00000
    2    -21.76169    2.00000
    3    -20.77472    2.00000
    4    -20.56555    2.00000
    5    -20.11235    2.00000
    6    -19.61768    2.00000
    7    -19.23802    2.00000
    8    -18.98892    2.00000
    9    -18.40727    2.00000
   10    -17.58438    2.00000
   11    -16.87193    2.00000
   12    -16.46498    2.00000
   13    -16.37025    2.00000
   14    -15.83510    2.00000
   15    -14.90430    2.00000
   16    -14.34146    2.00000
   17    -13.71814    2.00000
   18    -13.51149    2.00000
   19    -13.31846    2.00000
   20    -12.86375    2.00000
   21    -12.46833    2.00000
   22    -11.90471    2.00000
   23    -11.70375    2.00000
   24    -11.42834    2.00000
   25    -10.77251    2.00000
   26    -10.41425    2.00000
   27    -10.34966    2.00000
   28     -9.98408    2.00000
   29     -9.73662    2.00000
   30     -9.30098    2.00000
   31     -8.98808    2.00000
   32     -8.85575    2.00000
   33     -8.76172    2.00000
   34     -8.07524    2.00000
   35     -7.87898    2.00000
   36     -7.83480    2.00000
   37     -7.65557    2.00000
   38     -7.39941    2.00000
   39     -6.76332    2.00000
   40     -6.62565    2.00000
   41     -6.04015    2.00000
   42     -5.77824    1.99999
   43     -5.68327    1.99998
   44     -5.33347    1.99924
   45     -5.23054    1.99787
   46     -5.02824    1.98402
   47     -4.71245    1.68150
   48     -4.38635    0.33677
   49     -3.71029    0.00047
   50     -3.60273    0.00016
   51     -3.14303    0.00000
   52     -3.13199    0.00000
   53     -2.76649    0.00000
   54     -1.82937    0.00000
   55     -1.66293    0.00000
   56     -1.56074    0.00000
   57     -1.12169    0.00000
   58     -0.83758    0.00000
   59     -0.67680    0.00000
[...]
   83      8.72420    0.00000
   84      8.78317    0.00000
   85      8.86967    0.00000
   86      9.05670    0.00000
   87      9.10466    0.00000
   88      9.30665    0.00000
   89      9.31627    0.00000
   90      9.51315    0.00000
   91      9.54224    0.00000
   92      9.71726    0.00000
   93      9.77735    0.00000
   94      9.98224    0.00000
   95     10.10840    0.00000
   96     10.16370    0.00000
   97     10.29710    0.00000

Forces in eV/Ang:
  0 C     0.01201    0.02317   -0.03511
  1 C     0.00620   -0.04060    0.02968
  2 C    -0.01450    0.00813   -0.03801
  3 C     0.00522   -0.00982    0.02338
  4 C     0.02357   -0.01011   -0.01730
  5 C     0.00441    0.04462    0.07067
  6 C    -0.02550    0.02909    0.01564
  7 C     0.02322   -0.01633    0.02654
  8 C     0.00853    0.00294    0.02665
  9 C     0.00029    0.02400   -0.00186
 10 C    -0.06443    0.00264    0.00222
 11 C    -0.04604   -0.00086   -0.00590
 12 C     0.07370    0.00523   -0.04749
 13 C     0.01423   -0.02718    0.01873
 14 C    -0.01400   -0.01767    0.04061
 15 C     0.04172   -0.02476    0.00934
 16 C    -0.02738    0.02019   -0.02206
 17 C    -0.02261   -0.00947   -0.00023
 18 C    -0.00328    0.01683    0.03716
 19 C    -0.02075   -0.01525   -0.02017
 20 C     0.01050   -0.01580    0.04507
 21 C     0.02872   -0.03138   -0.00576
 22 C     0.02452   -0.01768   -0.00238
 23 C     0.02302    0.02252   -0.08366