User:   esb@s65n22.grendel.cscaa.dk
Date:   Thu Nov  9 11:02:48 2017
Arch:   x86_64
Pid:    68986
Python: 2.7.13
gpaw:   /home/esb/DFT/gpaw_git/gpaw
_gpaw:  /home/esb/DFT/gpaw_git/build/bin.linux-x86_64-2.7/gpaw-python
ase:    /home/esb/DFT/ase_git/ase (version 3.15.0b1)
numpy:  /comm/swstack/core/python/2.7.13/lib/python2.7/site-packages/numpy (version 1.13.3)
scipy:  /comm/swstack/core/python/2.7.13/lib/python2.7/site-packages/scipy (version 0.19.1)
units:  Angstrom and eV
cores:  16
Extra parameters: {'blacs': True}

Input parameters:
  basis: dzp
  gpts: [80 80 48]
  kpts: [1 1 1]
  maxiter: 99
  mixer: {backend: pulay,
          beta: 0.05,
          method: separate,
          nmaxold: 5,
          weight: 75}
  mode: lcao
  nbands: -50
  occupations: {name: fermi-dirac,
                width: 0.1}
  poissonsolver: {eps: 1e-07,
                  name: fd,
                  nn: 3,
                  relax: GS}
  xc: PBE

System changes: positions, numbers, cell, pbc, initial_charges, initial_magmoms

Initialize ...

C-setup:
  name: Carbon
  id: 4aa54d4b901d75f77cc0ea3eec22967b
  Z: 6
  valence: 4
  core: 2
  charge: 0.0
  file: /home/esb/DFT/gpaw-setups-0.8.7929/C.PBE.gz
  cutoffs: 0.64(comp), 1.14(filt), 1.14(core), lmax=2
  valence states:
                energy  radius
    2s(2.00)   -13.751   0.635
    2p(2.00)    -5.284   0.635
    *s          13.461   0.635
    *p          21.927   0.635
    *d           0.000   0.635

  LCAO basis set for C:
    Name: dzp
    File: /home/esb/DFT/gpaw-setups-0.8.7929/C.dzp.basis.gz
    Number of radial functions: 5
    Number of spherical harmonics: 13
      l=0, rc=5.5469 Bohr: 2s-sz confined orbital
      l=1, rc=6.6719 Bohr: 2p-sz confined orbital
      l=0, rc=3.0312 Bohr: 2s-dz split-valence wave
      l=1, rc=3.7500 Bohr: 2p-dz split-valence wave
      l=2, rc=6.6719 Bohr: d-type Gaussian polarization

Reference energy: -24663.074771

Spin-paired calculation

Occupation numbers:
  Fermi-Dirac: width=0.1000 eV

Convergence criteria:
  Maximum total energy change: 0.0005 eV / electron
  Maximum integral of absolute density change: 0.0001 electrons
  Maximum integral of absolute eigenstate change: 4e-08 eV^2
  Maximum number of iterations: 99

Symmetries present (total): 1

  ( 1  0  0)
  ( 0  1  0)
  ( 0  0  1)

1 k-point (Gamma)
1 k-point in the irreducible part of the Brillouin zone
       k-points in crystal coordinates                weights
   0:     0.00000000    0.00000000    0.00000000          1/1

Wave functions: LCAO
  Diagonalizer: Serial LAPACK
  Atomic Correction: dense with blas
  Datatype: float
  Eigensolver: None

LCAO using direct dense diagonalizer

Densities:
  Coarse grid: 80*80*48 grid
  Fine grid: 160*160*96 grid
  Total Charge: 0.000000

Density mixing:
  Method: separate
  Backend: pulay
  Linear mixing parameter: 0.05
  Mixing with 5 old densities
  Damping of long wave oscillations: 75

Hamiltonian:
  XC and Coulomb potentials evaluated on a 160*160*96 grid
  Using the PBE Exchange-Correlation functional
  Interpolation: tri-quintic (5. degree polynomial)
  Poisson solver: Gauss-Seidel solver with 6 multi-grid levels
    Coarsest grid: 5 x 5 x 3 points
    Stencil: 6*3+1=19 point O(h^6) finite-difference Laplacian
    Max iterations: 1000
    Tolerance: 1.000000e-07

Total number of cores used: 16
Domain decomposition: 2 x 4 x 2

Number of atoms: 24
Number of atomic orbitals: 312
Number of bands in calculation: 98
Bands to converge: occupied states only
Number of valence electrons: 96

... initialized

Initializing position-dependent things.

Density initialized from atomic densities
  /        |   C  C  C  C C                       |
 *         | C             C   C C                |
 |         | C       C  C                         |
 |         .----C--C--C--C----C--C----------------.
 |        /    C C   C  C  C                     /

Positions:
   0 C     10.617882    5.436876    5.189754
   1 C     11.276769    6.520440    5.168737
   2 C     11.174908    8.026584    5.428203
   3 C     10.003193    8.689628    5.189560
   4 C      7.855764   10.019034    5.269534
   5 C      6.821572   10.734129    5.310669
   6 C      7.453517    7.042258    5.903558
   7 C      8.597020    8.821074    5.232599
   8 C      5.532242   11.117621    5.380054
   9 C      4.300057   10.829750    5.467888
  10 C      3.281061    9.959600    5.555818
  11 C      9.279801    5.030768    5.236228
  12 C      5.886402    3.442330    5.431109
  13 C      2.910930    7.456615    5.627819
  14 C      5.845276    6.194392    5.393467
  15 C      8.579609    3.772877    5.288190
  16 C      4.865269    5.620879    5.080466
  17 C      8.254515    6.127211    5.252488
  18 C      6.421131    7.481066    5.340602
  19 C      7.207756    3.893018    5.346201
  20 C      2.779866    8.794726    5.616736
  21 C      4.796500    4.094312    5.493270
  22 C      3.406534    6.298784    5.599783
  23 C      7.141815    5.621816    5.768010

Unit cell:
           periodic     x           y           z      points  spacing
  1. axis:    yes   16.000000    0.000000    0.000000    80     0.2000
  2. axis:    yes    0.000000   16.000000    0.000000    80     0.2000
  3. axis:    yes    0.000000    0.000000   10.000000    48     0.2083

Effective grid spacing dv^(1/3) = 0.2027

                     log10-error:    total        iterations:
           time      wfs    density  energy       fermi  poisson
iter:   1  11:02:50          +inf  -173.588551    2      6
iter:   2  11:02:50         -0.92  -172.759205    3      3
iter:   3  11:02:51         -0.95  -170.058064    33     4
iter:   4  11:02:51         -1.17  -169.335458    34     3
iter:   5  11:02:52         -1.43  -169.437156    4      3
iter:   6  11:02:53         -1.54  -169.345977    2      3
iter:   7  11:02:53         -1.67  -169.320082    3      3
iter:   8  11:02:54         -1.89  -169.297063    3      2
iter:   9  11:02:54         -2.02  -169.273756    3      3
iter:  10  11:02:55         -2.27  -169.265615    3      2
iter:  11  11:02:56         -2.39  -169.266307    3      2
iter:  12  11:02:56         -2.56  -169.264599    3      2
iter:  13  11:02:57         -2.68  -169.263547    3      2
iter:  14  11:02:57         -2.88  -169.262277    3      2
iter:  15  11:02:58         -3.20  -169.258084    2      1
iter:  16  11:02:58         -3.31  -169.255728    2      1
iter:  17  11:02:59         -3.43  -169.257033    2      1
iter:  18  11:02:59         -3.64  -169.256288    2      1
iter:  19  11:03:00         -3.86  -169.258351    2      1
iter:  20  11:03:01         -4.00  -169.257931    2      1
iter:  21  11:03:01         -4.11  -169.258367    2      1

Converged after 21 iterations.

Dipole moment: (-0.207885, 0.262852, 0.003081) |e|*Ang

Energy contributions relative to reference atoms: (reference = -24663.074771)

Kinetic:       +134.153513
Potential:     -131.687235
External:        +0.000000
XC:            -174.648724
Entropy (-ST):   -0.225560
Local:           +3.036860
Free energy:   -169.371147
Extrapolated:  -169.258367

Fermi level: -4.58698

 Band  Eigenvalues  Occupancy
    0    -26.08799    2.00000
    1    -21.70309    2.00000
    2    -21.31736    2.00000
    3    -20.60669    2.00000
    4    -20.08363    2.00000
    5    -19.90497    2.00000
    6    -19.35340    2.00000
    7    -19.05051    2.00000
    8    -18.66198    2.00000
    9    -18.36547    2.00000
   10    -17.97604    2.00000
   11    -17.32812    2.00000
   12    -16.48745    2.00000
   13    -16.00933    2.00000
   14    -15.26218    2.00000
   15    -14.79464    2.00000
   16    -14.46883    2.00000
   17    -13.71002    2.00000
   18    -13.51716    2.00000
   19    -12.96414    2.00000
   20    -12.81404    2.00000
   21    -12.24924    2.00000
   22    -11.85519    2.00000
   23    -11.69293    2.00000
   24    -11.37370    2.00000
   25    -10.46590    2.00000
   26     -9.69174    2.00000
   27     -9.37887    2.00000
   28     -9.27647    2.00000
   29     -9.19249    2.00000
   30     -8.82987    2.00000
   31     -8.64915    2.00000
   32     -8.38919    2.00000
   33     -8.29140    2.00000
   34     -8.16276    2.00000
   35     -7.67130    2.00000
   36     -7.46881    2.00000
   37     -7.24964    2.00000
   38     -7.01171    2.00000
   39     -6.70958    2.00000
   40     -6.06097    2.00000
   41     -5.99877    2.00000
   42     -5.82215    1.99999
   43     -5.65893    1.99996
   44     -5.50441    1.99979
   45     -5.15150    1.99296
   46     -5.01013    1.97136
   47     -4.72593    1.60102
   48     -4.45855    0.43364
   49     -3.85161    0.00128
   50     -3.35289    0.00001
   51     -3.22817    0.00000
   52     -2.83689    0.00000
   53     -2.43749    0.00000
   54     -2.18564    0.00000
   55     -2.03009    0.00000
   56     -1.57562    0.00000
   57     -1.33570    0.00000
   58     -0.94732    0.00000
   59     -0.58848    0.00000
[...]
   83      8.75993    0.00000
   84      8.84712    0.00000
   85      8.94374    0.00000
   86      9.08917    0.00000
   87      9.25664    0.00000
   88      9.47125    0.00000
   89      9.52460    0.00000
   90      9.64531    0.00000
   91      9.65280    0.00000
   92      9.77758    0.00000
   93     10.09853    0.00000
   94     10.20344    0.00000
   95     10.27353    0.00000
   96     10.43003    0.00000
   97     10.44964    0.00000

Forces in eV/Ang:
  0 C     0.50864    0.43857    0.29200
  1 C    -1.17922    4.49069    0.75153
  2 C    -1.94764   -2.72330   -1.62015
  3 C    -0.18896   -2.40073    0.96192
  4 C     1.66529   -2.59109   -0.18019
  5 C    -1.61874    0.88162    0.23944
  6 C    10.11629    7.53499    3.72447
  7 C     3.15788    3.63533    0.14073
  8 C     0.87000   -0.31486   -0.18599
  9 C    -0.65977   -0.15092    0.15623
 10 C     0.19572    0.26944   -0.10853
 11 C    -0.25467    0.16904   -0.16825
 12 C     1.48992    0.36330   -0.49700
 13 C    -0.04838    0.48853   -0.33009
 14 C    10.52103    5.87125    2.95155
 15 C    -0.82023    0.37645   -0.14601
 16 C   -19.33308   -9.96154    0.60572
 17 C     6.17000   -2.04470   -0.92790
 18 C    -6.93668    4.45953   -2.14841
 19 C     0.65462   -0.67675    1.66106
 20 C    -0.03657    0.07838    0.32187
 21 C     0.50810    2.20456   -1.73757
 22 C     2.89073   -1.11565   -2.02497
 23 C    -5.78969   -9.22191   -1.71800

System changes: positions

[...]

Density initialized from wave functions
  /        |   C  C  C  C C                       |
 *         | C          C  C   C C                |
 |         | C       C                            |
 |         .----C--C--C--C----C--C----------------.
 |        /    C  C  C  C  C                     /

[...]

Density initialized from wave functions
  /        |   C  C  C  C C                       |
 *         | C          C   C  C C                |
 |         | C       C                            |
 |         .----C--C--C--C----C--C----------------.
 |        /    C  C  C  C  C                     /

[...]

Density initialized from wave functions
  /        |   C  C  C  C C                       |
 *         | C          C   C  C                  |
 |         | C       C           C                |
 |         .----C--C--C--C----C--C----------------.
 |        /    C  C  C  C  C                     /

[...]

Density initialized from wave functions
  /        |   C  C  C  C C                       |
 *         | C          C   C  C                  |
 |         | C       C           C                |
 |         .----C--C--C--C----C--C----------------.
 |        /    C  C  C  C  C                     /

[...]

Density initialized from wave functions
  /        |   C  C  C  C C                       |
 *         | C          C   C  C                  |
 |         | C       C           C                |
 |         .----C--C--C--C----C-C-----------------.
 |        /    C  C  C  C  C                     /

[...]

Density initialized from wave functions
  /        |   C  C  C  C C                       |
 *         | C           C C   C                  |
 |         | C       C           C                |
 |         .----C--C--C--C----C-C-----------------.
 |        /    C  C  C  C  C                     /

[...]

Density initialized from wave functions
  /        |   C  C  C  C C                       |
 *         | C             C   C                  |
 |         | C       C   C       C                |
 |         .----C--C--C--C----C-C-----------------.
 |        /    C  C  C  C  C                     /

[...]

Density initialized from wave functions
  /        |   C  C  C  C C                       |
 *         | C             C   C                  |
 |         | C       C   C       C                |
 |         .----C--C--C--C----C-C-----------------.
 |        /    C  C  C  C  C                     /

[...]

Density initialized from wave functions
  /        |   C  C  C  C C                       |
 *         | C             C   C                  |
 |         | C       C   C       C                |
 |         .---C---C--C--C-C--C-C-----------------.
 |        /    C  C  C  C                        /

[...]

Density initialized from wave functions
  /        |   C  C  C  C C                       |
 *         | C              C  C                  |
 |         | C       C   C       C                |
 |         .---C---C--C--C-C--C-C-----------------.
 |        /    C  C  C  C                        /

[...]

Density initialized from wave functions
  /        |   C  C  C  C C                       |
 *         | C              C  C                  |
 |         | C       C   C       C                |
 |         .----C--C--C--C-C--C-C-----------------.
 |        /    C  C  C  C                        /

[...]

Density initialized from wave functions
  /        |   C  C  C  C C                       |
 *         | C              C  C                  |
 |         | C       C   C       C                |
 |         .----C--C--C--C-C--C-C-----------------.
 |        /    C  C  C  C                        /

[...]

Density initialized from wave functions
  /        |   C  C  C  C C                       |
 *         | C              C  C                  |
 |         | C       C   C       C                |
 |         .----C--C--C--C-C--C--C----------------.
 |        /    C  C  C  C                        /

[...]

System changes: positions

Initializing position-dependent things.

Density initialized from wave functions
  /        |   C  C  C  C C                       |
 *         | C             C   C                  |
 |         | C       C   C       C                |
 |         .----C--C--C--C-C--C--C----------------.
 |        /    C  C  C  C                        /

Positions:
   0 C     10.641099    5.433297    5.241234
   1 C     11.274572    6.531065    5.216185
   2 C     10.942991    7.839583    5.248035
   3 C     10.011984    8.693001    5.304452
   4 C      7.855807   10.016884    5.337700
   5 C      6.803372   10.708965    5.334406
   6 C      7.865463    7.562782    5.435162
   7 C      8.606879    8.823584    5.365433
   8 C      5.517876   11.102698    5.387330
   9 C      4.284177   10.823492    5.470912
  10 C      3.262948    9.960558    5.566538
  11 C      9.302163    5.030452    5.315621
  12 C      5.905713    3.447070    5.349210
  13 C      2.915338    7.453056    5.556421
  14 C      5.865790    6.185543    5.499104
  15 C      8.602607    3.770847    5.332688
  16 C      4.578753    5.495668    5.464755
  17 C      8.281950    6.122452    5.424898
  18 C      6.443170    7.472128    5.448629
  19 C      7.230286    3.894457    5.359312
  20 C      2.774308    8.789749    5.576094
  21 C      4.808507    4.090344    5.381764
  22 C      3.423220    6.301586    5.502088
  23 C      7.081512    5.420283    5.464707

Unit cell:
           periodic     x           y           z      points  spacing
  1. axis:    yes   16.000000    0.000000    0.000000    80     0.2000
  2. axis:    yes    0.000000   16.000000    0.000000    80     0.2000
  3. axis:    yes    0.000000    0.000000   10.000000    48     0.2083

Effective grid spacing dv^(1/3) = 0.2027

                     log10-error:    total        iterations:
           time      wfs    density  energy       fermi  poisson
iter:   1  11:07:53          +inf  -182.557334    3      4
iter:   2  11:07:53         -2.71  -182.554997    2      1
iter:   3  11:07:54         -3.02  -182.554528    2      1
iter:   4  11:07:55         -3.21  -182.554380    2      1
iter:   5  11:07:55         -3.33  -182.555032    2      1
iter:   6  11:07:56         -2.99  -182.554445    2      1
iter:   7  11:07:56         -3.66  -182.555333    2      1
iter:   8  11:07:57         -3.05  -182.554312    2      1
iter:   9  11:07:57         -4.06  -182.554435    2      1

Converged after 9 iterations.

Dipole moment: (0.145477, 0.287112, -0.007643) |e|*Ang

Energy contributions relative to reference atoms: (reference = -24663.074771)

Kinetic:       +107.575106
Potential:     -116.884597
External:        +0.000000
XC:            -176.263027
Entropy (-ST):   -0.073370
Local:           +3.054769
Free energy:   -182.591120
Extrapolated:  -182.554435

Fermi level: -4.23892

 Band  Eigenvalues  Occupancy
    0    -22.56571    2.00000
    1    -21.14141    2.00000
    2    -20.91949    2.00000
    3    -20.48415    2.00000
    4    -20.33618    2.00000
    5    -20.02042    2.00000
    6    -19.48255    2.00000
    7    -19.15815    2.00000
    8    -18.32972    2.00000
    9    -18.11577    2.00000
   10    -17.46409    2.00000
   11    -16.97359    2.00000
   12    -16.31255    2.00000
   13    -16.02172    2.00000
   14    -15.69960    2.00000
   15    -15.13205    2.00000
   16    -14.12830    2.00000
   17    -14.01439    2.00000
   18    -13.65289    2.00000
   19    -13.12084    2.00000
   20    -12.75113    2.00000
   21    -12.34070    2.00000
   22    -11.86863    2.00000
   23    -11.64748    2.00000
   24    -11.07999    2.00000
   25    -10.56054    2.00000
   26    -10.16148    2.00000
   27     -9.35469    2.00000
   28     -9.28957    2.00000
   29     -9.20655    2.00000
   30     -9.15206    2.00000
   31     -9.02548    2.00000
   32     -8.67283    2.00000
   33     -8.44180    2.00000
   34     -8.30842    2.00000
   35     -8.05260    2.00000
   36     -7.92741    2.00000
   37     -7.30991    2.00000
   38     -7.09538    2.00000
   39     -6.70549    2.00000
   40     -6.18632    2.00000
   41     -5.90265    2.00000
   42     -5.73877    2.00000
   43     -5.50669    1.99999
   44     -5.23323    1.99990
   45     -5.04763    1.99939
   46     -4.89591    1.99720
   47     -4.55739    1.92050
   48     -3.91481    0.07529
   49     -3.68356    0.00772
   50     -2.94712    0.00000
   51     -2.87453    0.00000
   52     -2.76719    0.00000
   53     -2.40344    0.00000
   54     -1.85508    0.00000
   55     -1.73841    0.00000
   56     -0.98882    0.00000
   57     -0.88230    0.00000
   58     -0.15973    0.00000
   59      0.13921    0.00000
[...]
   83      9.17687    0.00000
   84      9.22615    0.00000
   85      9.35468    0.00000
   86      9.37864    0.00000
   87      9.49919    0.00000
   88      9.64086    0.00000
   89      9.78290    0.00000
   90      9.85651    0.00000
   91      9.86415    0.00000
   92      9.99519    0.00000
   93     10.22409    0.00000
   94     10.32699    0.00000
   95     10.40645    0.00000
   96     10.54353    0.00000
   97     10.56129    0.00000

Forces in eV/Ang:
  0 C     0.04819   -0.02763    0.01498
  1 C     0.03735    0.03232    0.00204
  2 C    -0.03978    0.02001   -0.00076
  3 C     0.07333   -0.01986   -0.02589
  4 C    -0.04941   -0.01033    0.02263
  5 C     0.05442   -0.05377    0.04333
  6 C    -0.01796    0.05448   -0.06009
  7 C    -0.02381   -0.03954   -0.03905
  8 C     0.01500    0.03075    0.02108
  9 C    -0.01251    0.03110   -0.00957
 10 C    -0.05106    0.00392   -0.06659
 11 C     0.01317   -0.01087    0.00691
 12 C    -0.04334   -0.01013    0.03872
 13 C     0.00061   -0.01719    0.01565
 14 C     0.04822    0.00974   -0.01399
 15 C     0.04667   -0.05749   -0.02793
 16 C     0.00626   -0.01927    0.02505
 17 C    -0.03792    0.05704    0.02239
 18 C     0.06129   -0.05244    0.00672
 19 C     0.00448    0.01089   -0.00412
 20 C    -0.05364   -0.01233   -0.01163
 21 C     0.01148   -0.00304    0.01653
 22 C    -0.00345    0.00545   -0.00030
 23 C    -0.00196   -0.02814   -0.03346