User:   esb@s66n61.grendel.cscaa.dk
Date:   Wed Nov  8 14:13:01 2017
Arch:   x86_64
Pid:    22333
Python: 2.7.13
gpaw:   /home/esb/DFT/gpaw_git/gpaw
_gpaw:  /home/esb/DFT/gpaw_git/build/bin.linux-x86_64-2.7/gpaw-python
ase:    /home/esb/DFT/ase_git/ase (version 3.15.0b1)
numpy:  /comm/swstack/core/python/2.7.13/lib/python2.7/site-packages/numpy (version 1.13.3)
scipy:  /comm/swstack/core/python/2.7.13/lib/python2.7/site-packages/scipy (version 0.19.1)
units:  Angstrom and eV
cores:  16
Extra parameters: {'blacs': True}

Input parameters:
  basis: dzp
  gpts: [80 80 48]
  kpts: [1 1 1]
  maxiter: 99
  mixer: {backend: pulay,
          beta: 0.05,
          method: separate,
          nmaxold: 5,
          weight: 75}
  mode: lcao
  nbands: -50
  occupations: {name: fermi-dirac,
                width: 0.1}
  poissonsolver: {eps: 1e-07,
                  name: fd,
                  nn: 3,
                  relax: GS}
  xc: PBE

System changes: positions, numbers, cell, pbc, initial_charges, initial_magmoms

Initialize ...

C-setup:
  name: Carbon
  id: 4aa54d4b901d75f77cc0ea3eec22967b
  Z: 6
  valence: 4
  core: 2
  charge: 0.0
  file: /home/esb/DFT/gpaw-setups-0.8.7929/C.PBE.gz
  cutoffs: 0.64(comp), 1.14(filt), 1.14(core), lmax=2
  valence states:
                energy  radius
    2s(2.00)   -13.751   0.635
    2p(2.00)    -5.284   0.635
    *s          13.461   0.635
    *p          21.927   0.635
    *d           0.000   0.635

  LCAO basis set for C:
    Name: dzp
    File: /home/esb/DFT/gpaw-setups-0.8.7929/C.dzp.basis.gz
    Number of radial functions: 5
    Number of spherical harmonics: 13
      l=0, rc=5.5469 Bohr: 2s-sz confined orbital
      l=1, rc=6.6719 Bohr: 2p-sz confined orbital
      l=0, rc=3.0312 Bohr: 2s-dz split-valence wave
      l=1, rc=3.7500 Bohr: 2p-dz split-valence wave
      l=2, rc=6.6719 Bohr: d-type Gaussian polarization

Reference energy: -24663.074771

Spin-paired calculation

Occupation numbers:
  Fermi-Dirac: width=0.1000 eV

Convergence criteria:
  Maximum total energy change: 0.0005 eV / electron
  Maximum integral of absolute density change: 0.0001 electrons
  Maximum integral of absolute eigenstate change: 4e-08 eV^2
  Maximum number of iterations: 99

Symmetries present (total): 1

  ( 1  0  0)
  ( 0  1  0)
  ( 0  0  1)

1 k-point (Gamma)
1 k-point in the irreducible part of the Brillouin zone
       k-points in crystal coordinates                weights
   0:     0.00000000    0.00000000    0.00000000          1/1

Wave functions: LCAO
  Diagonalizer: Serial LAPACK
  Atomic Correction: dense with blas
  Datatype: float
  Eigensolver: None

LCAO using direct dense diagonalizer

Densities:
  Coarse grid: 80*80*48 grid
  Fine grid: 160*160*96 grid
  Total Charge: 0.000000

Density mixing:
  Method: separate
  Backend: pulay
  Linear mixing parameter: 0.05
  Mixing with 5 old densities
  Damping of long wave oscillations: 75

Hamiltonian:
  XC and Coulomb potentials evaluated on a 160*160*96 grid
  Using the PBE Exchange-Correlation functional
  Interpolation: tri-quintic (5. degree polynomial)
  Poisson solver: Gauss-Seidel solver with 6 multi-grid levels
    Coarsest grid: 5 x 5 x 3 points
    Stencil: 6*3+1=19 point O(h^6) finite-difference Laplacian
    Max iterations: 1000
    Tolerance: 1.000000e-07

Total number of cores used: 16
Domain decomposition: 2 x 4 x 2

Number of atoms: 24
Number of atomic orbitals: 312
Number of bands in calculation: 98
Bands to converge: occupied states only
Number of valence electrons: 96

... initialized

Initializing position-dependent things.

Density initialized from atomic densities
   /       |              C                       |
  /        |           C  C                       |
 *         |    C     CCC     C                   |
 |         |  C                   C               |
 |         .---CC--C-C----CC--C-------------------.
 |        /  C  C        C  C                    /
 |       /         C   C                        /

Positions:
   0 C     10.182539    7.110085    4.821609
   1 C      6.238469    7.315300    4.314500
   2 C      9.424331   10.016010    4.878841
   3 C      5.176807    4.411721    5.635975
   4 C      4.434961    6.484124    4.335322
   5 C      4.027635    8.175134    5.746902
   6 C     11.565796    7.210240    5.723459
   7 C      4.210451    5.459490    5.208863
   8 C      7.576893   11.135390    4.638768
   9 C      9.827750    4.723603    4.937192
  10 C      6.037847   10.924038    4.271957
  11 C      8.603143    4.814054    4.985565
  12 C      8.956416    6.057038    5.366915
  13 C      7.293355    8.133921    5.533365
  14 C      8.336785    7.709284    4.442782
  15 C      8.260599    3.158907    4.698905
  16 C      7.705589    9.511446    5.645111
  17 C      6.090004   10.796750    5.571606
  18 C      7.509375   11.372425    5.689192
  19 C      3.354776    6.537387    4.339931
  20 C      3.365797    7.473962    5.061102
  21 C      5.739644    6.613844    5.302963
  22 C      6.271484    9.181283    5.520619
  23 C      6.349180    3.301790    5.163156

Unit cell:
           periodic     x           y           z      points  spacing
  1. axis:    yes   16.000000    0.000000    0.000000    80     0.2000
  2. axis:    yes    0.000000   16.000000    0.000000    80     0.2000
  3. axis:    yes    0.000000    0.000000   10.000000    48     0.2083

Effective grid spacing dv^(1/3) = 0.2027

                     log10-error:    total        iterations:
           time      wfs    density  energy       fermi  poisson
iter:   1  14:13:03          +inf  -130.899115    3      6
iter:   2  14:13:04         -0.89  -128.454125    3      3
iter:   3  14:13:05         -0.93  -125.414222    35     3
iter:   4  14:13:05         -1.03  -124.836951    3      2
iter:   5  14:13:06         -1.09  -124.162139    3      3
iter:   6  14:13:06         -1.22  -123.873893    4      3
iter:   7  14:13:07         -1.36  -123.539984    2      3
iter:   8  14:13:07         -1.59  -123.461844    2      3
iter:   9  14:13:08         -1.73  -123.430785    3      3
iter:  10  14:13:09         -1.88  -123.405152    3      2
iter:  11  14:13:09         -2.02  -123.397326    3      2
iter:  12  14:13:10         -2.17  -123.391431    2      2
iter:  13  14:13:10         -2.39  -123.386616    2      2
iter:  14  14:13:11         -2.59  -123.385240    2      2
iter:  15  14:13:11         -2.82  -123.388108    2      1
iter:  16  14:13:12         -2.88  -123.389671    2      1
iter:  17  14:13:12         -3.01  -123.386090    2      1
iter:  18  14:13:13         -3.16  -123.378740    2      1
iter:  19  14:13:13         -3.35  -123.377968    2      1
iter:  20  14:13:14         -3.51  -123.378806    2      1
iter:  21  14:13:14         -3.65  -123.381936    2      1
iter:  22  14:13:15         -3.78  -123.383183    2      1
iter:  23  14:13:15         -3.85  -123.383154    2      1
iter:  24  14:13:16         -4.00  -123.382689    2      1
iter:  25  14:13:16         -4.13  -123.382581    2      1

Converged after 25 iterations.

Dipole moment: (-0.484989, -0.011711, 0.057148) |e|*Ang

Energy contributions relative to reference atoms: (reference = -24663.074771)

Kinetic:       +184.781403
Potential:     -155.660236
External:        +0.000000
XC:            -155.035469
Entropy (-ST):   -0.335169
Local:           +2.699307
Free energy:   -123.550165
Extrapolated:  -123.382581

Fermi level: -4.81184

 Band  Eigenvalues  Occupancy
    0    -28.06763    2.00000
    1    -26.08207    2.00000
    2    -23.94389    2.00000
    3    -23.69471    2.00000
    4    -21.50856    2.00000
    5    -20.35741    2.00000
    6    -19.21505    2.00000
    7    -18.64980    2.00000
    8    -18.20653    2.00000
    9    -17.25208    2.00000
   10    -16.63696    2.00000
   11    -16.10816    2.00000
   12    -15.68744    2.00000
   13    -15.16096    2.00000
   14    -14.76299    2.00000
   15    -14.52496    2.00000
   16    -14.09605    2.00000
   17    -13.40817    2.00000
   18    -12.86329    2.00000
   19    -12.74914    2.00000
   20    -12.53293    2.00000
   21    -11.89959    2.00000
   22    -11.10992    2.00000
   23    -10.86015    2.00000
   24    -10.58416    2.00000
   25    -10.19719    2.00000
   26     -9.85458    2.00000
   27     -9.54061    2.00000
   28     -9.38126    2.00000
   29     -8.92093    2.00000
   30     -8.63957    2.00000
   31     -8.39244    2.00000
   32     -7.93650    2.00000
   33     -7.74181    2.00000
   34     -7.38365    2.00000
   35     -7.19007    2.00000
   36     -7.06114    2.00000
   37     -6.88906    2.00000
   38     -6.64266    2.00000
   39     -6.55633    2.00000
   40     -6.13338    2.00000
   41     -6.00612    1.99999
   42     -5.92424    1.99997
   43     -5.65730    1.99957
   44     -5.49032    1.99774
   45     -5.44306    1.99638
   46     -5.12855    1.91916
   47     -4.88133    1.33409
   48     -4.74117    0.66064
   49     -4.49328    0.07942
   50     -4.27627    0.00940
   51     -4.13370    0.00227
   52     -4.08074    0.00134
   53     -3.74992    0.00005
   54     -3.41789    0.00000
   55     -3.19438    0.00000
   56     -2.96118    0.00000
   57     -2.82035    0.00000
   58     -2.78677    0.00000
   59     -2.47445    0.00000
[...]
   83      6.44608    0.00000
   84      6.60335    0.00000
   85      7.20822    0.00000
   86      7.43641    0.00000
   87      7.51150    0.00000
   88      7.55388    0.00000
   89      7.70691    0.00000
   90      8.03537    0.00000
   91      8.12317    0.00000
   92      8.64520    0.00000
   93      8.69098    0.00000
   94      8.88044    0.00000
   95      8.97749    0.00000
   96      9.15562    0.00000
   97      9.18694    0.00000

Forces in eV/Ang:
  0 C     1.60312   -1.77565    5.26466
  1 C     1.78775    0.01354   -2.83860
  2 C    -4.44789   -0.83247    0.96892
  3 C     2.59717   -1.91852   -3.70274
  4 C    35.33974   -1.97856   -3.63146
  5 C     5.46708    7.53479    6.65040
  6 C    -5.37192    0.00111   -3.45614
  7 C     2.68012   -7.82372    3.19374
  8 C     3.12603   -6.11275  -31.76847
  9 C    11.52711   -0.48695   -0.55824
 10 C    -1.08607    0.92438   -6.08036
 11 C   -11.23549   -5.72923   -0.59650
 12 C     2.92962    6.61091   -2.00981
 13 C     0.88699    0.69174   -0.53988
 14 C     0.14932   -1.90103    0.96235
 15 C    -4.14683    3.28576    1.54499
 16 C     6.84211    0.00596    1.55309
 17 C    -1.99777   -2.96110    4.32307
 18 C    -0.68887    8.02434   31.41070
 19 C   -32.58320  -12.52272   -9.00724
 20 C    -7.30640   11.13970    5.15552
 21 C    -2.82588   -1.49293    0.00248
 22 C    -1.28510    3.50055    1.96329
 23 C    -1.97037    3.75506    1.16743

System changes: positions

[...]

Density initialized from wave functions
   /       |              C                       |
  /        |           C  C                       |
 *         |    C     CCC C   C                   |
 |         |  C                   C               |
 |         .---CC--C-C----CC--C-------------------.
 |        /  C  C        C  C                    /
 |       /         C   C                        /

[...]

Density initialized from wave functions
[...]
   /       |               C    C                 |
  /        |              C  C                    |
 *         |        C  C    C                     |
 |         |     C      C     C                   |
 |         .-C-C-C-----C----C---------------------.
 |        /    C  CC C  CC                       /
 |       /       C                              /

[...]

Density initialized from wave functions
    /      |                  C                   |
   /       |               C    C                 |
  /        |              C  C                    |
 *         |        C  C    C                     |
 |         |     C       C    C                   |
 |         .-C-C-C-----C----C---------------------.
 |        /    C  CC C  CC                       /
 |       /       C                              /

[...]

Density initialized from wave functions
    /      |                  C                   |
   /       |               C    C                 |
  /        |              C  C                    |
 *         |        C  C    C                     |
 |         |     C       C    C                   |
 |         .--CC-C-----C----C---------------------.
 |        /    C  CC C  CC                       /
 |       /       C                              /

[...]

Density initialized from wave functions
    /      |                  C                   |
   /       |               C    C                 |
  /        |              C  C                    |
 *         |        C  C    C                     |
 |         |     C       C    C                   |
 |         .--CC-C-----C----C---------------------.
 |        /    C  CC C  CC                       /
 |       /       C                              /

[...]

Density initialized from wave functions
    /      |                  C                   |
   /       |               C    C                 |
  /        |              C  C                    |
 *         |        C  C    C                     |
 |         |     C       C    C                   |
 |         .--CC-C-----C----CC--------------------.
 |        /    C  CC C  CC                       /
 |       /       C                              /

[...]

Density initialized from wave functions
    /      |                  C                   |
   /       |               C    C                 |
  /        |              C  C                    |
 *         |     C  C  C    C                     |
 |         |             C    C                   |
 |         .--CC-C-----C----CC--------------------.
 |        /    C  CC C  CC                       /
 |       /       C                              /

[...]

Density initialized from wave functions
    /      |                  C                   |
   /       |                C   C                 |
  /        |              C  C                    |
 *         |     C  C  C    C                     |
 |         |             C    C                   |
 |         .-C-C-C-----C----CC--------------------.
 |        /    C  CC C  CC                       /
 |       /       C                              /

[...]

Density initialized from wave functions
    /      |                  C                   |
   /       |                C   C                 |
  /        |              C  C                    |
 *         |     C  C  C    C                     |
 |         |             C    C                   |
 |         .-C-C-C-----C-C--CC--------------------.
 |        /    C  CC C  C                        /
 |       /       C                              /

[...]

Density initialized from wave functions
    /      |                  C                   |
   /       |                C   C                 |
  /        |              C  C                    |
 *         |     C  C  C    C                     |
 |         |     C       C    C                   |
 |         .-C-C---C---C-C--CC--------------------.
 |        /    C  C  C  C                        /
 |       /       C                              /

[...]

Density initialized from wave functions
    /      |                  C                   |
   /       |                C   C                 |
  /        |              C  C                    |
 *         |     C  C  C    C                     |
 |         |     C       C    C                   |
 |         .-C-C-------C-C--CC--------------------.
 |        /    C  CC C  C                        /
 |       /       C                              /

[...]

Density initialized from wave functions
    /      |                  C                   |
   /       |                C   C                 |
  /        |              C  C                    |
 *         |     C  C  C    C                     |
 |         |             C    C                   |
 |         .-C-C-C-----C-C--CC--------------------.
 |        /    C  CC C  C                        /
 |       /       C                              /

[...]

Density initialized from wave functions
    /      |                   C                  |
   /       |                C   C                 |
  /        |              C  C                    |
 *         |     C  C  C    C                     |
 |         |     C       C    C                   |
 |         .-C-C-------C-C--CC--------------------.
 |        /    C  CC C  C                        /
 |       /       C                              /

[...]

Density initialized from wave functions
    /      |                   C                  |
   /       |                C   C                 |
  /        |              C  C                    |
 *         |     C  C  C    C                     |
 |         |     C       C    C                   |
 |         .-C-C---C---C-C--CC--------------------.
 |        /    C  C  C  C                        /
 |       /       C                              /

[...]

Density initialized from wave functions
    /      |                   C                  |
   /       |                C                     |
  /        |              C  C  C                 |
 *         |     C  C  C    C                     |
 |         |     C       C    C                   |
 |         .-C-C---C---C-C--CC--------------------.
 |        /       C  C  C                        /
 |       /       C                              /

[...]

Density initialized from wave functions
    /      |                   C                  |
   /       |                C                     |
  /        |              C  C  C                 |
 *         |     C  C  C    C                     |
 |         |     C       C    C                   |
 |         .--CC---C---C-C--CC--------------------.
 |        /       C  C  C                        /
 |       /       C                              /

[...]

Density initialized from wave functions
    /      |                   C                  |
   /       |                C                     |
  /        |              C  C  C                 |
 *         |     C  C  C    C                     |
 |         |     C       C    C                   |
 |         .--CC---C---C-C--CC--------------------.
 |        /       C  C  C                        /
 |       /       C                              /

[...]

Density initialized from wave functions
    /      |                   C                  |
   /       |                C                     |
  /        |              C  C  C                 |
 *         |     C  C  C C  C                     |
 |         |     C            C                   |
 |         .--CC---C---C-C--CC--------------------.
 |        /       C  C  C                        /
 |       /       C                              /

[...]

Density initialized from wave functions
    /      |                   C                  |
   /       |                C                     |
  /        |              C  C  C                 |
 *         |     C  C   CC   C                    |
 |         |     C            C                   |
 |         .--CC---C---C-C--CC--------------------.
 |        /       C  C  C                        /
 |       /       C                              /

[...]

Density initialized from wave functions
    /      |                   C                  |
   /       |                C                     |
  /        |              C  C  C                 |
 *         |     C  C   CC   C                    |
 |         |     C            C                   |
 |         .--CC---C---C-C--CC--------------------.
 |        /       C  C  C                        /
 |       /       C                              /

[...]

Density initialized from wave functions
    /      |                   C                  |
   /       |                C                     |
  /        |              C  C  C                 |
 *         |     C  C   CC   C                    |
 |         |     C            C                   |
 |         .--CC----C--CCC--CC--------------------.
 |        /       C  C                           /
 |       /       C                              /

[...]

Density initialized from wave functions
    /      |                   C                  |
   /       |                C                     |
  /        |              C  C  C                 |
 *         |     C  C   CC   C                    |
 |         |     C            C                   |
 |         .--CC----C--C-C--CC--------------------.
 |        /       C  C  C                        /
 |       /       C                              /

[...]

Density initialized from wave functions
    /      |                   C                  |
   /       |                C                     |
  /        |        C      C  C C                 |
 *         |     C      CC   C                    |
 |         |     C            C                   |
 |         .--CC----C--CCC--CC--------------------.
 |        /       C  C                           /
 |       /       C                              /

[...]

Density initialized from wave functions
    /      |                   C                  |
   /       |                C                     |
  /        |              C   C C                 |
 *         |     C  C   CC   C                    |
 |         |     C            C                   |
 |         .--CC----C--CCC--CC--------------------.
 |        /       C  C                           /
 |       /       C                              /

[...]

System changes: positions

Initializing position-dependent things.

Density initialized from wave functions
    /      |                   C                  |
   /       |                C                     |
  /        |        C      C  C C                 |
 *         |     C      CC   C                    |
 |         |     C            C                   |
 |         .--CC----C--CCC--CC--------------------.
 |        /       C  C                           /
 |       /       C                              /

Positions:
   0 C      9.675868    6.518077    5.246765
   1 C      5.878672    6.753070    4.615960
   2 C      9.806935   11.520461    5.099718
   3 C      4.913524    3.878721    6.034195
   4 C      5.204535    5.771304    3.818064
   5 C      5.425391    9.453329    5.505606
   6 C      9.970531    7.810194    5.348470
   7 C      3.948196    4.662546    5.740658
   8 C      9.154515   12.557914    5.762906
   9 C      9.680015    5.194591    5.930577
  10 C      7.943981   12.227772    5.190446
  11 C      8.388510    4.759748    5.474689
  12 C      8.251836    6.130666    4.951503
  13 C      7.628893    8.493355    5.258981
  14 C      7.241854    7.132263    4.968061
  15 C      7.363604    3.894410    5.828730
  16 C      9.048956    8.860897    5.315826
  17 C      7.697408   10.817640    5.431170
  18 C      9.070417   10.303603    5.383688
  19 C      4.264841    5.831669    4.995448
  20 C      4.529464    8.551494    5.632566
  21 C      4.638679    7.221482    5.265455
  22 C      6.778714    9.714655    5.345407
  23 C      6.200424    3.465738    6.086240

Unit cell:
           periodic     x           y           z      points  spacing
  1. axis:    yes   16.000000    0.000000    0.000000    80     0.2000
  2. axis:    yes    0.000000   16.000000    0.000000    80     0.2000
  3. axis:    yes    0.000000    0.000000   10.000000    48     0.2083

Effective grid spacing dv^(1/3) = 0.2027

                     log10-error:    total        iterations:
           time      wfs    density  energy       fermi  poisson
iter:   1  14:55:59          +inf  -178.800279    2      5
iter:   2  14:55:59         -2.79  -178.800317    2      1
iter:   3  14:56:00         -2.86  -178.799415    2      1
iter:   4  14:56:01         -3.07  -178.799440    2      1
iter:   5  14:56:01         -3.31  -178.798907    2      1
iter:   6  14:56:02         -3.61  -178.798959    2      1
iter:   7  14:56:02         -3.72  -178.799168    2      1
iter:   8  14:56:03         -3.92  -178.799150    2      1
iter:   9  14:56:03         -4.09  -178.799149    2      1

Converged after 9 iterations.

Dipole moment: (-0.376451, -0.477249, 0.292230) |e|*Ang

Energy contributions relative to reference atoms: (reference = -24663.074771)

Kinetic:       +111.518916
Potential:     -117.631160
External:        +0.000000
XC:            -175.616663
Entropy (-ST):   -0.092423
Local:           +2.975969
Free energy:   -178.845360
Extrapolated:  -178.799149

Fermi level: -4.18304

 Band  Eigenvalues  Occupancy
    0    -23.55710    2.00000
    1    -23.06785    2.00000
    2    -22.81127    2.00000
    3    -21.50424    2.00000
    4    -20.73464    2.00000
    5    -20.27447    2.00000
    6    -19.65108    2.00000
    7    -19.30016    2.00000
    8    -19.04892    2.00000
    9    -17.78415    2.00000
   10    -17.26056    2.00000
   11    -16.58540    2.00000
   12    -16.45024    2.00000
   13    -15.88317    2.00000
   14    -15.50221    2.00000
   15    -14.98199    2.00000
   16    -14.31506    2.00000
   17    -14.14828    2.00000
   18    -13.44383    2.00000
   19    -12.96297    2.00000
   20    -12.52394    2.00000
   21    -12.22172    2.00000
   22    -11.21307    2.00000
   23    -10.98920    2.00000
   24    -10.84928    2.00000
   25    -10.76481    2.00000
   26    -10.31810    2.00000
   27    -10.20806    2.00000
   28    -10.04411    2.00000
   29     -9.89000    2.00000
   30     -9.72085    2.00000
   31     -9.57822    2.00000
   32     -9.42536    2.00000
   33     -8.90982    2.00000
   34     -8.58280    2.00000
   35     -8.23271    2.00000
   36     -7.94761    2.00000
   37     -7.25733    2.00000
   38     -7.02292    2.00000
   39     -6.61511    2.00000
   40     -6.53802    2.00000
   41     -6.33408    2.00000
   42     -5.97745    2.00000
   43     -5.51898    2.00000
   44     -5.30782    1.99997
   45     -5.23029    1.99994
   46     -4.75184    1.99325
   47     -4.46755    1.89012
   48     -3.90388    0.11555
   49     -3.40008    0.00080
   50     -3.28401    0.00025
   51     -3.20339    0.00011
   52     -2.93939    0.00001
   53     -2.63309    0.00000
   54     -2.38303    0.00000
   55     -2.10239    0.00000
   56     -1.55672    0.00000
   57     -1.51754    0.00000
   58     -1.13121    0.00000
   59     -0.58848    0.00000
[...]
   83      8.52018    0.00000
   84      8.57499    0.00000
   85      8.82373    0.00000
   86      8.95239    0.00000
   87      9.09578    0.00000
   88      9.15744    0.00000
   89      9.34166    0.00000
   90      9.44918    0.00000
   91      9.54992    0.00000
   92      9.65448    0.00000
   93      9.75009    0.00000
   94      9.82027    0.00000
   95     10.08315    0.00000
   96     10.13719    0.00000
   97     10.20017    0.00000

Forces in eV/Ang:
  0 C    -0.00309    0.01511    0.06683
  1 C    -0.07651   -0.02746   -0.03196
  2 C     0.00384   -0.03709    0.01677
  3 C    -0.02637    0.07261    0.01158
  4 C     0.02294    0.03363   -0.01317
  5 C     0.03249   -0.02833   -0.03368
  6 C     0.00735   -0.03914   -0.04807
  7 C     0.02406   -0.00117   -0.03617
  8 C     0.03149    0.07211    0.04284
  9 C     0.00406    0.00982    0.01658
 10 C    -0.07263   -0.04943   -0.00864
 11 C    -0.03585   -0.02360   -0.02863
 12 C     0.08404   -0.04185    0.01751
 13 C    -0.00498    0.01851    0.06641
 14 C     0.00908   -0.02657   -0.02350
 15 C     0.05234    0.06277    0.00199
 16 C    -0.00740    0.06470   -0.02652
 17 C     0.00464   -0.07084   -0.01351
 18 C    -0.00107   -0.03258   -0.03296
 19 C     0.03753   -0.02490    0.01574
 20 C     0.00481    0.00631    0.03924
 21 C    -0.01373    0.04070    0.08674
 22 C     0.01923   -0.02672   -0.02042
 23 C    -0.07434    0.01124   -0.02153