User:   esb@s65n11.grendel.cscaa.dk
Date:   Thu Nov  9 10:22:40 2017
Arch:   x86_64
Pid:    75656
Python: 2.7.13
gpaw:   /home/esb/DFT/gpaw_git/gpaw
_gpaw:  /home/esb/DFT/gpaw_git/build/bin.linux-x86_64-2.7/gpaw-python
ase:    /home/esb/DFT/ase_git/ase (version 3.15.0b1)
numpy:  /comm/swstack/core/python/2.7.13/lib/python2.7/site-packages/numpy (version 1.13.3)
scipy:  /comm/swstack/core/python/2.7.13/lib/python2.7/site-packages/scipy (version 0.19.1)
units:  Angstrom and eV
cores:  16
Extra parameters: {'blacs': True}

Input parameters:
  basis: dzp
  gpts: [80 80 48]
  kpts: [1 1 1]
  maxiter: 99
  mixer: {backend: pulay,
          beta: 0.05,
          method: separate,
          nmaxold: 5,
          weight: 75}
  mode: lcao
  nbands: -50
  occupations: {name: fermi-dirac,
                width: 0.1}
  poissonsolver: {eps: 1e-07,
                  name: fd,
                  nn: 3,
                  relax: GS}
  xc: PBE

System changes: positions, numbers, cell, pbc, initial_charges, initial_magmoms

Initialize ...

C-setup:
  name: Carbon
  id: 4aa54d4b901d75f77cc0ea3eec22967b
  Z: 6
  valence: 4
  core: 2
  charge: 0.0
  file: /home/esb/DFT/gpaw-setups-0.8.7929/C.PBE.gz
  cutoffs: 0.64(comp), 1.14(filt), 1.14(core), lmax=2
  valence states:
                energy  radius
    2s(2.00)   -13.751   0.635
    2p(2.00)    -5.284   0.635
    *s          13.461   0.635
    *p          21.927   0.635
    *d           0.000   0.635

  LCAO basis set for C:
    Name: dzp
    File: /home/esb/DFT/gpaw-setups-0.8.7929/C.dzp.basis.gz
    Number of radial functions: 5
    Number of spherical harmonics: 13
      l=0, rc=5.5469 Bohr: 2s-sz confined orbital
      l=1, rc=6.6719 Bohr: 2p-sz confined orbital
      l=0, rc=3.0312 Bohr: 2s-dz split-valence wave
      l=1, rc=3.7500 Bohr: 2p-dz split-valence wave
      l=2, rc=6.6719 Bohr: d-type Gaussian polarization

Reference energy: -24663.074771

Spin-paired calculation

Occupation numbers:
  Fermi-Dirac: width=0.1000 eV

Convergence criteria:
  Maximum total energy change: 0.0005 eV / electron
  Maximum integral of absolute density change: 0.0001 electrons
  Maximum integral of absolute eigenstate change: 4e-08 eV^2
  Maximum number of iterations: 99

Symmetries present (total): 1

  ( 1  0  0)
  ( 0  1  0)
  ( 0  0  1)

1 k-point (Gamma)
1 k-point in the irreducible part of the Brillouin zone
       k-points in crystal coordinates                weights
   0:     0.00000000    0.00000000    0.00000000          1/1

Wave functions: LCAO
  Diagonalizer: Serial LAPACK
  Atomic Correction: dense with blas
  Datatype: float
  Eigensolver: None

LCAO using direct dense diagonalizer

Densities:
  Coarse grid: 80*80*48 grid
  Fine grid: 160*160*96 grid
  Total Charge: 0.000000

Density mixing:
  Method: separate
  Backend: pulay
  Linear mixing parameter: 0.05
  Mixing with 5 old densities
  Damping of long wave oscillations: 75

Hamiltonian:
  XC and Coulomb potentials evaluated on a 160*160*96 grid
  Using the PBE Exchange-Correlation functional
  Interpolation: tri-quintic (5. degree polynomial)
  Poisson solver: Gauss-Seidel solver with 6 multi-grid levels
    Coarsest grid: 5 x 5 x 3 points
    Stencil: 6*3+1=19 point O(h^6) finite-difference Laplacian
    Max iterations: 1000
    Tolerance: 1.000000e-07

Total number of cores used: 16
Domain decomposition: 2 x 4 x 2

Number of atoms: 24
Number of atomic orbitals: 312
Number of bands in calculation: 98
Bands to converge: occupied states only
Number of valence electrons: 96

... initialized

Initializing position-dependent things.

Density initialized from atomic densities
   /       |                  C                   |
  /        |             C  C  C C                |
 *         |   C C  C  C  C    C C                |
 |         |  C C          C   C  C               |
 |         .-------C--C-C--C----------------------.
 |        /              C                       /

Positions:
   0 C      9.250780    6.255832    5.372242
   1 C     11.179025    7.557348    5.664344
   2 C      9.041725   11.778453    5.387672
   3 C     10.672979    6.227493    5.601601
   4 C      8.825929    7.663093    5.295121
   5 C      8.618784   10.364209    5.406035
   6 C      9.938603    9.843161    5.548405
   7 C     10.070118    8.461115    5.499478
   8 C     12.080157    6.457487    5.861338
   9 C     10.363612   11.214820    5.104439
  10 C      6.746221   12.087455    4.794291
  11 C      8.437416    5.146799    5.216975
  12 C      6.109356   10.724318    4.587181
  13 C      5.002496   10.138557    4.764403
  14 C      4.036205    9.296221    5.162889
  15 C      7.509525   10.538073    4.552001
  16 C      3.574570    8.175864    5.543810
  17 C      3.560286    6.904203    5.957265
  18 C      7.355364    7.908021    4.524602
  19 C      7.438542    4.108760    6.190785
  20 C     11.081623    5.208559    6.317269
  21 C      6.103657    4.221599    6.313579
  22 C      4.968954    4.788400    6.329425
  23 C      4.059629    5.759108    6.193472

Unit cell:
           periodic     x           y           z      points  spacing
  1. axis:    yes   16.000000    0.000000    0.000000    80     0.2000
  2. axis:    yes    0.000000   16.000000    0.000000    80     0.2000
  3. axis:    yes    0.000000    0.000000   10.000000    48     0.2083

Effective grid spacing dv^(1/3) = 0.2027

                     log10-error:    total        iterations:
           time      wfs    density  energy       fermi  poisson
iter:   1  10:22:41          +inf  -167.653931    3      6
iter:   2  10:22:42         -0.90  -166.527581    3      3
iter:   3  10:22:43         -0.94  -165.283757    3      3
iter:   4  10:22:43         -1.03  -164.550805    4      3
iter:   5  10:22:44         -1.13  -164.181441    34     4
iter:   6  10:22:44         -1.49  -164.009157    4      3
iter:   7  10:22:45         -1.70  -164.014085    3      3
iter:   8  10:22:45         -1.80  -163.982812    3      2
iter:   9  10:22:46         -1.93  -163.968669    3      2
iter:  10  10:22:46         -2.06  -163.962521    3      2
iter:  11  10:22:47         -2.27  -163.958298    3      2
iter:  12  10:22:47         -2.51  -163.956654    3      2
iter:  13  10:22:48         -2.78  -163.957262    2      1
iter:  14  10:22:48         -2.82  -163.949571    3      2
iter:  15  10:22:49         -3.05  -163.943313    2      1
iter:  16  10:22:49         -3.20  -163.938791    3      1
iter:  17  10:22:50         -3.43  -163.943716    3      1
iter:  18  10:22:50         -3.56  -163.949796    2      1
iter:  19  10:22:51         -3.72  -163.948839    2      1
iter:  20  10:22:51         -3.86  -163.948853    2      1
iter:  21  10:22:52         -3.93  -163.948008    2      1
iter:  22  10:22:52         -4.08  -163.947210    2      1

Converged after 22 iterations.

Dipole moment: (-0.447717, -0.187129, 0.060715) |e|*Ang

Energy contributions relative to reference atoms: (reference = -24663.074771)

Kinetic:       +100.200848
Potential:     -105.538994
External:        +0.000000
XC:            -161.337187
Entropy (-ST):   -0.345747
Local:           +2.900997
Free energy:   -164.120084
Extrapolated:  -163.947210

Fermi level: -4.34754

 Band  Eigenvalues  Occupancy
    0    -25.54629    2.00000
    1    -23.22453    2.00000
    2    -21.81648    2.00000
    3    -21.40076    2.00000
    4    -20.68229    2.00000
    5    -20.19241    2.00000
    6    -19.94442    2.00000
    7    -19.28844    2.00000
    8    -18.39617    2.00000
    9    -18.01227    2.00000
   10    -17.45727    2.00000
   11    -16.77571    2.00000
   12    -16.49917    2.00000
   13    -16.32235    2.00000
   14    -15.64761    2.00000
   15    -14.63627    2.00000
   16    -14.51208    2.00000
   17    -13.57122    2.00000
   18    -13.45977    2.00000
   19    -12.72278    2.00000
   20    -12.22673    2.00000
   21    -12.18335    2.00000
   22    -11.59044    2.00000
   23    -11.37798    2.00000
   24    -10.71743    2.00000
   25    -10.32433    2.00000
   26    -10.06841    2.00000
   27     -9.50345    2.00000
   28     -9.41969    2.00000
   29     -9.33137    2.00000
   30     -8.99628    2.00000
   31     -8.78706    2.00000
   32     -8.53297    2.00000
   33     -8.35152    2.00000
   34     -8.11472    2.00000
   35     -7.75083    2.00000
   36     -7.43572    2.00000
   37     -7.11240    2.00000
   38     -6.92695    2.00000
   39     -6.78886    2.00000
   40     -6.61688    2.00000
   41     -6.10875    2.00000
   42     -5.84126    2.00000
   43     -5.62480    1.99999
   44     -5.26134    1.99979
   45     -5.00375    1.99718
   46     -4.73088    1.95764
   47     -4.39511    1.23345
   48     -4.27335    0.64519
   49     -4.09697    0.15092
   50     -3.80878    0.00910
   51     -3.77385    0.00643
   52     -3.44098    0.00023
   53     -3.32985    0.00008
   54     -2.93076    0.00000
   55     -2.58278    0.00000
   56     -1.98690    0.00000
   57     -1.78008    0.00000
   58     -1.52424    0.00000
   59     -1.42735    0.00000
[...]
   83      8.21121    0.00000
   84      8.34271    0.00000
   85      8.50030    0.00000
   86      8.55491    0.00000
   87      8.81197    0.00000
   88      8.85391    0.00000
   89      9.02870    0.00000
   90      9.09035    0.00000
   91      9.27285    0.00000
   92      9.34308    0.00000
   93      9.47913    0.00000
   94      9.55312    0.00000
   95      9.72612    0.00000
   96      9.83309    0.00000
   97      9.99818    0.00000

Forces in eV/Ang:
  0 C    -1.55698    0.40667   -0.55018
  1 C     1.47956    2.37153    0.47957
  2 C     1.14697    1.17379    2.73475
  3 C    -7.16085   -1.15712   -2.36930
  4 C    -3.92972   -0.20690   -3.14369
  5 C     0.27698    2.19195   -0.96027
  6 C     0.25478    0.60294   -0.53008
  7 C     1.73346   -1.19494    0.59467
  8 C     2.61359    1.72162    0.46647
  9 C    -1.17198   -1.49502   -0.48912
 10 C     0.85657   -2.33590   -1.60767
 11 C    -5.10114   -3.85416    3.30373
 12 C     3.86521    3.42215   -0.20479
 13 C    -6.58753   -4.49433    1.76188
 14 C     2.86868    3.56470   -1.51562
 15 C    -1.82293    0.36670   -0.16062
 16 C    -0.69657   -3.63705    1.16436
 17 C    -0.81963    3.22454   -0.90135
 18 C     4.68771   -0.24082    2.66482
 19 C     2.73592    4.08647   -3.32897
 20 C     4.00222   -3.32476    2.78823
 21 C     3.81004   -0.47718   -0.76996
 22 C    -3.46264    1.97413    0.12232
 23 C     2.01233   -2.75698    0.46560

System changes: positions

[...]

Density initialized from wave functions
   /       |                  C                   |
  /        |             C  C  C C                |
 *         |   C C C   C  C    C C                |
 |         |  CCC          C   C   C              |
 |         .-------C--C-C--C----------------------.
 |        /              C                       /

[...]

Density initialized from wave functions
   /       |                  C                   |
  /        |             C   C C C                |
 *         |   C C C   C  C    C C                |
 |         |  CCC          C   C   C              |
 |         .-------C--C-C--C----------------------.
[...]
 *         |   C C C   C  C    C C                |
 |         |  CCC          C  C C  C              |
 |         .-------C--C-C--C----------------------.

[...]

Density initialized from wave functions
   /       |                   C                  |
  /        |             C   C C C                |
 *         |   C C C   C  C    C C                |
 |         |  CCC       C  C  C C  C              |
 |         .-------C--C-C--C----------------------.

[...]

Density initialized from wave functions
   /       |                   C                  |
  /        |             C   C C C                |
 *         |   C C C  C   C    C C                |
 |         |  CCC       C  C  C C C               |
 |         .-------C--C-C--C----------------------.

[...]

Density initialized from wave functions
   /       |                   C                  |
  /        |             C   C C C                |
 *         |   CC  C  C   C    C C                |
 |         |  CCC       C  C  C C C               |
 |         .-------C--C-C--C----------------------.

[...]

Density initialized from wave functions
   /       |                   C                  |
  /        |             C   C C C                |
 *         |   CC  C  C   C    C C                |
 |         |  CCC       C  C  C C C               |
 |         .-------C--C-C--C----------------------.

[...]

Density initialized from wave functions
   /       |                   C                  |
  /        |             C   C C C                |
 *         |   CC  C  C   C    C C                |
 |         |  CCC       C  C  C  CC               |
 |         .-------C--C-C--C----------------------.

[...]

Density initialized from wave functions
   /       |                   C                  |
  /        |             C   C C C                |
 *         |   CC  C  C   C    C C                |
 |         |  C C        C C  C  CC               |
 |         .-------C--C-C--C----------------------.

[...]

Density initialized from wave functions
    /      |                   C                  |
  /        |             C   C C C                |
 *         |   CC  C  C   C    C C                |
 |         |  C C        C C  C  CC               |
 |         .-------C--C-C--C----------------------.

[...]

Density initialized from wave functions
    /      |                    C                 |
  /        |             C   C C C                |
 *         |   CC  C  C   C    C C                |
 |         |  C C        C C  C  C C              |
 |         .-------C--C-C--C----------------------.

[...]

Density initialized from wave functions
    /      |                    C                 |
  /        |             C   C C C                |
 *         |   CC  C  C   C    C C                |
 |         |  C C        C C  C  C C              |
 |         .-------C--C-C--C----------------------.

[...]

Density initialized from wave functions
    /      |                    C                 |
  /        |             C   C C C                |
 *         |   CC  C  C   C    CC                 |
 |         |  C C        C C  C  C C              |
 |         .------C---C-C--C----------------------.

[...]

Density initialized from wave functions
    /      |                    C                 |
  /        |                 C C C                |
 *         |   CC  C  C  CC    CC                 |
 |         |  C C        C C  C  C C              |
 |         .------C---C-C--C----------------------.

[...]

Density initialized from wave functions
    /      |                    C                 |
  /        |                 C C C                |
 *         |   CC  C  C  CC    CC                 |
 |         |  C C        C C  C  C C              |
 |         .------C---C-C--C----------------------.

[...]

Density initialized from wave functions
    /      |                    C                 |
  /        |                 C   C                |
 *         |   CC  C  C  CC    CC                 |
 |         |  C C        C C   C C C              |
 |         .------C---C-C--C----------------------.

[...]

Density initialized from wave functions
    /      |                    C                 |
  /        |              C  C    C               |
 *         |   CC  C  C  C     CC                 |
 |         |  C C        C C   C C C              |
 |         .------C--C--C--C----------------------.

[...]

Density initialized from wave functions
    /      |                    C                 |
  /        |              C  C    C               |
 *         |   CC  C  C  C     C C                |
 |         |  C C        C C   C C C              |
 |         .------C--C--C--C----------------------.

[...]

Density initialized from wave functions
    /      |                    C                 |
  /        |              C  C    C               |
 *         |   CC  C  C  C     C C                |
 |         |  C C        C C   C C C              |
 |         .------C--C--C--C----------------------.

[...]

Density initialized from wave functions
    /      |                    C                 |
  /        |              C  C    C               |
 *         |   C C C  C  C     C C                |
 |         |  C C        C C   C C C              |
 |         .------C--C--C--C----------------------.

[...]

Density initialized from wave functions
    /      |                    C                 |
  /        |              C  C    C               |
 *         |   C C C  C  C     C C                |
 |         |  C          C C   C C C              |
 |         .----C-C--C--C--C----------------------.

[...]

Density initialized from wave functions
    /      |                    C                 |
  /        |              C  C    C               |
 *         |   C C C  C  C     C C                |
 |         |  C          C C   C C C              |
 |         .----C-C--C--C--C----------------------.

[...]

Density initialized from wave functions
    /      |                    C                 |
  /        |              C  C    C               |
 *         |   C C C  C  C    CC C                |
 |         |  C          C C   C C C              |
 |         .----C-C--C--C--C----------------------.

[...]

Density initialized from wave functions
    /      |                    C                 |
  /        |              C  C    C               |
 *         |   C C  C C  C    CC C                |
 |         |  C         C  C   C C C              |
 |         .----C-C--C--C--C----------------------.

[...]

Density initialized from wave functions
    /      |                    C                 |
  /        |              C  C    C               |
 *         |   C C  C C  C    CC C                |
 |         |  C            C   C C C              |
 |         .----C-C--C--CC-C----------------------.

[...]

Density initialized from wave functions
    /      |                    C                 |
  /        |              C  C    C               |
 *         |   C C  C C  C    CC C                |
 |         |  C            C   C CC               |
 |         .----C-C--C--CC-C----------------------.

[...]

Density initialized from wave functions
    /      |                    C                 |
  /        |              C  C    C               |
 *         |   C C  C  C C    CC C                |
 |         |  C            C   C  C               |
 |         .----C-C--C--CC-C----------------------.

[...]

Density initialized from wave functions
    /      |                    C                 |
  /        |              C  C    C               |
 *         |   C C  C  C C    CC C                |
 |         |  C            C   C  C               |
 |         .---C--C--C--CC-C----------------------.

[...]

Density initialized from wave functions
    /      |                    C                 |
  /        |              C  C    C               |
 *         |   C C  C  C C    CC C                |
 |         | CC            C   C  C               |
 |         .---C--C--C--CC-C----------------------.

[...]

Density initialized from wave functions
    /      |                    C                 |
  /        |              C  C    C               |
 *         |   C C  C  C C     C C                |
 |         | CC            C  CC  C               |
 |         .---C--C--C--CC-C----------------------.

[...]

Density initialized from wave functions
    /      |                    C                 |
  /        |              C  C    C               |
 *         |   C C  C  C C     C C                |
 |         | CC            C  CC  C               |
 |         .---C--C--C--CC-C----------------------.

[...]

Density initialized from wave functions
    /      |                    C                 |
  /        |              C  C    C               |
 *         |   C C  C  C C    CC C                |
 |         | CC            C   C  C               |
 |         .---C--C--C--CC-C----------------------.

[...]

Density initialized from wave functions
    /      |                    C                 |
  /        |              C  C    C               |
 *         |   C C  C  C C    CC C                |
 |         |  C            C   C  C               |
 |         .---C--C--C--CC-C----------------------.

[...]

Density initialized from wave functions
    /      |                    C                 |
  /        |              C  C    C               |
 *         |   C C  C  C C     C C                |
 |         |  C            C   C  C               |
 |         .---C--C--C--CC-C----------------------.

[...]

Density initialized from wave functions
    /      |                   C                  |
  /        |              C  C   C                |
 *         |   C C C  C  C     C C                |
 |         |  C            C   C  C               |
 |         .---C--C--C--CC-C----------------------.

[...]

Density initialized from wave functions
    /      |                   C                  |
  /        |              C  C   C                |
 *         |   C C C  C  C     C C                |
 |         |  C            C   C  C               |
 |         .---C--C--C--CC-C------C---------------.

[...]

Density initialized from wave functions
    /      |                   C                  |
  /        |              C C    C                |
 *         |   C C C  C  C     C C                |
 |         |  C            C      C               |
 |         .---C--C--C--CC-C---C--C---------------.

[...]

System changes: positions

Initializing position-dependent things.

Density initialized from wave functions
    /      |                   C                  |
  /        |              C  C   C                |
 *         |   C C C  C  C     C C                |
 |         |  C            C   C  C               |
 |         .---C--C--C--CC-C------C---------------.

Positions:
   0 C      9.305175    5.927623    5.631447
   1 C     11.233729    8.079396    5.836195
   2 C      9.542607   11.437434    6.209501
   3 C     10.688817    5.686802    5.793976
   4 C      8.975751    7.330065    5.122061
   5 C      8.531063   10.753844    5.355357
   6 C      9.603721    9.822772    5.219763
   7 C      9.951151    8.437333    5.428707
   8 C     11.675303    6.821234    5.876508
   9 C     10.481359   11.022613    5.207318
  10 C      6.641509   11.948583    3.720071
  11 C      8.349224    5.002403    5.964139
  12 C      5.960073   10.960002    4.564827
  13 C      4.940003   10.227180    5.056090
  14 C      4.173313    9.257530    5.381876
  15 C      7.366631   11.178389    4.653921
  16 C      3.555843    8.164752    5.784809
  17 C      3.431444    6.885700    5.915546
  18 C      7.983232    7.703331    4.289294
  19 C      7.165637    4.522414    6.055073
  20 C     12.057372    5.449631    5.810302
  21 C      5.882741    4.278864    6.230194
  22 C      4.673420    4.745187    6.130300
  23 C      3.724970    5.640344    6.207725

Unit cell:
           periodic     x           y           z      points  spacing
  1. axis:    yes   16.000000    0.000000    0.000000    80     0.2000
  2. axis:    yes    0.000000   16.000000    0.000000    80     0.2000
  3. axis:    yes    0.000000    0.000000   10.000000    48     0.2083

Effective grid spacing dv^(1/3) = 0.2027

                     log10-error:    total        iterations:
           time      wfs    density  energy       fermi  poisson
iter:   1  10:33:33          +inf  -176.059544    2      5
iter:   2  10:33:34         -2.73  -176.059164    2      1
iter:   3  10:33:34         -2.91  -176.059658    2      1
iter:   4  10:33:35         -3.09  -176.059648    2      1
iter:   5  10:33:35         -3.25  -176.060547    2      1
iter:   6  10:33:36         -3.23  -176.059453    2      1
iter:   7  10:33:36         -3.67  -176.059186    2      1
iter:   8  10:33:36         -3.40  -176.059401    2      1
iter:   9  10:33:37         -4.06  -176.059336    1      1

Converged after 9 iterations.

Dipole moment: (-0.593761, -0.573272, 0.386587) |e|*Ang

Energy contributions relative to reference atoms: (reference = -24663.074771)

Kinetic:       +105.340536
Potential:     -114.951595
External:        +0.000000
XC:            -169.311870
Entropy (-ST):   -0.176264
Local:           +2.951725
Free energy:   -176.147468
Extrapolated:  -176.059336

Fermi level: -4.55557

 Band  Eigenvalues  Occupancy
    0    -23.83488    2.00000
    1    -23.49607    2.00000
    2    -22.87926    2.00000
    3    -21.22967    2.00000
    4    -20.86342    2.00000
    5    -20.45345    2.00000
    6    -20.07954    2.00000
    7    -19.47971    2.00000
    8    -18.70179    2.00000
    9    -18.31982    2.00000
   10    -17.73589    2.00000
   11    -17.42562    2.00000
   12    -17.06625    2.00000
   13    -16.56788    2.00000
   14    -15.55731    2.00000
   15    -14.71643    2.00000
   16    -14.46575    2.00000
   17    -13.82155    2.00000
   18    -13.52980    2.00000
   19    -13.23683    2.00000
   20    -13.10574    2.00000
   21    -12.25601    2.00000
   22    -11.78541    2.00000
   23    -11.32369    2.00000
   24    -10.60025    2.00000
   25    -10.12269    2.00000
   26    -10.06859    2.00000
   27     -9.87987    2.00000
   28     -9.55950    2.00000
   29     -9.47196    2.00000
   30     -9.27190    2.00000
   31     -9.20317    2.00000
   32     -8.95098    2.00000
   33     -8.73204    2.00000
   34     -8.54530    2.00000
   35     -8.16475    2.00000
   36     -7.96995    2.00000
   37     -7.57526    2.00000
   38     -7.19232    2.00000
   39     -6.55833    2.00000
   40     -6.47986    2.00000
   41     -6.32590    2.00000
   42     -6.13958    2.00000
   43     -5.87870    2.00000
   44     -5.55435    1.99991
   45     -5.37768    1.99946
   46     -5.23049    1.99766
   47     -4.72729    1.69552
   48     -4.38303    0.30235
   49     -3.95788    0.00506
   50     -3.48394    0.00004
   51     -3.05915    0.00000
   52     -2.79539    0.00000
   53     -2.39463    0.00000
   54     -1.98538    0.00000
   55     -1.62506    0.00000
   56     -1.35363    0.00000
   57     -1.15330    0.00000
   58     -0.88524    0.00000
   59     -0.73539    0.00000
[...]
   83      8.06671    0.00000
   84      8.30203    0.00000
   85      8.58563    0.00000
   86      8.68730    0.00000
   87      8.77918    0.00000
   88      8.89281    0.00000
   89      9.04712    0.00000
   90      9.15442    0.00000
   91      9.26109    0.00000
   92      9.40247    0.00000
   93      9.45039    0.00000
   94      9.49362    0.00000
   95      9.61346    0.00000
   96      9.69958    0.00000
   97      9.83941    0.00000

Forces in eV/Ang:
  0 C    -0.00024   -0.01798   -0.00798
  1 C    -0.01941    0.04309    0.02484
  2 C    -0.03770    0.02479    0.02685
  3 C    -0.01548   -0.02448    0.01635
  4 C     0.00693   -0.01124    0.00956
  5 C    -0.02858   -0.00606   -0.01768
  6 C     0.03049    0.02539    0.01673
  7 C     0.04688    0.03009   -0.01210
  8 C     0.01064    0.02628    0.02685
  9 C    -0.02211    0.04790   -0.01346
 10 C    -0.00463   -0.02650   -0.00872
 11 C    -0.01026   -0.02435   -0.01990
 12 C    -0.02324   -0.01315    0.00838
 13 C     0.06036   -0.04464   -0.01547
 14 C    -0.01990   -0.01936   -0.00938
 15 C     0.01398    0.00650    0.01935
 16 C    -0.02551    0.02896   -0.01927
 17 C     0.00864   -0.00119    0.03027
 18 C    -0.01024    0.02155   -0.09167
 19 C    -0.00010   -0.00206   -0.02016
 20 C     0.03520   -0.01831   -0.05520
 21 C     0.01132    0.02800    0.03931
 22 C     0.02392    0.05524    0.02526
 23 C    -0.02300   -0.00949   -0.01162