User:   esb@s65n84.grendel.cscaa.dk
Date:   Thu Nov  9 12:21:12 2017
Arch:   x86_64
Pid:    58518
Python: 2.7.13
gpaw:   /home/esb/DFT/gpaw_git/gpaw
_gpaw:  /home/esb/DFT/gpaw_git/build/bin.linux-x86_64-2.7/gpaw-python
ase:    /home/esb/DFT/ase_git/ase (version 3.15.0b1)
numpy:  /comm/swstack/core/python/2.7.13/lib/python2.7/site-packages/numpy (version 1.13.3)
scipy:  /comm/swstack/core/python/2.7.13/lib/python2.7/site-packages/scipy (version 0.19.1)
units:  Angstrom and eV
cores:  16
Extra parameters: {'blacs': True}

Input parameters:
  basis: dzp
  gpts: [80 80 48]
  kpts: [1 1 1]
  maxiter: 99
  mixer: {backend: pulay,
          beta: 0.05,
          method: separate,
          nmaxold: 5,
          weight: 75}
  mode: lcao
  nbands: -50
  occupations: {name: fermi-dirac,
                width: 0.1}
  poissonsolver: {eps: 1e-07,
                  name: fd,
                  nn: 3,
                  relax: GS}
  xc: PBE

System changes: positions, numbers, cell, pbc, initial_charges, initial_magmoms

Initialize ...

C-setup:
  name: Carbon
  id: 4aa54d4b901d75f77cc0ea3eec22967b
  Z: 6
  valence: 4
  core: 2
  charge: 0.0
  file: /home/esb/DFT/gpaw-setups-0.8.7929/C.PBE.gz
  cutoffs: 0.64(comp), 1.14(filt), 1.14(core), lmax=2
  valence states:
                energy  radius
    2s(2.00)   -13.751   0.635
    2p(2.00)    -5.284   0.635
    *s          13.461   0.635
    *p          21.927   0.635
    *d           0.000   0.635

  LCAO basis set for C:
    Name: dzp
    File: /home/esb/DFT/gpaw-setups-0.8.7929/C.dzp.basis.gz
    Number of radial functions: 5
    Number of spherical harmonics: 13
      l=0, rc=5.5469 Bohr: 2s-sz confined orbital
      l=1, rc=6.6719 Bohr: 2p-sz confined orbital
      l=0, rc=3.0312 Bohr: 2s-dz split-valence wave
      l=1, rc=3.7500 Bohr: 2p-dz split-valence wave
      l=2, rc=6.6719 Bohr: d-type Gaussian polarization

Reference energy: -24663.074771

Spin-paired calculation

Occupation numbers:
  Fermi-Dirac: width=0.1000 eV

Convergence criteria:
  Maximum total energy change: 0.0005 eV / electron
  Maximum integral of absolute density change: 0.0001 electrons
  Maximum integral of absolute eigenstate change: 4e-08 eV^2
  Maximum number of iterations: 99

Symmetries present (total): 1

  ( 1  0  0)
  ( 0  1  0)
  ( 0  0  1)

1 k-point (Gamma)
1 k-point in the irreducible part of the Brillouin zone
       k-points in crystal coordinates                weights
   0:     0.00000000    0.00000000    0.00000000          1/1

Wave functions: LCAO
  Diagonalizer: Serial LAPACK
  Atomic Correction: dense with blas
  Datatype: float
  Eigensolver: None

LCAO using direct dense diagonalizer

Densities:
  Coarse grid: 80*80*48 grid
  Fine grid: 160*160*96 grid
  Total Charge: 0.000000

Density mixing:
  Method: separate
  Backend: pulay
  Linear mixing parameter: 0.05
  Mixing with 5 old densities
  Damping of long wave oscillations: 75

Hamiltonian:
  XC and Coulomb potentials evaluated on a 160*160*96 grid
  Using the PBE Exchange-Correlation functional
  Interpolation: tri-quintic (5. degree polynomial)
  Poisson solver: Gauss-Seidel solver with 6 multi-grid levels
    Coarsest grid: 5 x 5 x 3 points
    Stencil: 6*3+1=19 point O(h^6) finite-difference Laplacian
    Max iterations: 1000
    Tolerance: 1.000000e-07

Total number of cores used: 16
Domain decomposition: 2 x 4 x 2

Number of atoms: 24
Number of atomic orbitals: 312
Number of bands in calculation: 98
Bands to converge: occupied states only
Number of valence electrons: 96

... initialized

Initializing position-dependent things.

Density initialized from atomic densities
   /       |        C                             |
  /        |     C     C                          |
 *         |  C     C     C  C                    |
 |         |  C      C   C  C    C                |
 |         .---C---C-C--C-----CC------------------.
 |        /   C C   C     CC                     /
 |       /             C                        /

Positions:
   0 C      4.995003   10.182697    6.380800
   1 C      6.283654   10.053316    5.594718
   2 C      5.608339    8.829288    5.162834
   3 C      3.404266    8.101609    5.769791
   4 C      6.309963    7.599507    5.316909
   5 C      4.262619    9.210443    5.638993
   6 C      3.413498    6.859093    5.599143
   7 C      5.306728    3.583619    5.262527
   8 C      6.685490    3.888651    5.257409
   9 C      4.346675    4.405261    5.317237
  10 C      6.862283    5.351935    5.268821
  11 C      4.371770    5.818629    5.401640
  12 C      5.752234    6.250228    5.308784
  13 C      7.813038    7.306786    5.140267
  14 C      8.917301    8.151583    4.950659
  15 C     11.048060    8.827978    4.617804
  16 C     10.284975    7.575192    4.804414
  17 C      7.743082   10.209563    4.987110
  18 C      9.020752    9.647616    4.845610
  19 C     10.502401    6.227793    4.872294
  20 C      9.227852    3.906791    5.175470
  21 C      9.419030    5.315235    5.066994
  22 C      8.176236    3.209649    5.332080
  23 C      8.104981    5.894490    5.177121

Unit cell:
           periodic     x           y           z      points  spacing
  1. axis:    yes   16.000000    0.000000    0.000000    80     0.2000
  2. axis:    yes    0.000000   16.000000    0.000000    80     0.2000
  3. axis:    yes    0.000000    0.000000   10.000000    48     0.2083

Effective grid spacing dv^(1/3) = 0.2027

                     log10-error:    total        iterations:
           time      wfs    density  energy       fermi  poisson
iter:   1  12:21:14          +inf  -183.241308    3      6
iter:   2  12:21:14         -0.89  -182.192276    4      3
iter:   3  12:21:15         -0.94  -180.689019    34     3
iter:   4  12:21:16         -1.05  -179.896987    4      3
iter:   5  12:21:16         -1.16  -179.838716    34     3
iter:   6  12:21:17         -1.28  -179.491546    3      3
iter:   7  12:21:18         -1.51  -179.412149    3      3
iter:   8  12:21:18         -1.64  -179.353821    3      3
iter:   9  12:21:19         -1.85  -179.337144    3      2
iter:  10  12:21:19         -1.93  -179.312228    4      2
iter:  11  12:21:20         -2.15  -179.292626    3      3
iter:  12  12:21:21         -2.50  -179.294125    3      2
iter:  13  12:21:21         -2.61  -179.293253    3      2
iter:  14  12:21:22         -2.71  -179.293724    3      2
iter:  15  12:21:23         -2.91  -179.291177    3      2
iter:  16  12:21:23         -3.18  -179.292975    2      1
iter:  17  12:21:24         -3.26  -179.298277    2      1
iter:  18  12:21:24         -3.51  -179.294324    2      1
iter:  19  12:21:25         -3.65  -179.288719    2      1
iter:  20  12:21:25         -3.71  -179.288318    2      1
iter:  21  12:21:26         -3.79  -179.287618    2      1
iter:  22  12:21:27         -3.86  -179.289118    2      1
iter:  23  12:21:27         -3.90  -179.290510    2      1
iter:  24  12:21:28         -3.98  -179.290443    2      1
iter:  25  12:21:28         -4.26  -179.290730    2      1

Converged after 25 iterations.

Dipole moment: (-0.457069, -0.092974, -0.091443) |e|*Ang

Energy contributions relative to reference atoms: (reference = -24663.074771)

Kinetic:        +89.013308
Potential:     -100.766510
External:        +0.000000
XC:            -170.339411
Entropy (-ST):   -0.334819
Local:           +2.969293
Free energy:   -179.458140
Extrapolated:  -179.290730

Fermi level: -4.37531

 Band  Eigenvalues  Occupancy
    0    -23.21903    2.00000
    1    -22.75814    2.00000
    2    -21.73038    2.00000
    3    -20.83924    2.00000
    4    -20.54154    2.00000
    5    -20.09554    2.00000
    6    -19.04102    2.00000
    7    -18.85506    2.00000
    8    -18.31813    2.00000
    9    -17.89648    2.00000
   10    -17.47641    2.00000
   11    -16.91285    2.00000
   12    -16.29143    2.00000
   13    -15.73265    2.00000
   14    -15.23734    2.00000
   15    -14.63530    2.00000
   16    -14.13490    2.00000
   17    -13.56388    2.00000
   18    -12.73464    2.00000
   19    -12.70131    2.00000
   20    -12.53135    2.00000
   21    -11.82236    2.00000
   22    -11.46434    2.00000
   23    -11.38813    2.00000
   24    -10.92579    2.00000
   25    -10.80426    2.00000
   26    -10.67975    2.00000
   27    -10.17579    2.00000
   28    -10.06168    2.00000
   29     -9.58715    2.00000
   30     -9.45396    2.00000
   31     -9.15569    2.00000
   32     -8.96813    2.00000
   33     -8.52651    2.00000
   34     -8.18913    2.00000
   35     -7.90997    2.00000
   36     -7.76828    2.00000
   37     -6.99966    2.00000
   38     -6.84760    2.00000
   39     -6.61297    2.00000
   40     -6.52666    2.00000
   41     -6.25769    2.00000
   42     -6.19940    2.00000
   43     -6.07536    2.00000
   44     -5.88943    2.00000
   45     -5.28615    1.99978
   46     -4.59853    1.80620
   47     -4.43928    1.30936
   48     -4.35074    0.87776
   49     -3.79145    0.00581
   50     -3.62172    0.00107
   51     -3.25625    0.00003
   52     -2.88125    0.00000
   53     -2.80005    0.00000
   54     -2.56256    0.00000
   55     -2.03991    0.00000
   56     -1.96446    0.00000
   57     -1.75493    0.00000
   58     -0.84487    0.00000
   59     -0.04866    0.00000
[...]
   83      8.91352    0.00000
   84      9.01032    0.00000
   85      9.19917    0.00000
   86      9.25949    0.00000
   87      9.41972    0.00000
   88      9.45824    0.00000
   89      9.64210    0.00000
   90      9.69552    0.00000
   91      9.75180    0.00000
   92      9.87950    0.00000
   93      9.97297    0.00000
   94     10.05980    0.00000
   95     10.26544    0.00000
   96     10.39176    0.00000
   97     10.45769    0.00000

Forces in eV/Ang:
  0 C     1.01826    0.84048    0.03702
  1 C     4.37564    0.70352   -2.84696
  2 C     1.49487   -0.69332    0.41354
  3 C    -0.10699   -0.06836    0.08719
  4 C     1.36305   -1.27018   -1.28154
  5 C     0.14802   -0.25533   -0.21548
  6 C     0.10211    0.20396   -0.05580
  7 C     1.51798   -0.46534    0.06806
  8 C     2.60819   -1.57683    0.37654
  9 C    -0.39100    0.75818    0.07468
 10 C    -2.20776   -4.29546   -0.06399
 11 C    -0.34802   -0.81871    0.05116
 12 C     0.08367    0.65881    0.32711
 13 C    -0.20943    2.00345    0.14583
 14 C     0.15089    1.24337    0.45933
 15 C    -1.61590   -0.78806    0.01685
 16 C    -0.27285    2.77075   -0.16948
 17 C    -1.92825   -1.01944    2.49838
 18 C    -3.10934   -0.79754    0.57573
 19 C    -0.22079   -2.02082    0.11862
 20 C    -0.87747   -0.45816    0.16095
 21 C     1.28205    0.68737   -0.04381
 22 C    -3.39329    1.61477   -0.49615
 23 C     0.56794    3.05252   -0.21911

System changes: positions

[...]

Density initialized from wave functions
   /       |        C                             |
  /        |     C     C                          |
 *         |  C     C     C  C                    |
 |         |  C      C   C  C  C C                |
 |         .---C---C-C--C-----C-------------------.
 |        /   C C   C     CC                     /
 |       /             C                        /

[...]

Density initialized from wave functions
   /       |        C                             |
  /        |     C     C                          |
 *         |  C     C     C  C                    |
 |         |  C      C   C  C  C C                |
 |         .---C---C-C--C-----C-------------------.
 |        /   C C   C     CC                     /
 |       /             C                        /

[...]

Density initialized from wave functions
   /       |        C                             |
  /        |     C     C  C                       |
 *         |  C     C        C                    |
 |         |  C      C   C  C  C C                |
 |         .---C---C-C--C-----C-------------------.
 |        /   C C   C     CC                     /
 |       /             C                        /

[...]

Density initialized from wave functions
   /       |        C                             |
  /        |      C    C  C                       |
 *         |   C     C      C                     |
 |         |  C      C   C  C  C C                |
 |         .---C---C-C--C-----C-------------------.
 |        /   C C   C     CC                     /
 |       /             C                        /

[...]

Density initialized from wave functions
   /       |        C                             |
  /        |      C    C  C                       |
 *         |   C     C      C                     |
 |         |  C      C   C  C  C C                |
 |         .---C---C-C--C------C------------------.
 |        /   C C   C     CC                     /
 |       /             C                        /

[...]

Density initialized from wave functions
   /       |        C                             |
  /        |      C    C  C                       |
 *         |   C     C      C                     |
 |         |  C      C   C  C  CC                 |
 |         .---C---C----C------C------------------.
 |        /   C C   CC    CC                     /
 |       /             C                        /

[...]

Density initialized from wave functions
   /       |        C                             |
  /        |      C    C  C                       |
 *         |   C     C      C                     |
 |         |  C      C   C  C  CC                 |
 |         .---C---C----C------C------------------.
 |        /   C C   CC    CC                     /
 |       /             C                        /

[...]

Density initialized from wave functions
   /       |        C                             |
  /        |      C    C  C C                     |
 *         |   C     C                            |
 |         |  C      C   C  C  CC                 |
 |         .---C---C-----C-----C------------------.
 |        /   C C   CC    CC                     /
 |       /             C                        /

[...]

Density initialized from wave functions
   /       |        C                             |
  /        |      C    C  C C                     |
 *         |   C     C                            |
 |         |  C      C   C  C  CC                 |
 |         .---C---C-----C-----C------------------.
 |        /   C C   CC    CC                     /
 |       /             C                        /

[...]

Density initialized from wave functions
   /       |        C                             |
  /        |           C  C C                     |
 *         |   C  C  C                            |
 |         |  C      C   C  C  CC                 |
 |         .---C---C-----C-----C------------------.
 |        /   C C   CC    CC                     /
 |       /             C                        /

[...]

Density initialized from wave functions
   /       |        C                             |
  /        |           C  C C                     |
 *         |   C  C  C                            |
 |         |  C      C   C  C  C                  |
 |         .---C---C-----C-----CC-----------------.
 |        /   C C   CC    CC                     /
 |       /             C                        /

[...]

Density initialized from wave functions
   /       |        C                             |
  /        |           C  C C                     |
 *         |   C  C  C                            |
 |         |  C       C  C  C  C                  |
 |         .---C---C-----C-----C------------------.
 |        /   C C   CC    CC                     /
 |       /             C                        /

[...]

Density initialized from wave functions
   /       |        C                             |
  /        |           C  C C                     |
 *         |   C  C  C                            |
 |         |  C       C  C  C  C                  |
 |         .---C---C-----C-----C------------------.
 |        /   C C   CC    CC                     /
 |       /             C                        /

[...]

Density initialized from wave functions
   /       |        C                             |
  /        |           C  C C                     |
 *         |   C  C  C                            |
 |         |  C       C  C  C                     |
 |         .---C---C-----C-----C------------------.
 |        /    CC   CC    CC                     /
 |       /             C                        /

[...]

Density initialized from wave functions
   /       |        C                             |
  /        |          C   C C                     |
 *         |   C  C  C                            |
 |         |  C       C  C  C                     |
 |         .---C---C-----C-----C------------------.
 |        /    CC   CC    CC                     /
 |       /             C                        /

[...]

Density initialized from wave functions
   /       |        C                             |
  /        |          C   C C                     |
 *         |   C  C  C                            |
 |         |  C       C  C  C                     |
 |         .----C--C-----C-----C------------------.
 |        /    CC   CC    CC                     /
 |       /             C                        /

[...]

Density initialized from wave functions
   /       |        C                             |
  /        |      C   C   C C                     |
 *         |   C     C                            |
 |         |  C      C   C  C  C                  |
 |         .----C--C-----C-----C------------------.
 |        /    CC   CC    CC                     /
 |       /             C                        /

[...]

Density initialized from wave functions
   /       |       C                              |
  /        |      C   C   C C                     |
 *         |   C     C                            |
 |         |  C      C   C  C  C                  |
 |         .----C--C-----C-----C------------------.
 |        /    CC   CC    CC                     /
 |       /             C                        /

[...]

Density initialized from wave functions
   /       |       C                              |
  /        |      C   C   C C                     |
 *         |   C     C                            |
 |         |  C      C   C  C  C                  |
 |         .----C--C-----C-----CC-----------------.
 |        /    CC   CC    CC                     /
 |       /             C                        /

[...]

Density initialized from wave functions
   /       |       C                              |
  /        |     C    C   C C                     |
 *         |   C     C                            |
 |         |  C      C   C  C  C                  |
 |         .----C--C-----C-----CC-----------------.
 |        /    CC   CC    CC                     /
 |       /             C                        /

[...]

Density initialized from wave functions
   /       |       C                              |
  /        |     C    C   C C                     |
 *         |   C     C                            |
 |         |  C       C  C  C  C                  |
 |         .----C--C-----C------C-----------------.
 |        /    CC   CC    CC   C                 /
 |       /             C                        /

[...]

Density initialized from wave functions
   /       |       C                              |
  /        |     C    C   C C                     |
 *         |  C      C                            |
 |         |  C       C  C  C  C                  |
 |         .----C--C-----C------C-----------------.
 |        /    CC   CC    CC   C                 /
 |       /             C                        /

[...]

Density initialized from wave functions
   /       |       C                              |
  /        |     C    C   C                       |
 *         |   C     C      C                     |
 |         |  C       C  C  C  C                  |
 |         .----C--C-C---C------C-----------------.
 |        /    CC   C     CC   C                 /
 |       /             C                        /

[...]

Density initialized from wave functions
   /       |       C                              |
  /        |          C   C                       |
 *         |   C C   C      C                     |
 |         |  C       C  C  C  C                  |
 |         .----C--C-C---C------C-----------------.
 |        /    CC   C     CC   C                 /
 |       /             C                        /

[...]

Density initialized from wave functions
   /       |       C                              |
  /        |          C   C                       |
 *         |   C C   C      C                     |
 |         |  C       C  C  C  C                  |
 |         .----C--C-C---C------C-----------------.
 |        /    CC   C     CC   C                 /
 |       /             C                        /

[...]

System changes: positions

Initializing position-dependent things.

Density initialized from wave functions
   /       |       C                              |
  /        |     C    C   C                       |
 *         |   C     C      C                     |
 |         |  C       C  C  C  C                  |
 |         .----C--C-C---C------C-----------------.
 |        /    CC   C     CC   C                 /
 |       /             C                        /

Positions:
   0 C      4.704683   10.601003    5.870746
   1 C      6.080618   10.248765    5.570421
   2 C      5.783639    8.807820    5.424515
   3 C      3.479216    8.116851    5.659547
   4 C      6.504764    7.629394    5.246806
   5 C      4.372421    9.181716    5.673990
   6 C      3.533941    6.864265    5.567013
   7 C      5.391563    3.585888    5.381206
   8 C      6.762112    3.874641    5.290743
   9 C      4.451326    4.431030    5.429813
  10 C      6.956002    5.332192    5.205589
  11 C      4.498781    5.837733    5.413771
  12 C      5.891009    6.276870    5.276282
  13 C      7.993182    7.447923    5.083716
  14 C      8.988307    8.529656    4.975523
  15 C     10.366536    8.300616    4.729366
  16 C     10.721895    7.043651    4.691045
  17 C      7.439242   10.560024    5.417401
  18 C      8.423670    9.825631    5.166587
  19 C     10.790147    5.732336    4.732860
  20 C      9.113993    3.824951    5.124901
  21 C      9.495801    5.186245    4.970725
  22 C      8.018584    3.217276    5.258503
  23 C      8.242185    5.998387    5.070391

Unit cell:
           periodic     x           y           z      points  spacing
  1. axis:    yes   16.000000    0.000000    0.000000    80     0.2000
  2. axis:    yes    0.000000   16.000000    0.000000    80     0.2000
  3. axis:    yes    0.000000    0.000000   10.000000    48     0.2083

Effective grid spacing dv^(1/3) = 0.2027

                     log10-error:    total        iterations:
           time      wfs    density  energy       fermi  poisson
iter:   1  12:30:54          +inf  -184.685067    2      4
iter:   2  12:30:54         -2.54  -184.680592    3      1
iter:   3  12:30:55         -3.00  -184.680684    3      1
iter:   4  12:30:55         -3.10  -184.679460    3      1
iter:   5  12:30:56         -3.04  -184.681692    3      1
iter:   6  12:30:56         -2.72  -184.685589    3      1
iter:   7  12:30:57         -2.61  -184.682966    3      1
iter:   8  12:30:58         -2.82  -184.681722    3      1
iter:   9  12:30:58         -3.35  -184.683183    3      1
iter:  10  12:30:59         -2.97  -184.681258    3      1
iter:  11  12:30:59         -3.42  -184.679030    2      1
iter:  12  12:31:00         -3.53  -184.680152    3      1
iter:  13  12:31:00         -3.21  -184.680107    3      1
iter:  14  12:31:01         -4.11  -184.679799    2      1

Converged after 14 iterations.

Dipole moment: (-0.325388, -0.347133, -0.022652) |e|*Ang

Energy contributions relative to reference atoms: (reference = -24663.074771)

Kinetic:       +116.003749
Potential:     -124.007878
External:        +0.000000
XC:            -179.520504
Entropy (-ST):   -0.296492
Local:           +2.993081
Free energy:   -184.828045
Extrapolated:  -184.679799

Fermi level: -4.44657

 Band  Eigenvalues  Occupancy
    0    -22.96740    2.00000
    1    -22.51356    2.00000
    2    -21.55839    2.00000
    3    -21.10048    2.00000
    4    -20.47386    2.00000
    5    -20.42221    2.00000
    6    -19.56828    2.00000
    7    -19.29330    2.00000
    8    -18.37031    2.00000
    9    -18.17599    2.00000
   10    -18.08690    2.00000
   11    -16.96107    2.00000
   12    -16.50444    2.00000
   13    -16.10574    2.00000
   14    -15.51105    2.00000
   15    -14.68252    2.00000
   16    -14.64988    2.00000
   17    -13.66999    2.00000
   18    -13.43834    2.00000
   19    -12.91367    2.00000
   20    -12.77794    2.00000
   21    -12.18398    2.00000
   22    -12.01611    2.00000
   23    -11.10006    2.00000
   24    -10.90186    2.00000
   25    -10.74262    2.00000
   26    -10.65021    2.00000
   27    -10.55173    2.00000
   28     -9.98425    2.00000
   29     -9.81311    2.00000
   30     -9.61332    2.00000
   31     -9.52568    2.00000
   32     -9.25263    2.00000
   33     -8.75096    2.00000
   34     -8.41409    2.00000
   35     -8.31279    2.00000
   36     -7.25983    2.00000
   37     -7.15605    2.00000
   38     -7.04047    2.00000
   39     -6.95986    2.00000
   40     -6.59482    2.00000
   41     -6.46713    2.00000
   42     -6.34815    2.00000
   43     -6.17429    2.00000
   44     -6.13929    2.00000
   45     -5.13740    1.99800
   46     -4.65784    1.78426
   47     -4.58127    1.58728
   48     -4.36899    0.63042
   49     -3.32183    0.00003
   50     -3.22493    0.00001
   51     -2.85562    0.00000
   52     -2.83531    0.00000
   53     -2.47654    0.00000
   54     -2.39497    0.00000
   55     -2.04362    0.00000
   56     -1.23205    0.00000
   57     -1.11715    0.00000
   58     -0.68930    0.00000
   59      0.51792    0.00000
[...]
   83      8.90908    0.00000
   84      8.95065    0.00000
   85      9.14734    0.00000
   86      9.23391    0.00000
   87      9.41103    0.00000
   88      9.45908    0.00000
   89      9.53718    0.00000
   90      9.63534    0.00000
   91      9.68018    0.00000
   92      9.83778    0.00000
   93     10.04470    0.00000
   94     10.15401    0.00000
   95     10.38827    0.00000
   96     10.46094    0.00000
   97     10.58015    0.00000

Forces in eV/Ang:
  0 C    -0.06516    0.06051   -0.03726
  1 C     0.01552   -0.01035    0.00188
  2 C    -0.00056    0.01458    0.01086
  3 C     0.06738    0.00355    0.00565
  4 C     0.00327   -0.02136    0.01278
  5 C     0.02813    0.03607    0.01440
  6 C    -0.02094   -0.02051   -0.03243
  7 C     0.02469    0.01842    0.00281
  8 C    -0.01611   -0.00895   -0.01185
  9 C    -0.00654   -0.00349    0.01095
 10 C     0.01458    0.00454   -0.01740
 11 C    -0.00115   -0.01124    0.04533
 12 C     0.00337   -0.02748    0.06419
 13 C    -0.01768    0.04606    0.02481
 14 C    -0.02012    0.02514    0.04218
 15 C     0.00558   -0.02206    0.00679
 16 C     0.00359   -0.02882   -0.01798
 17 C     0.01163   -0.01061   -0.06936
 18 C     0.00789    0.00002    0.00017
 19 C    -0.00469    0.02423    0.05379
 20 C    -0.02897   -0.01490   -0.02461
 21 C    -0.01356    0.00579   -0.01324
 22 C     0.00895    0.04360   -0.06471
 23 C    -0.00448    0.02974   -0.00251