User:   esb@s65n22.grendel.cscaa.dk
Date:   Thu Nov  9 09:32:28 2017
Arch:   x86_64
Pid:    67228
Python: 2.7.13
gpaw:   /home/esb/DFT/gpaw_git/gpaw
_gpaw:  /home/esb/DFT/gpaw_git/build/bin.linux-x86_64-2.7/gpaw-python
ase:    /home/esb/DFT/ase_git/ase (version 3.15.0b1)
numpy:  /comm/swstack/core/python/2.7.13/lib/python2.7/site-packages/numpy (version 1.13.3)
scipy:  /comm/swstack/core/python/2.7.13/lib/python2.7/site-packages/scipy (version 0.19.1)
units:  Angstrom and eV
cores:  16
Extra parameters: {'blacs': True}

Input parameters:
  basis: dzp
  gpts: [80 80 48]
  kpts: [1 1 1]
  maxiter: 99
  mixer: {backend: pulay,
          beta: 0.05,
          method: separate,
          nmaxold: 5,
          weight: 75}
  mode: lcao
  nbands: -50
  occupations: {name: fermi-dirac,
                width: 0.1}
  poissonsolver: {eps: 1e-07,
                  name: fd,
                  nn: 3,
                  relax: GS}
  xc: PBE

System changes: positions, numbers, cell, pbc, initial_charges, initial_magmoms

Initialize ...

C-setup:
  name: Carbon
  id: 4aa54d4b901d75f77cc0ea3eec22967b
  Z: 6
  valence: 4
  core: 2
  charge: 0.0
  file: /home/esb/DFT/gpaw-setups-0.8.7929/C.PBE.gz
  cutoffs: 0.64(comp), 1.14(filt), 1.14(core), lmax=2
  valence states:
                energy  radius
    2s(2.00)   -13.751   0.635
    2p(2.00)    -5.284   0.635
    *s          13.461   0.635
    *p          21.927   0.635
    *d           0.000   0.635

  LCAO basis set for C:
    Name: dzp
    File: /home/esb/DFT/gpaw-setups-0.8.7929/C.dzp.basis.gz
    Number of radial functions: 5
    Number of spherical harmonics: 13
      l=0, rc=5.5469 Bohr: 2s-sz confined orbital
      l=1, rc=6.6719 Bohr: 2p-sz confined orbital
      l=0, rc=3.0312 Bohr: 2s-dz split-valence wave
      l=1, rc=3.7500 Bohr: 2p-dz split-valence wave
      l=2, rc=6.6719 Bohr: d-type Gaussian polarization

Reference energy: -24663.074771

Spin-paired calculation

Occupation numbers:
  Fermi-Dirac: width=0.1000 eV

Convergence criteria:
  Maximum total energy change: 0.0005 eV / electron
  Maximum integral of absolute density change: 0.0001 electrons
  Maximum integral of absolute eigenstate change: 4e-08 eV^2
  Maximum number of iterations: 99

Symmetries present (total): 1

  ( 1  0  0)
  ( 0  1  0)
  ( 0  0  1)

1 k-point (Gamma)
1 k-point in the irreducible part of the Brillouin zone
       k-points in crystal coordinates                weights
   0:     0.00000000    0.00000000    0.00000000          1/1

Wave functions: LCAO
  Diagonalizer: Serial LAPACK
  Atomic Correction: dense with blas
  Datatype: float
  Eigensolver: None

LCAO using direct dense diagonalizer

Densities:
  Coarse grid: 80*80*48 grid
  Fine grid: 160*160*96 grid
  Total Charge: 0.000000

Density mixing:
  Method: separate
  Backend: pulay
  Linear mixing parameter: 0.05
  Mixing with 5 old densities
  Damping of long wave oscillations: 75

Hamiltonian:
  XC and Coulomb potentials evaluated on a 160*160*96 grid
  Using the PBE Exchange-Correlation functional
  Interpolation: tri-quintic (5. degree polynomial)
  Poisson solver: Gauss-Seidel solver with 6 multi-grid levels
    Coarsest grid: 5 x 5 x 3 points
    Stencil: 6*3+1=19 point O(h^6) finite-difference Laplacian
    Max iterations: 1000
    Tolerance: 1.000000e-07

Total number of cores used: 16
Domain decomposition: 2 x 4 x 2

Number of atoms: 24
Number of atomic orbitals: 312
Number of bands in calculation: 98
Bands to converge: occupied states only
Number of valence electrons: 96

... initialized

Initializing position-dependent things.

Density initialized from atomic densities
  /        |     C  C         C                   |
 *         |    C          C    C  C              |
 |         |        C  C  C  C    C               |
 |         .------C------C---C--C-----------------.
 |        /         C        C                   /
 |       /         CC     C                     /
 |      /              C                       /

Positions:
   0 C      5.945653    7.408359    5.690607
   1 C      8.324622    6.625510    4.969951
   2 C      6.542179    5.285819    4.384965
   3 C      5.564648    5.936087    5.296974
   4 C     10.200646    9.828596    4.916491
   5 C      9.381889    8.589747    4.859864
   6 C      9.628146    7.171908    5.001978
   7 C      9.242723   10.874408    4.785717
   8 C      6.173700    6.615899    3.877040
   9 C      8.008354    8.889651    4.693992
  10 C      7.234121    7.644537    4.809608
  11 C      7.910171   10.371894    4.735445
  12 C     11.575147    9.549582    5.005885
  13 C      3.768232   11.167211    4.941976
  14 C      8.506659    2.388800    4.957102
  15 C     11.696070    7.853692    4.825233
  16 C      9.563954    3.231182    5.000110
  17 C      6.333306    3.694741    4.806192
  18 C      3.669239    9.889271    4.986511
  19 C     10.182441    4.327776    4.981103
  20 C      7.271866    2.728715    4.867123
  21 C      4.754116   12.072949    4.918193
  22 C     11.085112    6.648478    4.874300
  23 C     10.027241    5.726528    4.910660

Unit cell:
           periodic     x           y           z      points  spacing
  1. axis:    yes   16.000000    0.000000    0.000000    80     0.2000
  2. axis:    yes    0.000000   16.000000    0.000000    80     0.2000
  3. axis:    yes    0.000000    0.000000   10.000000    48     0.2083

Effective grid spacing dv^(1/3) = 0.2027

                     log10-error:    total        iterations:
           time      wfs    density  energy       fermi  poisson
iter:   1  09:32:30          +inf  -163.699394    2      6
iter:   2  09:32:30         -0.91  -162.767713    3      3
iter:   3  09:32:31         -0.95  -161.515212    4      3
iter:   4  09:32:32         -1.04  -160.646065    34     4
iter:   5  09:32:32         -1.28  -160.475122    4      3
iter:   6  09:32:33         -1.39  -160.434770    4      3
iter:   7  09:32:33         -1.59  -160.382696    3      3
iter:   8  09:32:34         -1.79  -160.355212    3      2
iter:   9  09:32:34         -1.89  -160.341169    3      3
iter:  10  09:32:35         -2.03  -160.333939    4      2
iter:  11  09:32:35         -2.24  -160.318822    3      2
iter:  12  09:32:36         -2.46  -160.318331    3      2
iter:  13  09:32:36         -2.59  -160.318295    3      2
iter:  14  09:32:37         -2.69  -160.318711    3      2
iter:  15  09:32:37         -2.83  -160.318046    3      2
iter:  16  09:32:38         -2.97  -160.317538    2      2
iter:  17  09:32:38         -3.40  -160.316008    2      1
iter:  18  09:32:39         -3.54  -160.314720    2      1
iter:  19  09:32:39         -3.63  -160.314162    2      1
iter:  20  09:32:40         -3.76  -160.313866    2      1
iter:  21  09:32:40         -3.87  -160.313930    2      1
iter:  22  09:32:40         -3.97  -160.314807    2      1
iter:  23  09:32:41         -4.02  -160.314878    2      1

Converged after 23 iterations.

Dipole moment: (0.223303, -0.573605, 0.021121) |e|*Ang

Energy contributions relative to reference atoms: (reference = -24663.074771)

Kinetic:        +77.018751
Potential:      -84.768661
External:        +0.000000
XC:            -155.225710
Entropy (-ST):   -0.370808
Local:           +2.846146
Free energy:   -160.500282
Extrapolated:  -160.314878

Fermi level: -4.73040

 Band  Eigenvalues  Occupancy
    0    -24.65686    2.00000
    1    -23.01648    2.00000
    2    -22.13985    2.00000
    3    -20.89612    2.00000
    4    -20.61032    2.00000
    5    -20.00283    2.00000
    6    -19.56504    2.00000
    7    -18.90404    2.00000
    8    -18.43174    2.00000
    9    -17.78012    2.00000
   10    -17.43812    2.00000
   11    -16.28198    2.00000
   12    -16.10490    2.00000
   13    -15.88507    2.00000
   14    -15.24905    2.00000
   15    -14.89014    2.00000
   16    -14.09469    2.00000
   17    -13.46995    2.00000
   18    -13.25331    2.00000
   19    -12.65015    2.00000
   20    -12.27243    2.00000
   21    -11.39083    2.00000
   22    -11.22176    2.00000
   23    -10.76061    2.00000
   24    -10.25094    2.00000
   25    -10.11508    2.00000
   26     -9.84155    2.00000
   27     -9.55852    2.00000
   28     -9.23678    2.00000
   29     -9.00691    2.00000
   30     -8.86731    2.00000
   31     -8.55851    2.00000
   32     -8.29118    2.00000
   33     -8.12764    2.00000
   34     -7.44779    2.00000
   35     -7.33340    2.00000
   36     -7.31883    2.00000
   37     -6.99916    2.00000
   38     -6.56965    2.00000
   39     -6.40827    2.00000
   40     -6.16601    2.00000
   41     -5.98334    1.99999
   42     -5.83062    1.99997
   43     -5.58950    1.99963
   44     -5.39519    1.99741
   45     -5.09412    1.94869
   46     -4.97433    1.83954
   47     -4.79928    1.33136
   48     -4.69715    0.83523
   49     -4.33766    0.03863
   50     -4.19026    0.00898
   51     -3.90965    0.00055
   52     -3.52003    0.00001
   53     -3.49134    0.00001
   54     -3.38358    0.00000
   55     -2.90986    0.00000
   56     -2.60193    0.00000
   57     -1.95914    0.00000
   58     -1.37129    0.00000
   59     -1.26918    0.00000
[...]
   83      7.89703    0.00000
   84      8.11443    0.00000
   85      8.41938    0.00000
   86      8.49577    0.00000
   87      8.67744    0.00000
   88      8.89480    0.00000
   89      8.98171    0.00000
   90      9.19189    0.00000
   91      9.32334    0.00000
   92      9.39222    0.00000
   93      9.52508    0.00000
   94      9.59369    0.00000
   95      9.78029    0.00000
   96      9.85459    0.00000
   97     10.12369    0.00000

Forces in eV/Ang:
  0 C    -0.43711   -3.64767   -2.77135
  1 C    -2.26656   -1.38760    0.65551
  2 C    -1.61072   -5.38903    3.44980
  3 C     2.12657    4.96989    0.57473
  4 C     1.64127   -0.62769    0.04736
  5 C    -0.87192    0.28537   -0.30779
  6 C    -3.25707    3.44598   -0.21524
  7 C    -3.91242   -1.96864    0.03857
  8 C    -0.45730    1.10959    0.41467
  9 C    -1.38342    1.36420    0.26710
 10 C    -0.39498   -0.83841    0.75799
 11 C     3.91656    0.22843   -0.07079
 12 C     0.49404   -4.87650   -0.57852
 13 C     0.84490    3.46039   -0.07414
 14 C     2.54550   -0.31300    0.31990
 15 C    -0.21559    3.34941    0.48225
 16 C    -2.05144   -1.96644    0.05221
 17 C     1.72425    2.37092   -2.40620
 18 C    -0.24687   -3.05860    0.05638
 19 C    -0.50613    2.82538   -0.07308
 20 C    -2.10585    2.90862   -0.38243
 21 C    -0.50400   -0.51924   -0.00923
 22 C     2.42870    2.59234    0.12581
 23 C     4.48972   -4.40581   -0.28944

System changes: positions

[...]

Density initialized from wave functions
  /        |     C  C         C                   |
 *         |    C          C    C  C              |
 |         |        C  C  C  C    C               |
 |         .------C------C---C--C-----------------.
 |        /         C        C                   /
 |       /         CC     C                     /
 |      /              C                       /

[...]

Density initialized from wave functions
  /        |     C  C         C                   |
 *         |    C          C    C  C              |
[...]
   /       |           C     C                    |
  /        |              C                       |
 *         |                   C  C               |
 |         |          C  C  C     C               |
 |         .------CC--------C--C------------------.
 |        /        C    C      C                 /
 |       /         C CC    C C                  /
 |      /               C                      /

[...]

Density initialized from wave functions
     /     |      C                               |
    /      |         C                            |
   /       |           C     C                    |
  /        |              C                       |
 *         |                   C  C               |
 |         |          C  C  C     C               |
 |         .------CC--------C--C------------------.
 |        /        C    C      C                 /
 |       /         C CC    C C                  /
 |      /               C                      /

[...]

Density initialized from wave functions
     /     |       C                              |
    /      |         C                            |
   /       |           C     C                    |
  /        |              C                       |
 *         |                   C  C               |
 |         |       C  C  C  C     C               |
 |         .------C---------C--C------------------.
 |        /        C    C      C                 /
 |       /         C CC    C C                  /
 |      /               C                      /

[...]

Density initialized from wave functions
     /     |       C                              |
    /      |         C                            |
   /       |           C     C                    |
  /        |              C                       |
 *         |                   C C                |
 |         |       C  C  C  C                     |
 |         .-----C----------C--C--C---------------.
 |        /        C    C      C                 /
 |       /         C CC    C C                  /
 |      /               C                      /

[...]

Density initialized from wave functions
     /     |       C                              |
    /      |         C                            |
   /       |           C     C                    |
  /        |              C                       |
 *         |                   C C                |
 |         |       C  C  C  C                     |
 |         .-----C----------C--C--C---------------.
 |        /        C    C     C                  /
 |       /         C CC    C C                  /
 |      /               C                      /

[...]

Density initialized from wave functions
     /     |       C                              |
    /      |         C                            |
   /       |           C     C                    |
  /        |              C                       |
 *         |                   C C                |
 |         |       C  C  C  C                     |
 |         .-----C----------C-----C---------------.
 |        /        C    C     CC                 /
 |       /         C CC      C                  /
 |      /               C  C                   /

[...]

Density initialized from wave functions
     /     |       C                              |
    /      |         C                            |
   /       |           C     C                    |
  /        |              C                       |
 *         |                   C C                |
 |         |       C  C  C  C                     |
 |         .-----C----------C-----C---------------.
 |        /        C    C     CC                 /
 |       /         C CC      C                  /
 |      /               C  C                   /

[...]

Density initialized from wave functions
     /     |       C                              |
    /      |         C                            |
   /       |           C                          |
  /        |              C  C                    |
 *         |                   C C                |
 |         |       C  C  C  C                     |
 |         .-----C----------C-----C---------------.
 |        /        C    C     CC                 /
 |       /         C CC      C                  /
 |      /               C  C                   /

[...]

Density initialized from wave functions
     /     |       C                              |
    /      |         C                            |
   /       |           C                          |
  /        |              C  C                    |
 *         |                   C                  |
 |         |       C  C  C  C    C                |
 |         .-----C----------C-----C---------------.
 |        /        C    C     CC                 /
 |       /         C CC      C                  /
 |      /               C  C                   /

[...]

Density initialized from wave functions
     /     |       C                              |
    /      |         C                            |
   /       |           C                          |
  /        |              C  C                    |
 *         |             C     C                  |
 |         |       C  C     C    C                |
 |         .-----C----------C-----C---------------.
 |        /        C    C     CC                 /
 |       /         C CC      C                  /
 |      /               C  C                   /

[...]

Density initialized from wave functions
     /     |       C                              |
    /      |         C                            |
   /       |           C                          |
  /        |              C  C                    |
 *         |             C     C                  |
 |         |       C  C     C    C                |
 |         .-----C----------C-----C---------------.
 |        /        C    C      C                 /
 |       /        C  CC      CC                 /
 |      /               C  C                   /

[...]

Density initialized from wave functions
     /     |       C                              |
    /      |         C                            |
   /       |           C                          |
  /        |              C  C                    |
 *         |             C     C                  |
 |         |       C  C     C    C                |
 |         .-----C----------C-----C---------------.
 |        /        C    C      C                 /
 |       /        C  CC      CC                 /
 |      /               C  C                   /

[...]

Density initialized from wave functions
     /     |       C                              |
    /      |         C                            |
   /       |            C                         |
  /        |              C  C                    |
 *         |             C     C                  |
 |         |       C  C     C    C                |
 |         .-----C----------C----C----------------.
 |        /        C    C      C                 /
 |       /        C  CC      CC                 /
 |      /               C  C                   /

[...]

Density initialized from wave functions
     /     |       C                              |
    /      |          C                           |
   /       |            C                         |
  /        |              C  C                    |
 *         |             C     C                  |
 |         |       C  C     C    C                |
 |         .-----C----------C----C----------------.
 |        /        C    C      C                 /
 |       /        C  CC      CC                 /
 |      /               C  C                   /

[...]

Density initialized from wave functions
     /     |        C                             |
    /      |          C                           |
   /       |            C                         |
  /        |              C  C                    |
 *         |             C     C                  |
 |         |       C  C     C    C                |
 |         .-----C----------C----C----------------.
 |        /        C    C      C                 /
 |       /        C   C      CC                 /
 |      /           C   C  C                   /

[...]

Density initialized from wave functions
     /     |       C                              |
    /      |          C                           |
   /       |            C                         |
  /        |              C  C                    |
 *         |             C     C                  |
 |         |       C  C     C    C                |
 |         .-----C----------C----C----------------.
 |        /        C    C      C                 /
 |       /        C C C      CC                 /
 |      /               C  C                   /

[...]

Density initialized from wave functions
     /     |        C                             |
    /      |          C                           |
   /       |            C                         |
  /        |              C  C                    |
 *         |             C     C                  |
 |         |       C  C     C    C                |
 |         .-----C----------C----C----------------.
 |        /        C    C      C                 /
 |       /        C   C      CC                 /
 |      /           C   C  C                   /

[...]

Density initialized from wave functions
     /     |        C                             |
    /      |          C                           |
   /       |            C                         |
  /        |              C  C                    |
 *         |             C     C                  |
 |         |       C  C     C    C                |
 |         .-----C------C---C----C----------------.
 |        /        C           C                 /
 |       /        C   C      CC                 /
 |      /           C   C  C                   /

[...]

System changes: positions

Initializing position-dependent things.

Density initialized from wave functions
     /     |        C                             |
    /      |          C                           |
   /       |            C                         |
  /        |              C  C                    |
 *         |             C     C                  |
 |         |       C  C     C    C                |
 |         .-----C------C---C----C----------------.
 |        /        C           C                 /
 |       /        C   C      CC                 /
 |      /           C  C  C                    /

Positions:
   0 C      5.406943    7.112275    5.210830
   1 C      7.690385    6.685869    4.443139
   2 C      6.053528    4.801223    4.688990
   3 C      7.264395    5.409914    4.246684
   4 C      9.630305    9.784667    4.910019
   5 C      8.710927    8.705130    4.593874
   6 C      8.991050    7.356525    4.298966
   7 C      8.882643   10.719113    5.663291
   8 C      5.183063    5.855520    5.057006
   9 C      7.361871    8.958439    5.001963
  10 C      6.675359    7.706254    4.982019
  11 C      7.452870   10.322584    5.599015
  12 C     10.913654    9.234089    4.629098
  13 C      5.469296   11.692349    6.697611
  14 C      8.596880    2.471519    4.600512
  15 C     11.242735    8.061717    4.277625
  16 C      9.636762    3.160344    4.360098
  17 C      6.248449    3.392006    4.859769
  18 C      4.496029   12.342650    7.318557
  19 C     10.324720    4.304264    4.167023
  20 C      7.271272    2.640804    4.789294
  21 C      6.440557   11.022550    6.157618
  22 C     10.363268    6.919611    4.160638
  23 C     10.607205    5.530128    4.074114

Unit cell:
           periodic     x           y           z      points  spacing
  1. axis:    yes   16.000000    0.000000    0.000000    80     0.2000
  2. axis:    yes    0.000000   16.000000    0.000000    80     0.2000
  3. axis:    yes    0.000000    0.000000   10.000000    48     0.2083

Effective grid spacing dv^(1/3) = 0.2027

                     log10-error:    total        iterations:
           time      wfs    density  energy       fermi  poisson
iter:   1  10:14:07          +inf  -180.563337    3      4
iter:   2  10:14:08         -2.51  -180.554349    2      1
iter:   3  10:14:08         -2.96  -180.553290    2      1
iter:   4  10:14:09         -3.17  -180.554965    2      1
iter:   5  10:14:09         -3.04  -180.556140    2      1
iter:   6  10:14:10         -2.60  -180.554220    2      1
iter:   7  10:14:10         -2.62  -180.559413    2      2
iter:   8  10:14:11         -2.67  -180.556427    2      1
iter:   9  10:14:11         -2.95  -180.553663    2      1
iter:  10  10:14:12         -3.34  -180.553738    2      1
iter:  11  10:14:12         -3.52  -180.553653    2      1
iter:  12  10:14:13         -3.77  -180.553140    2      1
iter:  13  10:14:13         -3.50  -180.553435    2      1
iter:  14  10:14:14         -3.69  -180.553217    2      1
iter:  15  10:14:14         -3.80  -180.553192    2      1
iter:  16  10:14:15         -4.31  -180.553291    2      1

Converged after 16 iterations.

Dipole moment: (0.403847, -0.702384, -0.350666) |e|*Ang

Energy contributions relative to reference atoms: (reference = -24663.074771)

Kinetic:       +109.522460
Potential:     -119.040965
External:        +0.000000
XC:            -173.917256
Entropy (-ST):   -0.282307
Local:           +3.023625
Free energy:   -180.694444
Extrapolated:  -180.553291

Fermi level: -4.62344

 Band  Eigenvalues  Occupancy
    0    -22.88433    2.00000
    1    -21.61426    2.00000
    2    -21.22345    2.00000
    3    -20.79515    2.00000
    4    -20.28879    2.00000
    5    -20.18360    2.00000
    6    -19.50088    2.00000
    7    -19.07227    2.00000
    8    -18.49116    2.00000
    9    -18.06663    2.00000
   10    -17.59807    2.00000
   11    -17.34155    2.00000
   12    -16.84981    2.00000
   13    -15.97928    2.00000
   14    -15.70048    2.00000
   15    -14.93134    2.00000
   16    -14.57638    2.00000
   17    -14.00297    2.00000
   18    -13.76013    2.00000
   19    -13.17318    2.00000
   20    -12.52013    2.00000
   21    -12.22180    2.00000
   22    -12.02034    2.00000
   23    -10.98279    2.00000
   24    -10.95554    2.00000
   25    -10.53662    2.00000
   26    -10.31257    2.00000
   27     -9.81470    2.00000
   28     -9.57859    2.00000
   29     -9.38498    2.00000
   30     -9.27289    2.00000
   31     -9.10611    2.00000
   32     -9.03591    2.00000
   33     -8.26432    2.00000
   34     -8.04537    2.00000
   35     -8.01532    2.00000
   36     -7.51963    2.00000
   37     -7.22897    2.00000
   38     -6.74855    2.00000
   39     -6.46729    2.00000
   40     -6.44117    2.00000
   41     -6.30896    2.00000
   42     -6.08025    2.00000
   43     -5.82473    1.99999
   44     -5.65016    1.99993
   45     -5.19594    1.99349
   46     -4.95452    1.92959
   47     -4.74312    1.53590
   48     -4.50684    0.47515
   49     -4.28456    0.06530
   50     -3.82071    0.00065
   51     -3.09492    0.00000
   52     -2.75170    0.00000
   53     -2.54864    0.00000
   54     -2.19688    0.00000
   55     -2.09877    0.00000
   56     -1.75866    0.00000
   57     -0.70596    0.00000
   58     -0.29366    0.00000
   59     -0.16260    0.00000
[...]
   83      8.85499    0.00000
   84      9.04018    0.00000
   85      9.16135    0.00000
   86      9.35342    0.00000
   87      9.40955    0.00000
   88      9.55960    0.00000
   89      9.66244    0.00000
   90      9.79878    0.00000
   91      9.83969    0.00000
   92      9.99022    0.00000
   93     10.16065    0.00000
   94     10.18246    0.00000
   95     10.21973    0.00000
   96     10.39536    0.00000
   97     10.40786    0.00000

Forces in eV/Ang:
  0 C     0.04598    0.02475    0.00481
  1 C    -0.01044    0.05563    0.00913
  2 C     0.01013   -0.01387    0.00883
  3 C     0.00419   -0.01306   -0.00827
  4 C     0.01189   -0.01399   -0.01516
  5 C     0.00288   -0.00439    0.01692
  6 C    -0.01408   -0.03651   -0.02338
  7 C     0.03245    0.05139    0.02818
  8 C    -0.01177   -0.04322    0.01456
  9 C     0.04691   -0.05549    0.01803
 10 C     0.00695    0.00116   -0.00773
 11 C     0.00451   -0.02181   -0.00983
 12 C    -0.03005    0.04203   -0.01789
 13 C    -0.00823   -0.02095    0.00274
 14 C    -0.02562   -0.06669   -0.00153
 15 C    -0.00492   -0.04569   -0.00686
 16 C     0.04558    0.03536   -0.00575
 17 C    -0.03825    0.04739   -0.01313
 18 C    -0.00616    0.02217   -0.01026
 19 C    -0.00465    0.02387    0.00089
 20 C    -0.04375    0.01616   -0.01449
 21 C    -0.03893    0.01961    0.03482
 22 C    -0.00325   -0.03728    0.00158
 23 C    -0.02850    0.02374    0.02540