User:   esb@s65n12.grendel.cscaa.dk
Date:   Thu Nov  9 10:43:00 2017
Arch:   x86_64
Pid:    19950
Python: 2.7.13
gpaw:   /home/esb/DFT/gpaw_git/gpaw
_gpaw:  /home/esb/DFT/gpaw_git/build/bin.linux-x86_64-2.7/gpaw-python
ase:    /home/esb/DFT/ase_git/ase (version 3.15.0b1)
numpy:  /comm/swstack/core/python/2.7.13/lib/python2.7/site-packages/numpy (version 1.13.3)
scipy:  /comm/swstack/core/python/2.7.13/lib/python2.7/site-packages/scipy (version 0.19.1)
units:  Angstrom and eV
cores:  16
Extra parameters: {'blacs': True}

Input parameters:
  basis: dzp
  gpts: [80 80 48]
  kpts: [1 1 1]
  maxiter: 99
  mixer: {backend: pulay,
          beta: 0.05,
          method: separate,
          nmaxold: 5,
          weight: 75}
  mode: lcao
  nbands: -50
  occupations: {name: fermi-dirac,
                width: 0.1}
  poissonsolver: {eps: 1e-07,
                  name: fd,
                  nn: 3,
                  relax: GS}
  xc: PBE

System changes: positions, numbers, cell, pbc, initial_charges, initial_magmoms

Initialize ...

C-setup:
  name: Carbon
  id: 4aa54d4b901d75f77cc0ea3eec22967b
  Z: 6
  valence: 4
  core: 2
  charge: 0.0
  file: /home/esb/DFT/gpaw-setups-0.8.7929/C.PBE.gz
  cutoffs: 0.64(comp), 1.14(filt), 1.14(core), lmax=2
  valence states:
                energy  radius
    2s(2.00)   -13.751   0.635
    2p(2.00)    -5.284   0.635
    *s          13.461   0.635
    *p          21.927   0.635
    *d           0.000   0.635

  LCAO basis set for C:
    Name: dzp
    File: /home/esb/DFT/gpaw-setups-0.8.7929/C.dzp.basis.gz
    Number of radial functions: 5
    Number of spherical harmonics: 13
      l=0, rc=5.5469 Bohr: 2s-sz confined orbital
      l=1, rc=6.6719 Bohr: 2p-sz confined orbital
      l=0, rc=3.0312 Bohr: 2s-dz split-valence wave
      l=1, rc=3.7500 Bohr: 2p-dz split-valence wave
      l=2, rc=6.6719 Bohr: d-type Gaussian polarization

Reference energy: -24663.074771

Spin-paired calculation

Occupation numbers:
  Fermi-Dirac: width=0.1000 eV

Convergence criteria:
  Maximum total energy change: 0.0005 eV / electron
  Maximum integral of absolute density change: 0.0001 electrons
  Maximum integral of absolute eigenstate change: 4e-08 eV^2
  Maximum number of iterations: 99

Symmetries present (total): 1

  ( 1  0  0)
  ( 0  1  0)
  ( 0  0  1)

1 k-point (Gamma)
1 k-point in the irreducible part of the Brillouin zone
       k-points in crystal coordinates                weights
   0:     0.00000000    0.00000000    0.00000000          1/1

Wave functions: LCAO
  Diagonalizer: Serial LAPACK
  Atomic Correction: dense with blas
  Datatype: float
  Eigensolver: None

LCAO using direct dense diagonalizer

Densities:
  Coarse grid: 80*80*48 grid
  Fine grid: 160*160*96 grid
  Total Charge: 0.000000

Density mixing:
  Method: separate
  Backend: pulay
  Linear mixing parameter: 0.05
  Mixing with 5 old densities
  Damping of long wave oscillations: 75

Hamiltonian:
  XC and Coulomb potentials evaluated on a 160*160*96 grid
  Using the PBE Exchange-Correlation functional
  Interpolation: tri-quintic (5. degree polynomial)
  Poisson solver: Gauss-Seidel solver with 6 multi-grid levels
    Coarsest grid: 5 x 5 x 3 points
    Stencil: 6*3+1=19 point O(h^6) finite-difference Laplacian
    Max iterations: 1000
    Tolerance: 1.000000e-07

Total number of cores used: 16
Domain decomposition: 2 x 4 x 2

Number of atoms: 24
Number of atomic orbitals: 312
Number of bands in calculation: 98
Bands to converge: occupied states only
Number of valence electrons: 96

... initialized

Initializing position-dependent things.

Density initialized from atomic densities
   /       |            C                         |
  /       C|         C   C                    C   |
 *         | C C          C                       |
 |         |      C   C  C C                      |
 |         .--CC--C-----C-------------------------.
 |        /   C        C       C                 /
 |       /      C        C  C                   /
 |      /          C  C                        /

Positions:
   0 C      7.567119    5.330725    4.779731
   1 C     11.052407    5.231061    4.462846
   2 C      8.668653    4.274082    4.628508
   3 C      7.906437    3.027591    4.639161
   4 C     10.005737    4.489879    4.508034
   5 C      7.625917    6.738184    4.833321
   6 C      6.612039    7.816023    4.912455
   7 C      7.656935   10.241733    4.775335
   8 C      7.654213    8.858196    4.828001
   9 C      6.312542   12.498341    4.745992
  10 C      5.041381   12.134258    4.838565
  11 C      8.701647    7.859182    4.774697
  12 C      7.079111   11.370885    4.744714
  13 C      6.741196    2.264913    5.007565
  14 C      4.608842    3.479230    5.519144
  15 C      5.475356    2.547808    5.380250
  16 C      4.277668    4.765506    5.438223
  17 C      5.062943    7.136226    4.972492
  18 C      4.278956    6.028984    5.283401
  19 C      4.733790    8.568184    4.941612
  20 C      1.043271    9.945784    5.354893
  21 C      3.472503    9.088549    5.173458
  22 C     15.796336   10.186026    5.302523
  23 C      2.310062    9.550679    5.322292

Unit cell:
           periodic     x           y           z      points  spacing
  1. axis:    yes   16.000000    0.000000    0.000000    80     0.2000
  2. axis:    yes    0.000000   16.000000    0.000000    80     0.2000
  3. axis:    yes    0.000000    0.000000   10.000000    48     0.2083

Effective grid spacing dv^(1/3) = 0.2027

                     log10-error:    total        iterations:
           time      wfs    density  energy       fermi  poisson
iter:   1  10:43:01          +inf  -173.943580    2      6
iter:   2  10:43:02         -0.88  -172.264484    3      3
iter:   3  10:43:02         -0.92  -169.848595    3      3
iter:   4  10:43:03         -1.03  -169.291212    4      3
iter:   5  10:43:03         -1.10  -168.561405    34     4
iter:   6  10:43:04         -1.38  -168.397703    3      2
iter:   7  10:43:04         -1.48  -168.419593    4      3
iter:   8  10:43:05         -1.63  -168.370900    3      3
iter:   9  10:43:05         -1.80  -168.349813    3      2
iter:  10  10:43:06         -1.89  -168.312294    3      3
iter:  11  10:43:06         -2.06  -168.309228    3      2
iter:  12  10:43:07         -2.23  -168.303943    3      2
iter:  13  10:43:07         -2.41  -168.300745    3      2
iter:  14  10:43:08         -2.66  -168.296639    3      2
iter:  15  10:43:08         -2.94  -168.299682    2      1
iter:  16  10:43:09         -3.05  -168.296875    2      1
iter:  17  10:43:09         -3.22  -168.290408    2      1
iter:  18  10:43:10         -3.35  -168.293110    2      1
iter:  19  10:43:10         -3.45  -168.292606    2      1
iter:  20  10:43:11         -3.57  -168.293025    2      1
iter:  21  10:43:11         -3.63  -168.295188    2      1
iter:  22  10:43:12         -3.78  -168.295448    2      1
iter:  23  10:43:12         -3.93  -168.294744    2      1
iter:  24  10:43:12         -4.26  -168.293986    2      1

Converged after 24 iterations.

Dipole moment: (13.193677, -1.337136, 0.141342) |e|*Ang

Energy contributions relative to reference atoms: (reference = -24663.074771)

Kinetic:        +79.678946
Potential:      -94.857591
External:        +0.000000
XC:            -155.829968
Entropy (-ST):   -0.343779
Local:           +2.886517
Free energy:   -168.465875
Extrapolated:  -168.293986

Fermi level: -5.12476

 Band  Eigenvalues  Occupancy
    0    -23.18439    2.00000
    1    -21.45874    2.00000
    2    -21.12625    2.00000
    3    -20.79367    2.00000
    4    -20.42817    2.00000
    5    -20.26577    2.00000
    6    -19.66208    2.00000
    7    -18.92324    2.00000
    8    -18.62259    2.00000
    9    -18.26384    2.00000
   10    -17.90494    2.00000
   11    -17.47179    2.00000
   12    -16.51049    2.00000
   13    -16.46129    2.00000
   14    -15.69810    2.00000
   15    -15.30645    2.00000
   16    -14.86454    2.00000
   17    -14.39536    2.00000
   18    -13.73093    2.00000
   19    -13.35324    2.00000
   20    -13.19843    2.00000
   21    -12.57737    2.00000
   22    -11.36417    2.00000
   23    -10.58760    2.00000
   24    -10.56920    2.00000
   25    -10.15830    2.00000
   26     -9.90139    2.00000
   27     -9.64106    2.00000
   28     -9.44082    2.00000
   29     -9.09548    2.00000
   30     -8.70166    2.00000
   31     -8.65740    2.00000
   32     -8.50289    2.00000
   33     -8.29698    2.00000
   34     -7.89306    2.00000
   35     -7.56023    2.00000
   36     -6.79317    2.00000
   37     -6.77889    2.00000
   38     -6.67845    2.00000
   39     -6.47136    2.00000
   40     -6.39123    1.99999
   41     -6.16122    1.99994
   42     -5.98797    1.99964
   43     -5.91070    1.99923
   44     -5.63789    1.98825
   45     -5.46024    1.93252
   46     -5.35374    1.81605
   47     -5.28008    1.65073
   48     -5.02527    0.53987
   49     -4.77738    0.06013
   50     -4.62513    0.01343
   51     -4.20624    0.00021
   52     -3.81366    0.00000
   53     -3.44464    0.00000
   54     -3.16822    0.00000
   55     -2.71421    0.00000
   56     -1.91156    0.00000
   57     -1.76647    0.00000
   58     -1.51444    0.00000
   59     -1.00597    0.00000
[...]
   83      8.03599    0.00000
   84      8.15095    0.00000
   85      8.35457    0.00000
   86      8.45816    0.00000
   87      8.47940    0.00000
   88      8.71791    0.00000
   89      8.91339    0.00000
   90      9.05704    0.00000
   91      9.20635    0.00000
   92      9.35890    0.00000
   93      9.46888    0.00000
   94      9.56841    0.00000
   95      9.60702    0.00000
   96      9.72123    0.00000
   97      9.81275    0.00000

Forces in eV/Ang:
  0 C     3.16765    1.47818   -0.22750
  1 C     1.51154    0.78146   -0.08695
  2 C    -3.40033    0.20499    0.33384
  3 C    -6.06166   -2.84569    2.06637
  4 C    -0.83008   -0.10093    0.04080
  5 C     0.52698   -4.27062   -0.22939
  6 C    -0.86690   -4.24389   -0.00422
  7 C     0.10564   -0.77045    0.04771
  8 C     0.58764    2.19563   -0.13825
  9 C    -0.20682   -0.87649    0.03295
 10 C    -0.25722    0.81370   -0.01045
 11 C    -1.28945   -0.49038    0.15211
 12 C    -0.09659    0.30459    0.03594
 13 C     5.53022    4.05812   -1.54649
 14 C    -0.55854   -0.11741    0.01352
 15 C     0.90859    0.25528   -0.44728
 16 C     0.47611   -0.98657    0.11880
 17 C     1.02379    5.66317    0.23348
 18 C     1.49575    0.65704   -0.45176
 19 C    -4.42903   -1.67788    0.79978
 20 C     3.55710   -0.81201    0.24079
 21 C     4.61547   -1.23561   -0.72169
 22 C    -3.18525    0.70531   -0.08231
 23 C    -2.32042    1.23889   -0.09300

System changes: positions

[...]

Density initialized from wave functions
   /       |            C                         |
  /       C|         C   C                    C   |
 *         | C C          C                       |
 |         |      C   C  C C                      |
 |         .--CC--C-----C-------------------------.
 |        /   C        C       C                 /
 |       /      C        C  C                   /
 |      /          C  C                        /

[...]

[...]
 |       /      C  C     C  C                   /
 |      /             C                        /

[...]

Density initialized from wave functions
   /       |         C                            |
  /      C |            CC                   C    |
 *         |C  C         C                        |
 |         |     C C  C  C C                      |
 |         .---C-C------C-------------------------.
 |        /   C         C      C                 /
 |       /      C  C     C  C                   /
 |      /             C                        /

[...]

Density initialized from wave functions
   /       |         C                            |
  /      C |            CC                   C    |
 *         |C  C         C                        |
 |         |     C C  C  C C                      |
 |         .---C-C------C-------------------------.
 |        /   C         C      C                 /
 |       /      C  C     C  C                   /
 |      /             C                        /

[...]

Density initialized from wave functions
   /       |         C                            |
  /       C|           C C                   C    |
 *         |C  C         C                        |
 |         |     C C  C  C C                      |
 |         .---C-C------C-------------------------.
 |        /   C         C      C                 /
 |       /      C  C     C  C                   /
 |      /             C                        /

[...]

Density initialized from wave functions
   /       |         C                            |
  /       C|           C C                   C    |
 *         |C  C         C                        |
 |         |     C C  C  C C                      |
 |         .---C-C------C-------------------------.
 |        /    C        C      C                 /
 |       /      C  C     C  C                   /
 |      /             C                        /

[...]

Density initialized from wave functions
   /       |         C                            |
  /       C|           CC                    C    |
 *         |C  C         C                        |
 |         |     C C  C  C C                      |
 |         .---CC-------C-------------------------.
 |        /    C        C      C                 /
 |       /      C  C  C  C  C                   /

[...]

Density initialized from wave functions
   /       |         C                            |
  /       C|           CC                    C    |
 *         |C  C         C                        |
 |         |     C C     C C                      |
 |         .---CC-----C-C-------------------------.
 |        /    C        C      C                 /
 |       /      C  C  C  C  C                   /

[...]

Density initialized from wave functions
   /       |         C                            |
  /       C|           CC                     C   |
 *         |C  C         C                        |
 |         |     C C     C C                      |
 |         .---C-C----C-C-------------------------.
 |        /    C        C      C                 /
 |       /      C  C  C  C  C                   /

[...]

Density initialized from wave functions
   /       |         C                            |
  /       C|           CC                     C   |
 *         |C  C         C                        |
 |         |     C C     C C                      |
 |         .---C-C----C-C-------------------------.
 |        /    C        C      C                 /
 |       /      C  C  C  C  C                   /

[...]

Density initialized from wave functions
   /       |         C                            |
  /       C|           CC                     C   |
 *         |C  C         C                        |
 |         |     C C     C C                      |
 |         .---C-C----C-C-------------------------.
 |        /    C        C      C                 /
 |       /      C  C     C  C                   /
 |      /             C                        /

[...]

Density initialized from wave functions
   /       |          C                           |
  /       C|           CC                     C   |
 *         |C  C         C                        |
 |         |     C C     C C                      |
 |         .---C-C----C-C-------------------------.
 |        /    C         C     C                 /
 |       /      C  C    C   C                   /
 |      /             C                        /

[...]

Density initialized from wave functions
   /       |          C                           |
  /       C|           CC                     C   |
 *         |C  C C       C                        |
 |         |       C     C C                      |
 |         .---C-C----C-C-------------------------.
 |        /    C         C     C                 /
 |       /      C  C    C   C                   /
 |      /             C                        /

[...]

Density initialized from wave functions
   /       |          C                           |
  /       C|          C C                     C   |
 *         |C  C C       C                        |
 |         |       C     C C                      |
 |         .---C-C----C-C-------------------------.
 |        /    C         C     C                 /
 |       /      C  C    C   C                   /
 |      /             C                        /

[...]

Density initialized from wave functions
   /       |          C                           |
  /       C|          C C                     C   |
 *         |C  C C       C                        |
 |         |       C     C C                      |
 |         .---C-C----C--C------------------------.
 |        /    C         C     C                 /
 |       /      C  C    C   C                   /
 |      /             C                        /

[...]

Density initialized from wave functions
   /       |          C                           |
  /       C|          CC                      C   |
 *         |C  C C       C                        |
 |         |       C     C C                      |
 |         .---C-C----C--C------------------------.
 |        /    C         C     C                 /
 |       /      C  C    C   C                   /
 |      /             C                        /

[...]

Density initialized from wave functions
   /       |          C                           |
  /       C|          C C                     C   |
 *         |C  C C       C                        |
 |         |       C     C C                      |
 |         .---C-C----C--C------------------------.
 |        /    C         C     C                 /
 |       /      C  C    C   C                   /
 |      /             C                        /

[...]

Density initialized from wave functions
   /       |          C                           |
  /       C|           CC                     C   |
 *         |C  C C       C                        |
 |         |       C     C C                      |
 |         .---C-C----C--C------------------------.
 |        /    C         C     C                 /
 |       /      C  C    C   C                   /
 |      /             C                        /

[...]

Density initialized from wave functions
   /       |          C                           |
  /       C|           CC                     C   |
 *         | C C C       C                        |
 |         |       C     C C                      |
 |         .---C-C----C--C------------------------.
 |        /    C         C     C                 /
 |       /      C  C    C   C                   /
 |      /             C                        /

[...]

Density initialized from wave functions
   /       |          C                           |
  /       C|           CC                     C   |
 *         | C C C       C                        |
 |         |       C     C C                      |
 |         .---C-C----C--C------------------------.
 |        /    C         C     C                 /
 |       /      C  C    C   C                   /
 |      /             C                        /

[...]

Density initialized from wave functions
   /       |          C                           |
  /       C|           CC                     C   |
 *         | C C         C                        |
 |         |     C C     C C                      |
 |         .---CC-----C--C------------------------.
 |        /    C         C     C                 /
 |       /      C  C    C   C                   /
 |      /             C                        /

[...]

Density initialized from wave functions
   /       |          C                           |
  /       C|           CC                     C   |
 *         | C C         C                        |
 |         |     C C     C C                      |
 |         .---CC-----C--C------------------------.
 |        /    C         C     C                 /
 |       /      C  C    C   C                   /
 |      /             C                        /

[...]

Density initialized from wave functions
   /       |          C                           |
  /       C|           CC                     C   |
 *         | C C         C                        |
 |         |     C C     C C                      |
 |         .---CC-----C--C------------------------.
 |        /    C         C     C                 /
 |       /      C       C   C                   /
 |      /          C  C                        /

[...]

Density initialized from wave functions
   /       |          C                           |
  /       C|           CC                     C   |
 *         | C C        C                         |
 |         |     C C     C C                      |
 |         .---CC-----C--C------------------------.
 |        /   C          C     C                 /
 |       /      C       C   C                   /
 |      /          C  C                        /

[...]

Density initialized from wave functions
   /       |          C                           |
  /       C|           C                      C   |
 *         | C C        C                         |
 |         |     C C     C C                      |
 |         .---CC-----C--C------------------------.
 |        /   C          C     C                 /
 |       /      C       C   C                   /
 |      /          C  C                        /

[...]

System changes: positions

Initializing position-dependent things.

Density initialized from wave functions
   /       |          C                           |
  /       C|           C                       C  |
 *         | C C        C                         |
 |         |     C C    C  C                      |
 |         .---CC-----C--C------------------------.
 |        /   C          C     C                 /
 |       /      C       C   C                   /
 |      /          C  C                        /

Positions:
   0 C      8.560751    5.338146    4.644503
   1 C     11.158827    5.080604    4.540595
   2 C      8.611891    3.962993    4.572915
   3 C      7.855757    2.809358    4.672574
   4 C      9.922957    4.591838    4.555188
   5 C      8.036130    6.607254    4.751238
   6 C      6.754134    7.338473    4.691943
   7 C      6.826762    9.872222    4.704803
   8 C      7.408707    8.640712    4.672065
   9 C      5.724115   12.232130    4.741648
  10 C      5.120765   13.393622    4.835924
  11 C      8.589391    7.893958    5.154909
  12 C      6.323188   11.047806    4.707725
  13 C      6.685071    2.408387    4.927842
  14 C      4.585981    3.437507    5.407976
  15 C      5.367860    2.453338    5.225906
  16 C      4.361790    4.763835    5.439608
  17 C      5.370734    7.205318    5.139835
  18 C      4.759583    5.951769    5.347739
  19 C      4.552235    8.329924    5.190991
  20 C      1.201665   10.298621    5.315517
  21 C      3.484614    9.038637    5.263286
  22 C     15.948008   10.723090    5.306948
  23 C      2.374488    9.721871    5.284255

Unit cell:
           periodic     x           y           z      points  spacing
  1. axis:    yes   16.000000    0.000000    0.000000    80     0.2000
  2. axis:    yes    0.000000   16.000000    0.000000    80     0.2000
  3. axis:    yes    0.000000    0.000000   10.000000    48     0.2083

Effective grid spacing dv^(1/3) = 0.2027

                     log10-error:    total        iterations:
           time      wfs    density  energy       fermi  poisson
iter:   1  10:50:51          +inf  -175.102911    2      5
iter:   2  10:50:52         -2.73  -175.101774    2      1
iter:   3  10:50:52         -2.86  -175.101138    2      1
iter:   4  10:50:53         -3.14  -175.101382    2      1
iter:   5  10:50:53         -3.39  -175.101357    1      1
iter:   6  10:50:54         -3.51  -175.101438    2      1
iter:   7  10:50:54         -3.70  -175.101469    2      1
iter:   8  10:50:55         -3.43  -175.101224    2      1
iter:   9  10:50:55         -3.90  -175.101305    2      1
iter:  10  10:50:55         -4.16  -175.101285    2      1

Converged after 10 iterations.

Dipole moment: (-2.904326, -2.236550, -0.070818) |e|*Ang

Energy contributions relative to reference atoms: (reference = -24663.074771)

Kinetic:       +103.728905
Potential:     -115.024939
External:        +0.000000
XC:            -166.722732
Entropy (-ST):   -0.130387
Local:           +2.982674
Free energy:   -175.166479
Extrapolated:  -175.101285

Fermi level: -4.85858

 Band  Eigenvalues  Occupancy
    0    -23.56842    2.00000
    1    -23.13484    2.00000
    2    -21.60276    2.00000
    3    -21.20875    2.00000
    4    -20.50072    2.00000
    5    -20.08385    2.00000
    6    -19.93514    2.00000
    7    -19.13623    2.00000
    8    -18.73634    2.00000
    9    -18.64809    2.00000
   10    -17.76740    2.00000
   11    -17.61569    2.00000
   12    -17.23203    2.00000
   13    -16.73586    2.00000
   14    -16.24391    2.00000
   15    -15.72679    2.00000
   16    -15.36866    2.00000
   17    -14.76013    2.00000
   18    -14.32549    2.00000
   19    -13.94395    2.00000
   20    -13.52817    2.00000
   21    -12.35766    2.00000
   22    -11.94183    2.00000
   23    -11.17858    2.00000
   24    -10.78190    2.00000
   25    -10.49185    2.00000
   26    -10.25375    2.00000
   27     -9.83266    2.00000
   28     -9.64079    2.00000
   29     -9.38431    2.00000
   30     -9.34007    2.00000
   31     -8.86475    2.00000
   32     -8.76289    2.00000
   33     -8.26182    2.00000
   34     -8.18061    2.00000
   35     -8.02049    2.00000
   36     -7.94598    2.00000
   37     -7.16684    2.00000
   38     -6.88329    2.00000
   39     -6.49694    2.00000
   40     -6.46600    2.00000
   41     -6.14026    1.99999
   42     -6.08143    1.99999
   43     -5.99198    1.99998
   44     -5.67070    1.99941
   45     -5.53611    1.99772
   46     -5.23315    1.95385
   47     -5.13941    1.88625
   48     -4.60345    0.14468
   49     -4.38755    0.01784
   50     -3.97147    0.00028
   51     -3.54040    0.00000
   52     -3.34409    0.00000
   53     -3.16255    0.00000
   54     -2.53553    0.00000
   55     -1.90943    0.00000
   56     -1.60465    0.00000
   57     -1.43995    0.00000
   58     -1.02388    0.00000
   59     -0.57438    0.00000
[...]
   83      7.91021    0.00000
   84      8.09809    0.00000
   85      8.20166    0.00000
   86      8.33320    0.00000
   87      8.59055    0.00000
   88      8.62168    0.00000
   89      8.82693    0.00000
   90      8.98632    0.00000
   91      9.21131    0.00000
   92      9.24215    0.00000
   93      9.33674    0.00000
   94      9.41389    0.00000
   95      9.56225    0.00000
   96      9.76295    0.00000
   97      9.79197    0.00000

Forces in eV/Ang:
  0 C     0.01477   -0.08848   -0.01108
  1 C     0.06826   -0.00347   -0.00488
  2 C     0.05054   -0.04176   -0.00667
  3 C     0.03104   -0.04724    0.02335
  4 C    -0.06253    0.01314    0.03775
  5 C     0.00890    0.02450   -0.03357
  6 C    -0.02336    0.01911    0.08168
  7 C     0.05326    0.01405   -0.03965
  8 C    -0.04207    0.00936    0.08056
  9 C     0.02555   -0.07339    0.03390
 10 C     0.00339   -0.00599   -0.02060
 11 C    -0.02686    0.05454   -0.02953
 12 C    -0.01758    0.01775   -0.04275
 13 C     0.00235   -0.06546   -0.03186
 14 C     0.02388   -0.00993   -0.01082
 15 C     0.00053   -0.06724   -0.01604
 16 C    -0.01235    0.04063    0.00690
 17 C    -0.04069    0.04628   -0.02902
 18 C     0.04911    0.02101   -0.02841
 19 C    -0.07886   -0.03111    0.02513
 20 C    -0.04778    0.02456   -0.00785
 21 C    -0.03648    0.02224    0.00760
 22 C     0.02850    0.06627    0.00425
 23 C    -0.01432    0.00261    0.03765