User:   esb@s65n32.grendel.cscaa.dk
Date:   Thu Nov  9 10:52:53 2017
Arch:   x86_64
Pid:    23461
Python: 2.7.13
gpaw:   /home/esb/DFT/gpaw_git/gpaw
_gpaw:  /home/esb/DFT/gpaw_git/build/bin.linux-x86_64-2.7/gpaw-python
ase:    /home/esb/DFT/ase_git/ase (version 3.15.0b1)
numpy:  /comm/swstack/core/python/2.7.13/lib/python2.7/site-packages/numpy (version 1.13.3)
scipy:  /comm/swstack/core/python/2.7.13/lib/python2.7/site-packages/scipy (version 0.19.1)
units:  Angstrom and eV
cores:  16
Extra parameters: {'blacs': True}

Input parameters:
  basis: dzp
  gpts: [80 80 48]
  kpts: [1 1 1]
  maxiter: 99
  mixer: {backend: pulay,
          beta: 0.05,
          method: separate,
          nmaxold: 5,
          weight: 75}
  mode: lcao
  nbands: -50
  occupations: {name: fermi-dirac,
                width: 0.1}
  poissonsolver: {eps: 1e-07,
                  name: fd,
                  nn: 3,
                  relax: GS}
  xc: PBE

System changes: positions, numbers, cell, pbc, initial_charges, initial_magmoms

Initialize ...

C-setup:
  name: Carbon
  id: 4aa54d4b901d75f77cc0ea3eec22967b
  Z: 6
  valence: 4
  core: 2
  charge: 0.0
  file: /home/esb/DFT/gpaw-setups-0.8.7929/C.PBE.gz
  cutoffs: 0.64(comp), 1.14(filt), 1.14(core), lmax=2
  valence states:
                energy  radius
    2s(2.00)   -13.751   0.635
    2p(2.00)    -5.284   0.635
    *s          13.461   0.635
    *p          21.927   0.635
    *d           0.000   0.635

  LCAO basis set for C:
    Name: dzp
    File: /home/esb/DFT/gpaw-setups-0.8.7929/C.dzp.basis.gz
    Number of radial functions: 5
    Number of spherical harmonics: 13
      l=0, rc=5.5469 Bohr: 2s-sz confined orbital
      l=1, rc=6.6719 Bohr: 2p-sz confined orbital
      l=0, rc=3.0312 Bohr: 2s-dz split-valence wave
      l=1, rc=3.7500 Bohr: 2p-dz split-valence wave
      l=2, rc=6.6719 Bohr: d-type Gaussian polarization

Reference energy: -24663.074771

Spin-paired calculation

Occupation numbers:
  Fermi-Dirac: width=0.1000 eV

Convergence criteria:
  Maximum total energy change: 0.0005 eV / electron
  Maximum integral of absolute density change: 0.0001 electrons
  Maximum integral of absolute eigenstate change: 4e-08 eV^2
  Maximum number of iterations: 99

Symmetries present (total): 1

  ( 1  0  0)
  ( 0  1  0)
  ( 0  0  1)

1 k-point (Gamma)
1 k-point in the irreducible part of the Brillouin zone
       k-points in crystal coordinates                weights
   0:     0.00000000    0.00000000    0.00000000          1/1

Wave functions: LCAO
  Diagonalizer: Serial LAPACK
  Atomic Correction: dense with blas
  Datatype: float
  Eigensolver: None

LCAO using direct dense diagonalizer

Densities:
  Coarse grid: 80*80*48 grid
  Fine grid: 160*160*96 grid
  Total Charge: 0.000000

Density mixing:
  Method: separate
  Backend: pulay
  Linear mixing parameter: 0.05
  Mixing with 5 old densities
  Damping of long wave oscillations: 75

Hamiltonian:
  XC and Coulomb potentials evaluated on a 160*160*96 grid
  Using the PBE Exchange-Correlation functional
  Interpolation: tri-quintic (5. degree polynomial)
  Poisson solver: Gauss-Seidel solver with 6 multi-grid levels
    Coarsest grid: 5 x 5 x 3 points
    Stencil: 6*3+1=19 point O(h^6) finite-difference Laplacian
    Max iterations: 1000
    Tolerance: 1.000000e-07

Total number of cores used: 16
Domain decomposition: 2 x 4 x 2

Number of atoms: 24
Number of atomic orbitals: 312
Number of bands in calculation: 98
Bands to converge: occupied states only
Number of valence electrons: 96

... initialized

Initializing position-dependent things.

Density initialized from atomic densities
  /        |        C  C     C  C                 |
 *         |  C  C        C      C                |
 |         |  C C         C   CC C                |
 |         .------C--C--CC-CC-C-------------------.
 |        /             C    C                   /
 |       /          C                           /

Positions:
   0 C      6.835482    3.655882    5.091708
   1 C     10.434850    4.724862    5.076700
   2 C      7.401878    7.872845    4.010417
   3 C      8.562908    4.459614    6.259982
   4 C      7.353857    4.115191    6.367381
   5 C     10.731988    5.840759    6.458928
   6 C      6.013438    4.129071    6.449256
   7 C      9.540594    5.382812    5.854151
   8 C      4.869990    4.668988    6.329971
   9 C      9.136253    6.350992    4.784174
  10 C      3.951991    5.618181    6.124947
  11 C      7.846957    6.713280    4.256454
  12 C      9.949949    7.491084    4.585505
  13 C      8.154275    8.995749    4.521513
  14 C      3.321391    8.181232    5.451071
  15 C      6.301023   10.443037    5.223881
  16 C      7.695759   10.379813    4.989030
  17 C     10.838546    8.281878    4.697688
  18 C     10.596033    9.708192    4.865049
  19 C      8.751582   11.266791    5.208853
  20 C      4.020475    9.233331    5.424068
  21 C      9.989359   10.902145    5.060117
  22 C      9.530624    8.761304    4.477195
  23 C      5.126119   10.011067    5.330030

Unit cell:
           periodic     x           y           z      points  spacing
  1. axis:    yes   16.000000    0.000000    0.000000    80     0.2000
  2. axis:    yes    0.000000   16.000000    0.000000    80     0.2000
  3. axis:    yes    0.000000    0.000000   10.000000    48     0.2083

Effective grid spacing dv^(1/3) = 0.2027

                     log10-error:    total        iterations:
           time      wfs    density  energy       fermi  poisson
iter:   1  10:52:54          +inf  -166.215352    2      6
iter:   2  10:52:55         -0.86  -164.289423    3      3
iter:   3  10:52:55         -0.90  -162.210564    4      3
iter:   4  10:52:56         -0.98  -161.546650    3      2
iter:   5  10:52:56         -1.02  -161.988493    34     4
iter:   6  10:52:57         -1.05  -160.843474    3      2
iter:   7  10:52:57         -1.14  -159.920411    3      3
iter:   8  10:52:58         -1.42  -159.795415    3      3
iter:   9  10:52:59         -1.58  -159.704550    3      3
iter:  10  10:52:59         -1.68  -159.685138    3      3
iter:  11  10:53:00         -1.89  -159.667388    3      2
iter:  12  10:53:00         -1.96  -159.660151    4      2
iter:  13  10:53:01         -2.16  -159.636588    3      2
iter:  14  10:53:01         -2.24  -159.638175    3      2
iter:  15  10:53:02         -2.38  -159.634114    3      2
iter:  16  10:53:02         -2.58  -159.630773    2      2
iter:  17  10:53:03         -2.76  -159.629050    3      2
iter:  18  10:53:03         -2.98  -159.629923    2      1
iter:  19  10:53:04         -3.07  -159.628873    2      1
iter:  20  10:53:04         -3.13  -159.619016    3      1
iter:  21  10:53:05         -3.45  -159.627989    2      1
iter:  22  10:53:05         -3.57  -159.631936    2      1
iter:  23  10:53:06         -3.71  -159.629817    2      1
iter:  24  10:53:06         -3.82  -159.631387    2      1
iter:  25  10:53:07         -3.89  -159.631358    2      1
iter:  26  10:53:07         -4.06  -159.631110    2      1

Converged after 26 iterations.

Dipole moment: (1.156727, 0.578836, 0.084956) |e|*Ang

Energy contributions relative to reference atoms: (reference = -24663.074771)

Kinetic:       +155.913251
Potential:     -143.477239
External:        +0.000000
XC:            -174.831544
Entropy (-ST):   -0.441149
Local:           +2.984996
Free energy:   -159.851685
Extrapolated:  -159.631110

Fermi level: -4.77849

 Band  Eigenvalues  Occupancy
    0    -28.25970    2.00000
    1    -24.03744    2.00000
    2    -23.35312    2.00000
    3    -22.39776    2.00000
    4    -22.04459    2.00000
    5    -20.18910    2.00000
    6    -19.73997    2.00000
    7    -19.46542    2.00000
    8    -19.28644    2.00000
    9    -18.21254    2.00000
   10    -18.10651    2.00000
   11    -17.57615    2.00000
   12    -17.08517    2.00000
   13    -16.01821    2.00000
   14    -15.62607    2.00000
   15    -15.21442    2.00000
   16    -14.88801    2.00000
   17    -14.19580    2.00000
   18    -14.14828    2.00000
   19    -13.55845    2.00000
   20    -13.33462    2.00000
   21    -13.20963    2.00000
   22    -13.10922    2.00000
   23    -12.96441    2.00000
   24    -12.10085    2.00000
   25    -11.68899    2.00000
   26    -10.72895    2.00000
   27    -10.44132    2.00000
   28     -9.73928    2.00000
   29     -9.23599    2.00000
   30     -8.67889    2.00000
   31     -8.20621    2.00000
   32     -7.93088    2.00000
   33     -7.70933    2.00000
   34     -7.61667    2.00000
   35     -7.32516    2.00000
   36     -7.24022    2.00000
   37     -7.17349    2.00000
   38     -6.95996    2.00000
   39     -6.86563    2.00000
   40     -6.75191    2.00000
   41     -6.13583    2.00000
   42     -5.58002    1.99934
   43     -5.41653    1.99662
   44     -5.27562    1.98623
   45     -5.19529    1.96951
   46     -4.92243    1.61671
   47     -4.87995    1.46782
   48     -4.72864    0.75577
   49     -4.56227    0.20639
   50     -4.02188    0.00103
   51     -3.96085    0.00056
   52     -3.66905    0.00003
   53     -3.19102    0.00000
   54     -3.09614    0.00000
   55     -2.73709    0.00000
   56     -2.19907    0.00000
   57     -1.52494    0.00000
   58     -1.26539    0.00000
   59     -1.15780    0.00000
[...]
   83      8.01371    0.00000
   84      8.24657    0.00000
   85      8.47658    0.00000
   86      8.50614    0.00000
   87      8.74499    0.00000
   88      8.86317    0.00000
   89      9.03766    0.00000
   90      9.11548    0.00000
   91      9.28301    0.00000
   92      9.29723    0.00000
   93      9.51062    0.00000
   94      9.55923    0.00000
   95      9.68468    0.00000
   96      9.75273    0.00000
   97      9.89034    0.00000

Forces in eV/Ang:
  0 C    -1.28047   -0.37566   -0.81185
  1 C     6.41167   -1.33504   -3.28390
  2 C    -0.13634    0.87604    0.33278
  3 C     3.47922    1.99707    1.46060
  4 C    -1.83531   -0.91677    1.80024
  5 C     3.25886   -0.48958   -0.66711
  6 C     3.72056   -2.00750   -1.67595
  7 C    -8.84686    0.91476    3.12155
  8 C    -6.28662    3.64170   -0.14105
  9 C    -0.67198    0.29573   -1.07372
 10 C     0.97159   -1.27427    0.44153
 11 C     0.32904   -1.78620    0.52315
 12 C    -5.85643  -14.36005   -0.14366
 13 C    -0.98623    1.77465   -0.86607
 14 C    -1.26152   -1.47369    0.02242
 15 C     1.60449    0.50402   -0.31462
 16 C    -2.03439   -0.66406    0.09309
 17 C    15.52728    8.88943    1.99473
 18 C     0.04265   -0.68170   -0.29264
 19 C     1.05378    0.00881   -0.63095
 20 C     1.41510    1.55377    0.07306
 21 C     0.58626   -0.16595    0.87260
 22 C    -8.67609    6.21920   -0.79098
 23 C    -0.55011   -1.04157   -0.02787

System changes: positions

[...]

Density initialized from wave functions
  /        |        C  C     C  C                 |
 *         |  C  C        C      C                |
 |         |  C C         C   CC C                |
 |         .------C--C--CC-CC-C-------------------.
 |        /             C    C                   /
 |       /          C                           /

[...]

Density initialized from wave functions
  /        |        C  C     C  C                 |
[...]
 |         |  CC         CC CC    C               |
 |         .----C-----C-C--C--CC------------------.
 |        /        C              C              /

[...]

Density initialized from wave functions
  /        |        C  C     C  C                 |
 *         |  C  C        C     C                 |
 |         |  CC         CC CC    C               |
 |         .----C-----C-C--C--CC------------------.
 |        /        C              C              /

[...]

Density initialized from wave functions
  /        |        C  C     C  C                 |
 *         |  C  C        C     C                 |
 |         |  CC         CC  C    C               |
 |         .----C-------C--CC-CC------------------.
 |        /        C  C           C              /

[...]

Density initialized from wave functions
  /        |        C  C     C  C                 |
 *         |  C  C        C     C                 |
 |         |  CC         CC  C    C               |
 |         .----C-------C---C-CC------------------.
 |        /        C  C           C              /

[...]

Density initialized from wave functions
  /        |        C  C     C  C                 |
 *         |   C C        C     C                 |
 |         |  CC         CC  C    C               |
 |         .----C-------C---C-CC------------------.
 |        /        C  C           C              /

[...]

Density initialized from wave functions
  /        |        C  C     C  C                 |
 *         |   C C        C     C                 |
 |         |  C          CC  C    C               |
 |         .---CC-------C---C-CC------------------.
 |        /        C  C           C              /

[...]

Density initialized from wave functions
  /        |        C  C     C  C                 |
 *         |   C C        C     C                 |
 |         |  C          CC  C    C               |
 |         .---CC-------C---C-CC------------------.
 |        /        C  C           C              /

[...]

Density initialized from wave functions
  /        |        C  C     C  C                 |
 *         |   C C        C     C                 |
 |         |  C           C  C   C                |
 |         .---CC-------CC--C-CC------------------.
 |        /        C  C           C              /

[...]

Density initialized from wave functions
  /        |        C C      C  C                 |
 *         |   C C        C     C                 |
 |         |  C           C  C    C               |
 |         .---CC-------CC--C-CC------------------.
 |        /        C  C          C               /

[...]

Density initialized from wave functions
  /        |        C C      C  C                 |
 *         |   C C        C      CC               |
 |         |  C           C  C                    |
 |         .---CC-------CC--C-CC------------------.
 |        /        C  C          C               /

[...]

Density initialized from wave functions
  /        |        C C      C  C                 |
 *         |   C C        C      CC               |
 |         |  C           C  C                    |
 |         .--C-C-------CC--C-CC------------------.
 |        /        C  C          C               /

[...]

Density initialized from wave functions
  /        |       C  C      C  C                 |
 *         |   C C        C      CC               |
 |         |  C           C  C                    |
 |         .--C-C-------CC--C-CC------------------.
 |        /        C  C          C               /

[...]

Density initialized from wave functions
  /        |       C  C      C  C                 |
 *         |   C C        C      C                |
 |         |  C           C  C                    |
 |         .--C-C-------CC--C-CC------------------.
 |        /       C   C           C              /

[...]

Density initialized from wave functions
  /        |       C  C      C  C                 |
 *         |   C C        C      C                |
 |         |  C           C  C                    |
 |         .--C-C-------CC--C-CC------------------.
 |        /       C   C           C              /

[...]

Density initialized from wave functions
  /        |       C  C      C  C                 |
 *         |   C C        C      C                |
 |         |  C           C  C                    |
 |         .--C-C-C---C-CC--C-CC------------------.
 |        /                       C              /

[...]

Density initialized from wave functions
  /        |        C C      C  C                 |
 *         |   C C        C      C                |
 |         |  C           C  C                    |
 |         .--C-C-C---C-CC--C-CC------------------.
 |        /                       C              /

[...]

Density initialized from wave functions
  /        |        C C      C  C                 |
 *         |   C C        C      C                |
 |         |  C           C  C                    |
 |         .--C-C--C--C-CC--C-CC------------------.
 |        /                       C              /

[...]

Density initialized from wave functions
  /        |        C C      C  C                 |
 *         |   C C        C      C                |
 |         |  C           C  C                    |
 |         .--C-C--C--C-CC--C-CC------------------.
 |        /                       C              /

[...]

Density initialized from wave functions
  /        |        C C      C  C                 |
 *         |   C C        C      C                |
 |         |  C         C C  C                    |
 |         .--C-C--C--C--C--C-CC------------------.
 |        /                       C              /

[...]

Density initialized from wave functions
  /        |       C  C      C  C                 |
 *         |   C C        C      C                |
 |         |  C         C C  C                    |
 |         .--C-C--C--C--C--C-CC------------------.
 |        /                       C              /

[...]

Density initialized from wave functions
  /        |       C  C      C  C                 |
 *         |   C C        C      C                |
 |         |  C         C C  C                    |
 |         .----C--C--C--C--C-CC------------------.
 |        /                       C              /

[...]

Density initialized from wave functions
  /        |       C  C      C  C                 |
 *         |   C C        C      C                |
 |         |  C         C C  C                    |
 |         .----C--C--C--C--C-C-------------------.
 |        /                    C  C              /

[...]

Density initialized from wave functions
  /        |       C  C      C  C                 |
 *         |   C C        C      C                |
 |         |  C         C C  C                    |
 |         .----C--C--C--C--C-C-------------------.
 |        /              C     C  C              /

[...]

Density initialized from wave functions
  /        |       C  C      C  C                 |
 *         |   C C        C      C                |
 |         |  C           C  C                    |
 |         .----C--C--C-CC--C-CC------------------.
 |        /                       C              /

[...]

Density initialized from wave functions
  /        |       C  C      C  C                 |
 *         |   C C        C      C                |
 |         |  C         C C  CC                   |
 |         .----C--C--C--C--C---------------------.
 |        /              C     C  C              /

[...]

Density initialized from wave functions
  /        |       C  C      C  C                 |
 *         |   C C        C      C                |
 |         |  C         C C  C                    |
 |         .----C--C--C--C--C-CC------------------.
 |        /                       C              /

[...]

Density initialized from wave functions
  /        |       C  C      C  C                 |
 *         |   C C        C      C                |
 |         |  C         C C  C                    |
 |         .----C--C--C--C--C-CC------------------.
 |        /              C        C              /

[...]

Density initialized from wave functions
  /        |       C  C      C  C                 |
 *         |   C C        C      C                |
 |         |  C         C C  CC                   |
 |         .----C--C--C--C--C---------------------.
 |        /              C     C  C              /

[...]

Density initialized from wave functions
  /        |       C  C      C  C                 |
 *         |   CC         C      C                |
 |         |  C         C C  CC                   |
 |         .----C--C--C--C--C---------------------.
 |        /              C     C  C              /

[...]

Density initialized from wave functions
  /        |       C  C      C  C                 |
 *         |   C C        C      C                |
 |         |  C         C C  C                    |
 |         .----C--C--C--C--C-C-------------------.
 |        /              C     C  C              /

[...]

Density initialized from wave functions
  /        |       C  C      C  C                 |
 *         |   CC         C      C                |
 |         |  C         C C  C                    |
 |         .----C--C--C--C--C-C-------------------.
 |        /              C     C  C              /

[...]

Density initialized from wave functions
  /        |       C  C      C  C                 |
 *         |   CC         C      C                |
 |         |  C         C C  C                    |
 |         .----C--C--C--C--C-C-------------------.
 |        /              C     C  C              /

[...]

Density initialized from wave functions
  /        |       C  C      C  C                 |
 *         |   C C        C      C                |
 |         |  C         C C  C                    |
 |         .----C--C--C--C--C-CC------------------.
 |        /              C        C              /

[...]

Density initialized from wave functions
  /        |       C  C      C  C                 |
 *         |   CC         C      C                |
 |         |  C         C C  C                    |
 |         .----C--C-----C--C-CC------------------.
 |        /           C  C        C              /

[...]

Density initialized from wave functions
  /        |          C      C  C                 |
 *         |   CC  C      C      C                |
 |         |  C         C C  C                    |
 |         .----C--C-----C--C-C-------------------.
 |        /           C  C     C  C              /

[...]

System changes: positions

Initializing position-dependent things.

Density initialized from wave functions
  /        |          C      C  C                 |
 *         |   CC  C      C      C                |
 |         |  C         C C  C                    |
 |         .----C--C-----C--C-CC------------------.
 |        /           C  C        C              /

Positions:
   0 C      6.242305    3.885398    6.047969
   1 C     12.472275    4.338476    5.486140
   2 C      7.365569    7.769004    4.729641
   3 C      8.774620    4.240781    5.674323
   4 C      7.577560    3.908030    5.876674
   5 C     11.218094    4.691917    5.478103
   6 C      5.081061    4.388156    6.116498
   7 C      9.893733    5.066223    5.368181
   8 C      4.113624    5.313797    6.091123
   9 C      9.438103    6.409545    4.956585
  10 C      3.602474    6.473654    6.011028
  11 C      8.045435    6.702191    4.832741
  12 C     10.122653    7.651086    4.754143
  13 C      7.935393    9.064589    4.659627
  14 C      3.619634    7.795640    5.797689
  15 C      6.037902   10.543908    5.038261
  16 C      7.432406   10.438010    4.818478
  17 C     11.007645    8.677343    5.425773
  18 C     10.418461    9.828444    4.709273
  19 C      8.522444   11.347170    4.843434
  20 C      4.053336    8.965313    5.569466
  21 C      9.765529   11.040984    4.862067
  22 C      9.356574    8.840758    4.467891
  23 C      4.981885    9.888948    5.262334

Unit cell:
           periodic     x           y           z      points  spacing
  1. axis:    yes   16.000000    0.000000    0.000000    80     0.2000
  2. axis:    yes    0.000000   16.000000    0.000000    80     0.2000
  3. axis:    yes    0.000000    0.000000   10.000000    48     0.2083

Effective grid spacing dv^(1/3) = 0.2027

                     log10-error:    total        iterations:
           time      wfs    density  energy       fermi  poisson
iter:   1  11:07:29          +inf  -179.942762    3      5
iter:   2  11:07:30         -2.67  -179.940188    2      1
iter:   3  11:07:30         -2.81  -179.940582    3      2
iter:   4  11:07:31         -3.03  -179.939852    3      2
iter:   5  11:07:31         -3.08  -179.938298    2      1
iter:   6  11:07:32         -3.50  -179.937722    2      1
iter:   7  11:07:32         -3.24  -179.941205    2      1
iter:   8  11:07:33         -3.57  -179.939557    2      1
iter:   9  11:07:33         -3.77  -179.939242    2      1
iter:  10  11:07:33         -4.17  -179.939858    2      1

Converged after 10 iterations.

Dipole moment: (-1.458002, 0.569959, -0.181406) |e|*Ang

Energy contributions relative to reference atoms: (reference = -24663.074771)

Kinetic:       +105.266809
Potential:     -115.774103
External:        +0.000000
XC:            -172.432908
Entropy (-ST):   -0.049821
Local:           +3.025254
Free energy:   -179.964768
Extrapolated:  -179.939858

Fermi level: -4.56054

 Band  Eigenvalues  Occupancy
    0    -23.55054    2.00000
    1    -21.55685    2.00000
    2    -21.37961    2.00000
    3    -20.82634    2.00000
    4    -20.55069    2.00000
    5    -20.25203    2.00000
    6    -19.74127    2.00000
    7    -19.15656    2.00000
    8    -18.71221    2.00000
    9    -18.21834    2.00000
   10    -17.95141    2.00000
   11    -17.02637    2.00000
   12    -16.66282    2.00000
   13    -16.44815    2.00000
   14    -15.63430    2.00000
   15    -15.42041    2.00000
   16    -14.68862    2.00000
   17    -14.25985    2.00000
   18    -13.81135    2.00000
   19    -13.65261    2.00000
   20    -12.94764    2.00000
   21    -12.35532    2.00000
   22    -12.14420    2.00000
   23    -11.95521    2.00000
   24    -11.16591    2.00000
   25    -10.55585    2.00000
   26    -10.43417    2.00000
   27     -9.79999    2.00000
   28     -9.60833    2.00000
   29     -9.54219    2.00000
   30     -9.40995    2.00000
   31     -8.92795    2.00000
   32     -8.89317    2.00000
   33     -8.65488    2.00000
   34     -8.25463    2.00000
   35     -7.97738    2.00000
   36     -7.62929    2.00000
   37     -6.99760    2.00000
   38     -6.94509    2.00000
   39     -6.75592    2.00000
   40     -6.56381    2.00000
   41     -6.34761    2.00000
   42     -5.89667    2.00000
   43     -5.54532    1.99989
   44     -5.33459    1.99913
   45     -5.26602    1.99828
   46     -5.02852    1.98161
   47     -4.98984    1.97304
   48     -4.18966    0.04784
   49     -3.62879    0.00018
   50     -3.44335    0.00003
   51     -3.20782    0.00000
   52     -3.14444    0.00000
   53     -2.60984    0.00000
   54     -1.95454    0.00000
   55     -1.68590    0.00000
   56     -1.45771    0.00000
   57     -0.87206    0.00000
   58     -0.39316    0.00000
   59     -0.11366    0.00000
[...]
   83      8.57749    0.00000
   84      8.70442    0.00000
   85      8.82500    0.00000
   86      9.08607    0.00000
   87      9.16917    0.00000
   88      9.18949    0.00000
   89      9.20458    0.00000
   90      9.35597    0.00000
   91      9.47661    0.00000
   92      9.50370    0.00000
   93      9.78612    0.00000
   94      9.92813    0.00000
   95     10.00574    0.00000
   96     10.07935    0.00000
   97     10.12039    0.00000

Forces in eV/Ang:
  0 C     0.00311    0.02278   -0.00670
  1 C    -0.05208    0.04371    0.00858
  2 C     0.01506   -0.00236   -0.01774
  3 C     0.02059   -0.01968    0.00361
  4 C     0.01183    0.00336   -0.01751
  5 C     0.06070    0.01381    0.03032
  6 C     0.00947   -0.00664    0.02217
  7 C     0.01084   -0.00431   -0.01881
  8 C     0.01401   -0.00928    0.01170
  9 C    -0.00684   -0.03282    0.00650
 10 C     0.00360   -0.00322   -0.00846
 11 C    -0.00085    0.00009    0.00266
 12 C    -0.00050   -0.00169   -0.00002
 13 C     0.00265   -0.00561    0.01584
 14 C    -0.01538   -0.00634   -0.00928
 15 C    -0.00234   -0.02335   -0.00229
 16 C     0.00493   -0.00576   -0.03263
 17 C    -0.02512   -0.02414   -0.02648
 18 C    -0.01023   -0.01287    0.00064
 19 C     0.00163    0.01451    0.01749
 20 C    -0.00157   -0.00142   -0.03923
 21 C    -0.00902   -0.00857   -0.00029
 22 C     0.00826   -0.00573    0.00389
 23 C    -0.00130    0.00398    0.01029