User:   esb@s65n23.grendel.cscaa.dk
Date:   Wed Nov  8 14:13:04 2017
Arch:   x86_64
Pid:    50770
Python: 2.7.13
gpaw:   /home/esb/DFT/gpaw_git/gpaw
_gpaw:  /home/esb/DFT/gpaw_git/build/bin.linux-x86_64-2.7/gpaw-python
ase:    /home/esb/DFT/ase_git/ase (version 3.15.0b1)
numpy:  /comm/swstack/core/python/2.7.13/lib/python2.7/site-packages/numpy (version 1.13.3)
scipy:  /comm/swstack/core/python/2.7.13/lib/python2.7/site-packages/scipy (version 0.19.1)
units:  Angstrom and eV
cores:  16
Extra parameters: {'blacs': True}

Input parameters:
  basis: dzp
  gpts: [80 80 48]
  kpts: [1 1 1]
  maxiter: 99
  mixer: {backend: pulay,
          beta: 0.05,
          method: separate,
          nmaxold: 5,
          weight: 75}
  mode: lcao
  nbands: -50
  occupations: {name: fermi-dirac,
                width: 0.1}
  poissonsolver: {eps: 1e-07,
                  name: fd,
                  nn: 3,
                  relax: GS}
  xc: PBE

System changes: positions, numbers, cell, pbc, initial_charges, initial_magmoms

Initialize ...

C-setup:
  name: Carbon
  id: 4aa54d4b901d75f77cc0ea3eec22967b
  Z: 6
  valence: 4
  core: 2
  charge: 0.0
  file: /home/esb/DFT/gpaw-setups-0.8.7929/C.PBE.gz
  cutoffs: 0.64(comp), 1.14(filt), 1.14(core), lmax=2
  valence states:
                energy  radius
    2s(2.00)   -13.751   0.635
    2p(2.00)    -5.284   0.635
    *s          13.461   0.635
    *p          21.927   0.635
    *d           0.000   0.635

  LCAO basis set for C:
    Name: dzp
    File: /home/esb/DFT/gpaw-setups-0.8.7929/C.dzp.basis.gz
    Number of radial functions: 5
    Number of spherical harmonics: 13
      l=0, rc=5.5469 Bohr: 2s-sz confined orbital
      l=1, rc=6.6719 Bohr: 2p-sz confined orbital
      l=0, rc=3.0312 Bohr: 2s-dz split-valence wave
      l=1, rc=3.7500 Bohr: 2p-dz split-valence wave
      l=2, rc=6.6719 Bohr: d-type Gaussian polarization

Reference energy: -24663.074771

Spin-paired calculation

Occupation numbers:
  Fermi-Dirac: width=0.1000 eV

Convergence criteria:
  Maximum total energy change: 0.0005 eV / electron
  Maximum integral of absolute density change: 0.0001 electrons
  Maximum integral of absolute eigenstate change: 4e-08 eV^2
  Maximum number of iterations: 99

Symmetries present (total): 1

  ( 1  0  0)
  ( 0  1  0)
  ( 0  0  1)

1 k-point (Gamma)
1 k-point in the irreducible part of the Brillouin zone
       k-points in crystal coordinates                weights
   0:     0.00000000    0.00000000    0.00000000          1/1

Wave functions: LCAO
  Diagonalizer: Serial LAPACK
  Atomic Correction: dense with blas
  Datatype: float
  Eigensolver: None

LCAO using direct dense diagonalizer

Densities:
  Coarse grid: 80*80*48 grid
  Fine grid: 160*160*96 grid
  Total Charge: 0.000000

Density mixing:
  Method: separate
  Backend: pulay
  Linear mixing parameter: 0.05
  Mixing with 5 old densities
  Damping of long wave oscillations: 75

Hamiltonian:
  XC and Coulomb potentials evaluated on a 160*160*96 grid
  Using the PBE Exchange-Correlation functional
  Interpolation: tri-quintic (5. degree polynomial)
  Poisson solver: Gauss-Seidel solver with 6 multi-grid levels
    Coarsest grid: 5 x 5 x 3 points
    Stencil: 6*3+1=19 point O(h^6) finite-difference Laplacian
    Max iterations: 1000
    Tolerance: 1.000000e-07

Total number of cores used: 16
Domain decomposition: 2 x 4 x 2

Number of atoms: 24
Number of atomic orbitals: 312
Number of bands in calculation: 98
Bands to converge: occupied states only
Number of valence electrons: 96

... initialized

Initializing position-dependent things.

Density initialized from atomic densities
  /        |      C   C C  CC                     |
 |         |  CC    C      C C  C                 |
 |         .----C------C-C----C---C---------------.
 |        /    C    CC       C                   /
 |       /       C    C    C                    /

Positions:
   0 C      4.299997   10.551285    4.983769
   1 C      5.706874    7.442910    5.038695
   2 C      4.666827    4.642244    4.736482
   3 C      7.938817    3.376506    4.984893
   4 C      7.157539    7.031092    4.526197
   5 C     11.853713    6.967223    4.887481
   6 C      9.739888    3.688311    5.092216
   7 C      5.698921    4.026246    4.643096
   8 C      6.498971    5.526217    4.958155
   9 C      4.218958    7.827810    4.615548
  10 C     10.589510    8.204705    4.618840
  11 C      3.559175    9.112161    4.606942
  12 C      8.290728   11.044524    5.258131
  13 C     10.621598    4.831385    5.619078
  14 C      8.290767    9.398139    4.331650
  15 C      6.422450   11.582437    4.619171
  16 C      7.066502    4.602461    5.040094
  17 C      5.860034   10.813352    5.182666
  18 C      9.510432    7.776167    5.103239
  19 C      3.298206    7.457476    5.436498
  20 C     10.350520    6.669433    4.572304
  21 C      8.470950    5.885755    5.117517
  22 C      7.817236   11.752340    4.592619
  23 C     10.160855    5.548375    4.635374

Unit cell:
           periodic     x           y           z      points  spacing
  1. axis:    yes   16.000000    0.000000    0.000000    80     0.2000
  2. axis:    yes    0.000000   16.000000    0.000000    80     0.2000
  3. axis:    yes    0.000000    0.000000   10.000000    48     0.2083

Effective grid spacing dv^(1/3) = 0.2027

                     log10-error:    total        iterations:
           time      wfs    density  energy       fermi  poisson
iter:   1  14:13:06          +inf  -140.130444    2      6
iter:   2  14:13:07         -0.83  -136.933591    3      3
iter:   3  14:13:07         -0.89  -133.506844    4      3
iter:   4  14:13:08         -0.95  -132.652209    3      3
iter:   5  14:13:08         -1.02  -131.535276    3      3
iter:   6  14:13:09         -1.12  -130.956342    4      3
iter:   7  14:13:09         -1.20  -130.518998    4      3
iter:   8  14:13:10         -1.43  -130.363832    4      3
iter:   9  14:13:10         -1.60  -130.323423    3      3
iter:  10  14:13:11         -1.71  -130.294680    3      2
iter:  11  14:13:11         -1.80  -130.270360    3      3
iter:  12  14:13:12         -1.97  -130.260380    3      2
iter:  13  14:13:12         -2.12  -130.261842    3      2
iter:  14  14:13:13         -2.21  -130.258993    3      2
iter:  15  14:13:13         -2.32  -130.257622    2      2
iter:  16  14:13:14         -2.41  -130.255704    3      2
iter:  17  14:13:14         -2.50  -130.254620    3      2
iter:  18  14:13:15         -2.61  -130.253574    3      2
iter:  19  14:13:15         -2.91  -130.265452    3      1
iter:  20  14:13:16         -3.12  -130.257442    2      1
iter:  21  14:13:16         -3.25  -130.251609    2      1
iter:  22  14:13:17         -3.40  -130.250534    2      1
iter:  23  14:13:17         -3.52  -130.249509    2      1
iter:  24  14:13:18         -3.59  -130.250941    2      1
iter:  25  14:13:18         -3.76  -130.250871    2      1
iter:  26  14:13:18         -3.88  -130.249664    2      1
iter:  27  14:13:19         -3.97  -130.249375    2      1
iter:  28  14:13:19         -4.07  -130.248357    2      1

Converged after 28 iterations.

Dipole moment: (0.691676, 0.537723, -0.403619) |e|*Ang

Energy contributions relative to reference atoms: (reference = -24663.074771)

Kinetic:       +191.690105
Potential:     -167.316680
External:        +0.000000
XC:            -157.161117
Entropy (-ST):   -0.472351
Local:           +2.775511
Free energy:   -130.484532
Extrapolated:  -130.248357

Fermi level: -4.90573

 Band  Eigenvalues  Occupancy
    0    -25.40554    2.00000
    1    -24.59476    2.00000
    2    -22.60322    2.00000
    3    -22.53694    2.00000
    4    -21.98758    2.00000
    5    -19.96663    2.00000
    6    -19.63088    2.00000
    7    -19.20436    2.00000
    8    -18.60837    2.00000
    9    -17.82883    2.00000
   10    -17.05207    2.00000
   11    -16.54893    2.00000
   12    -15.94573    2.00000
   13    -14.88758    2.00000
   14    -14.47690    2.00000
   15    -13.81991    2.00000
   16    -13.66589    2.00000
   17    -13.24996    2.00000
   18    -12.87014    2.00000
   19    -12.17250    2.00000
   20    -11.63827    2.00000
   21    -11.56328    2.00000
   22    -11.39991    2.00000
   23    -10.88770    2.00000
   24    -10.41883    2.00000
   25    -10.10939    2.00000
   26     -9.88662    2.00000
   27     -9.77055    2.00000
   28     -9.24868    2.00000
   29     -9.17256    2.00000
   30     -8.99797    2.00000
   31     -8.44702    2.00000
   32     -8.27118    2.00000
   33     -7.98084    2.00000
   34     -7.83691    2.00000
   35     -7.52766    2.00000
   36     -7.10059    2.00000
   37     -7.00827    2.00000
   38     -6.83786    2.00000
   39     -6.46313    2.00000
   40     -6.41552    2.00000
   41     -6.23062    2.00000
   42     -6.07976    1.99998
   43     -5.87363    1.99987
   44     -5.47786    1.99347
   45     -5.29599    1.96042
   46     -5.12214    1.79395
   47     -4.90783    1.01050
   48     -4.88214    0.88260
   49     -4.74257    0.32722
   50     -4.48912    0.03055
   51     -4.17525    0.00134
   52     -3.89961    0.00009
   53     -3.67097    0.00001
   54     -3.57887    0.00000
   55     -3.25404    0.00000
   56     -3.08011    0.00000
   57     -2.69261    0.00000
   58     -2.48963    0.00000
   59     -2.35078    0.00000
[...]
   83      6.59273    0.00000
   84      6.69988    0.00000
   85      7.30790    0.00000
   86      7.55645    0.00000
   87      7.96114    0.00000
   88      8.11775    0.00000
   89      8.45259    0.00000
   90      8.48254    0.00000
   91      8.66836    0.00000
   92      8.78028    0.00000
   93      8.98028    0.00000
   94      9.11860    0.00000
   95      9.17152    0.00000
   96      9.27410    0.00000
   97      9.39707    0.00000

Forces in eV/Ang:
  0 C     0.69445   -4.24577    0.01436
  1 C     2.60160   -1.59489   -2.85335
  2 C    -8.16069    4.54346    0.51756
  3 C     4.39517    0.72986    0.98193
  4 C    -4.27253   -1.84634    2.40352
  5 C    -2.10886    2.40606   -0.94767
  6 C    -1.99770    2.60687    1.63777
  7 C     6.28656   -2.90206   -0.87665
  8 C   -16.59830   26.91591   -2.88904
  9 C     8.55034    1.13667   -2.03028
 10 C     7.33271    1.51876   -1.55478
 11 C     2.33621    2.89234    1.89122
 12 C    14.43822  -20.58729   13.84223
 13 C     0.72525   -9.70860    2.83095
 14 C     0.91374    0.94370    2.09355
 15 C    12.62411   14.63582   -9.62889
 16 C    16.59149  -28.44536    2.11988
 17 C   -19.24423  -15.37842    8.55868
 18 C    -7.78944    1.82733    2.40709
 19 C    -5.52261    0.01105    2.85919
 20 C     7.95008   20.28939   -2.26847
 21 C    -0.45730    3.00261   -0.71364
 22 C   -11.54656   18.34187  -15.97792
 23 C    -7.74585  -17.13309   -2.45939

System changes: positions

[...]

Density initialized from wave functions
  /        |      C   C C  CC                     |
 |         |  CC    C      C C  C                 |
 |         .----C------C-C----C---C---------------.
 |        /    C    CC       C                   /
 |       /       C    C    C                    /

[...]

Density initialized from wave functions
  /        |      C   C C  CC                     |
[...]
 |         |      C  C      C   C                 |
 |         .-----------C--C-----C--C--------------.
 |        /         C       CC                   /
 |       /       C CC  C  C                     /

[...]

Density initialized from wave functions
  /        |     C  C  C C                        |
 *         |    CC         C                      |
 |         |       C C      C   C                 |
 |         .-----------C--C-----C--C--------------.
 |        /         C       CC                   /
 |       /       C CC  C  C                     /

[...]

Density initialized from wave functions
  /        |     C  C  C C                        |
 *         |    CC         C                      |
 |         |       C C      C   C                 |
 |         .-----------C--C--C--C--C--------------.
 |        /         C       C                    /
 |       /       C CC  C  C                     /

[...]

Density initialized from wave functions
  /        |     C  C  C C                        |
 *         |    CC         C                      |
 |         |       C C      C   C                 |
 |         .-----------C--C--C--C--C--------------.
 |        /         C       C                    /
 |       /       C CC  C  C                     /

[...]

Density initialized from wave functions
  /        |     C  C  C C                        |
 *         |    CC         C                      |
 |         |       C C     CC   C                 |
 |         .-----------C--C--C--C--C--------------.
 |        /         C       C                    /
 |       /       C CC  C  C                     /

[...]

Density initialized from wave functions
  /        |     C  C  C C                        |
 *         |    CC        C                       |
 |         |       C C     CC   C                 |
 |         .-----------C--C--C--C--C--------------.
 |        /         C       C                    /
 |       /       C CC  C  C                     /

[...]

Density initialized from wave functions
  /        |     C  C  C C                        |
 *         |    CC        C                       |
 |         |       C C    C C   C                 |
 |         .-----------C--C--C--C--C--------------.
 |        /         C       C                    /
 |       /       C CC  C  C                     /

[...]

Density initialized from wave functions
  /        |     C  C  C C                        |
 *         |    CC        C                       |
 |         |       C  C   C C   C                 |
 |         .-----------C--C--C--C--C--------------.
 |        /         C       C                    /
 |       /      C  CC  C  C                     /

[...]

Density initialized from wave functions
   /       |        C                             |
  /        |     C     C C                        |
 *         |    CC        C                       |
 |         |       C  C   C C   C                 |
 |         .-----------C--C--C--C--C--------------.
 |        /         C       C                    /
 |       /       C CC  C  C                     /

[...]

Density initialized from wave functions
   /       |        C                             |
  /        |     C     C C                        |
 *         |    CC        C                       |
 |         |       C  C   C C   C                 |
 |         .-----------C--C--C--C--C--------------.
 |        /         C       C                    /
 |       /       C CC  C  C                     /

[...]

Density initialized from wave functions
   /       |        C                             |
  /        |     C     C C                        |
 *         |    CC        C                       |
 |         |       C  C   C C  C                  |
 |         .-----------C--C--C--C--C--------------.
 |        /         C       C                    /
 |       /       C C   C  C                     /
 |      /           C                          /

[...]

Density initialized from wave functions
   /       |        C                             |
  /        |     C     C C                        |
 *         |    CC        C                       |
 |         |       C  C  C  C  C                  |
 |         .-----------C--C--C--C--C--------------.
 |        /         C       C                    /
 |       /       C C   C  C                     /
 |      /           C                          /

[...]

Density initialized from wave functions
   /       |        C                             |
  /        |     C     C C                        |
 *         |    CC        C                       |
 |         |       C  C  C  C  C                  |
 |         .-----------C--C-----C--C--------------.
 |        /         C       CC                   /
 |       /       C C   C  C                     /
 |      /           C                          /

[...]

Density initialized from wave functions
  /        |     C  C  C C                        |
 *         |    CC        C                       |
 |         |       C  C  C  C  C                  |
 |         .-----------C--C-----C--C--------------.
 |        /         C       CC                   /
 |       /       C CC  C  C                     /

[...]

Density initialized from wave functions
  /        |     C  C  C C                        |
 *         |    CC        C                       |
 |         |       C  C  C  C  C                  |
 |         .-----------C--C-----C-C---------------.
 |        /         C       CC                   /
 |       /       C CC  C  C                     /

[...]

Density initialized from wave functions
  /        |     C  C  C C                        |
 *         |    CC        C                       |
 |         |       C  C  C  C  C                  |
 |         .-----------C--C-----C-C---------------.
 |        /         C       CC                   /
 |       /       C CC  C  C                     /

[...]

Density initialized from wave functions
  /        |     C  C  C C                        |
 *         |    CC        C                       |
 |         |       C  C  C  C  C                  |
 |         .-----------C--C-----C-C---------------.
 |        /         C       CC                   /
 |       /       C C   C  C                     /
 |      /           C                          /

[...]

Density initialized from wave functions
  /        |     C  C  C C                        |
 *         |    CC        C                       |
 |         |       C  C  C  C  C                  |
 |         .-----------C--C--C--C-C---------------.
 |        /         C       C                    /
 |       /       C C   C  C                     /
 |      /           C                          /

[...]

Density initialized from wave functions
  /        |     C  C  C C                        |
 *         |    CC        C                       |
 |         |       C  C  C  C  C                  |
 |         .-----------C--C--C--C-C---------------.
 |        /         C       C                    /
 |       /       C C   C  C                     /
 |      /           C                          /

[...]

Density initialized from wave functions
  /        |     C  C  C C                        |
 *         |    C         C                       |
 |         |     C C  C  C  C  C  C               |
 |         .-----------C--C--C--C-----------------.
 |        /         C       C                    /
 |       /       C C   C  C                     /
 |      /           C                          /

[...]

Density initialized from wave functions
  /        |     C  C  C C                        |
 *         |    C         C                       |
 |         |     C C  C  C  C  C  C               |
 |         .-----------C--C--C--C-----------------.
 |        /         C       C                    /
 |       /       C C   C  C                     /
 |      /           C                          /

[...]

Density initialized from wave functions
  /        |     C  C  C C                        |
 *         |    C         C                       |
 |         |     C C  C  C  C  C  C               |
 |         .-----------C--C--C--C-----------------.
 |        /         C        C                   /
 |       /       C CC  C  C                     /

[...]

Density initialized from wave functions
  /        |     C  C  C C                        |
 *         |    C         C                       |
 |         |     C C  C  C  C  C  C               |
 |         .-----------C--C--C--C-----------------.
 |        /         C        C                   /
 |       /       C CC     C                     /
 |      /              C                       /

[...]

Density initialized from wave functions
  /        |     C  C  C C                        |
 *         |    C         C                       |
 |         |     C C  C  C  C  C  C               |
 |         .-----------C--C--C--C-----------------.
 |        /         C        C                   /
 |       /       C CC     C                     /
 |      /              C                       /

[...]

Density initialized from wave functions
  /        |     C  C  C C                        |
 *         |    C         C                       |
 |         |     C C  C  C  C  C  C               |
 |         .-----------C--C-----C-----------------.
 |        /         C        C                   /
 |       /       C CC     C                     /
 |      /              C                       /

[...]

Density initialized from wave functions
  /        |     C  C  C C                        |
 *         |    C         C                       |
 |         |     C C  C  C  C  C  C               |
 |         .-----------C--C-----C-----------------.
 |        /         C        C                   /
 |       /       C CC     C                     /
 |      /              C                       /

[...]

Density initialized from wave functions
  /        |     C  C  C C                        |
 *         |    C         C                       |
 |         |     C C  C  C  C  C  C               |
 |         .-----------C--C-----C-----------------.
 |        /      C  C        C                   /
 |       /         CC     C                     /
 |      /              C                       /

[...]

System changes: positions

Initializing position-dependent things.

Density initialized from wave functions
  /        |     C  C  C C                        |
 *         |    C         C                       |
 |         |     C C  C  C  C  C  C               |
 |         .-----------C--C-----C-----------------.
 |        /      C  C        C                   /
 |       /         CC     C                     /
 |      /              C                       /

Positions:
   0 C      3.768232   11.167211    4.941976
   1 C      6.704463    7.641744    4.846146
   2 C      5.224465    4.566235    4.742004
   3 C      8.506659    2.388800    4.957102
   4 C      7.328004    6.296022    4.857131
   5 C     11.696070    7.853692    4.825233
   6 C      9.563954    3.231182    5.000110
   7 C      6.333306    3.694741    4.806192
   8 C      6.500748    5.167736    4.821352
   9 C      5.356259    7.954801    4.904032
  10 C     10.366456    8.193381    4.803702
  11 C      3.669239    9.889271    4.986511
  12 C      7.592231   10.028324    4.760504
  13 C     10.182441    4.327776    4.981103
  14 C      7.766382    8.661297    4.790218
  15 C      6.032913   12.054091    4.818448
  16 C      7.271866    2.728715    4.867123
  17 C      4.754116   12.072949    4.918193
  18 C      9.019146    7.923105    4.803826
  19 C      4.369973    8.753078    4.938765
  20 C     11.085112    6.648478    4.874300
  21 C      8.772627    6.485049    4.860486
  22 C      7.031688   11.163748    4.790239
  23 C     10.027241    5.726528    4.910660

Unit cell:
           periodic     x           y           z      points  spacing
  1. axis:    yes   16.000000    0.000000    0.000000    80     0.2000
  2. axis:    yes    0.000000   16.000000    0.000000    80     0.2000
  3. axis:    yes    0.000000    0.000000   10.000000    48     0.2083

Effective grid spacing dv^(1/3) = 0.2027

                     log10-error:    total        iterations:
           time      wfs    density  energy       fermi  poisson
iter:   1  14:32:14          +inf  -182.390344    3      4
iter:   2  14:32:14         -3.11  -182.390686    2      1
iter:   3  14:32:15         -3.26  -182.390492    2      1
iter:   4  14:32:15         -3.34  -182.389815    2      1
iter:   5  14:32:16         -3.53  -182.392853    3      1
iter:   6  14:32:16         -3.10  -182.387786    3      1
iter:   7  14:32:17         -2.82  -182.387059    2      1
iter:   8  14:32:17         -2.91  -182.390099    3      1
iter:   9  14:32:17         -3.60  -182.390220    2      1
iter:  10  14:32:18         -4.00  -182.389580    2      1
iter:  11  14:32:18         -3.80  -182.389919    2      1
iter:  12  14:32:19         -4.72  -182.389952    2      1

Converged after 12 iterations.

Dipole moment: (0.226358, 0.136715, 0.015004) |e|*Ang

Energy contributions relative to reference atoms: (reference = -24663.074771)

Kinetic:       +105.562093
Potential:     -114.591487
External:        +0.000000
XC:            -176.264369
Entropy (-ST):   -0.270944
Local:           +3.039283
Free energy:   -182.525424
Extrapolated:  -182.389952

Fermi level: -4.64697

 Band  Eigenvalues  Occupancy
    0    -23.37950    2.00000
    1    -22.64734    2.00000
    2    -21.68992    2.00000
    3    -20.64653    2.00000
    4    -20.47039    2.00000
    5    -19.87435    2.00000
    6    -19.71668    2.00000
    7    -19.10895    2.00000
    8    -18.85885    2.00000
    9    -18.11851    2.00000
   10    -17.63518    2.00000
   11    -17.57277    2.00000
   12    -16.29569    2.00000
   13    -15.94580    2.00000
   14    -15.62407    2.00000
   15    -15.39397    2.00000
   16    -14.12241    2.00000
   17    -13.99183    2.00000
   18    -13.78048    2.00000
   19    -12.97196    2.00000
   20    -12.70555    2.00000
   21    -11.86153    2.00000
   22    -11.65748    2.00000
   23    -11.22819    2.00000
   24    -10.69524    2.00000
   25    -10.55861    2.00000
   26    -10.18455    2.00000
   27     -9.90243    2.00000
   28     -9.72798    2.00000
   29     -9.30413    2.00000
   30     -9.09449    2.00000
   31     -8.93047    2.00000
   32     -8.82154    2.00000
   33     -8.61861    2.00000
   34     -8.32784    2.00000
   35     -8.21626    2.00000
   36     -8.16771    2.00000
   37     -7.78749    2.00000
   38     -7.64450    2.00000
   39     -6.89417    2.00000
   40     -6.43274    2.00000
   41     -6.14800    2.00000
   42     -5.92652    1.99999
   43     -5.59978    1.99985
   44     -5.16006    1.98825
   45     -4.99680    1.94128
   46     -4.96179    1.91768
   47     -4.80568    1.66042
   48     -4.53510    0.49252
   49     -2.76095    0.00000
   50     -2.67872    0.00000
   51     -2.32853    0.00000
   52     -2.22298    0.00000
   53     -1.96509    0.00000
   54     -1.72964    0.00000
   55     -1.62847    0.00000
   56     -1.10707    0.00000
   57     -0.78391    0.00000
   58     -0.45846    0.00000
   59     -0.40173    0.00000
[...]
   83      8.98036    0.00000
   84      9.04096    0.00000
   85      9.23706    0.00000
   86      9.29893    0.00000
   87      9.37946    0.00000
   88      9.54906    0.00000
   89      9.60124    0.00000
   90      9.64708    0.00000
   91      9.69428    0.00000
   92      9.77493    0.00000
   93     10.05840    0.00000
   94     10.16166    0.00000
   95     10.21961    0.00000
   96     10.36669    0.00000
   97     10.56272    0.00000

Forces in eV/Ang:
  0 C    -0.02059   -0.02249    0.03625
  1 C     0.01345   -0.04119   -0.02723
  2 C    -0.00185    0.02025    0.00752
  3 C     0.00016    0.00349   -0.00621
  4 C    -0.01538    0.00587   -0.01643
  5 C     0.00177    0.02465    0.00008
  6 C     0.00532    0.01084   -0.01501
  7 C     0.02155   -0.00287    0.03062
  8 C    -0.02372    0.05347   -0.01666
  9 C     0.01800    0.00374   -0.03846
 10 C     0.05194   -0.02646   -0.01104
 11 C    -0.01956    0.01028   -0.02306
 12 C     0.07192   -0.02939    0.05072
 13 C    -0.03873   -0.03950   -0.01146
 14 C    -0.01529    0.01668    0.03923
 15 C    -0.00369    0.02823    0.00116
 16 C     0.01367   -0.02101    0.01315
 17 C    -0.03394   -0.04678   -0.01968
 18 C     0.01182    0.01778    0.02510
 19 C    -0.01084   -0.02717   -0.00570
 20 C     0.04087    0.00769    0.02005
 21 C    -0.01775    0.01496   -0.02023
 22 C    -0.04882    0.05151   -0.02833
 23 C    -0.04277   -0.04127   -0.00403