User:   esb@s66n53.grendel.cscaa.dk
Date:   Wed Nov  8 14:13:05 2017
Arch:   x86_64
Pid:    75954
Python: 2.7.13
gpaw:   /home/esb/DFT/gpaw_git/gpaw
_gpaw:  /home/esb/DFT/gpaw_git/build/bin.linux-x86_64-2.7/gpaw-python
ase:    /home/esb/DFT/ase_git/ase (version 3.15.0b1)
numpy:  /comm/swstack/core/python/2.7.13/lib/python2.7/site-packages/numpy (version 1.13.3)
scipy:  /comm/swstack/core/python/2.7.13/lib/python2.7/site-packages/scipy (version 0.19.1)
units:  Angstrom and eV
cores:  16
Extra parameters: {'blacs': True}

Input parameters:
  basis: dzp
  gpts: [80 80 48]
  kpts: [1 1 1]
  maxiter: 99
  mixer: {backend: pulay,
          beta: 0.05,
          method: separate,
          nmaxold: 5,
          weight: 75}
  mode: lcao
  nbands: -50
  occupations: {name: fermi-dirac,
                width: 0.1}
  poissonsolver: {eps: 1e-07,
                  name: fd,
                  nn: 3,
                  relax: GS}
  xc: PBE

System changes: positions, numbers, cell, pbc, initial_charges, initial_magmoms

Initialize ...

C-setup:
  name: Carbon
  id: 4aa54d4b901d75f77cc0ea3eec22967b
  Z: 6
  valence: 4
  core: 2
  charge: 0.0
  file: /home/esb/DFT/gpaw-setups-0.8.7929/C.PBE.gz
  cutoffs: 0.64(comp), 1.14(filt), 1.14(core), lmax=2
  valence states:
                energy  radius
    2s(2.00)   -13.751   0.635
    2p(2.00)    -5.284   0.635
    *s          13.461   0.635
    *p          21.927   0.635
    *d           0.000   0.635

  LCAO basis set for C:
    Name: dzp
    File: /home/esb/DFT/gpaw-setups-0.8.7929/C.dzp.basis.gz
    Number of radial functions: 5
    Number of spherical harmonics: 13
      l=0, rc=5.5469 Bohr: 2s-sz confined orbital
      l=1, rc=6.6719 Bohr: 2p-sz confined orbital
      l=0, rc=3.0312 Bohr: 2s-dz split-valence wave
      l=1, rc=3.7500 Bohr: 2p-dz split-valence wave
      l=2, rc=6.6719 Bohr: d-type Gaussian polarization

Reference energy: -24663.074771

Spin-paired calculation

Occupation numbers:
  Fermi-Dirac: width=0.1000 eV

Convergence criteria:
  Maximum total energy change: 0.0005 eV / electron
  Maximum integral of absolute density change: 0.0001 electrons
  Maximum integral of absolute eigenstate change: 4e-08 eV^2
  Maximum number of iterations: 99

Symmetries present (total): 1

  ( 1  0  0)
  ( 0  1  0)
  ( 0  0  1)

1 k-point (Gamma)
1 k-point in the irreducible part of the Brillouin zone
       k-points in crystal coordinates                weights
   0:     0.00000000    0.00000000    0.00000000          1/1

Wave functions: LCAO
  Diagonalizer: Serial LAPACK
  Atomic Correction: dense with blas
  Datatype: float
  Eigensolver: None

LCAO using direct dense diagonalizer

Densities:
  Coarse grid: 80*80*48 grid
  Fine grid: 160*160*96 grid
  Total Charge: 0.000000

Density mixing:
  Method: separate
  Backend: pulay
  Linear mixing parameter: 0.05
  Mixing with 5 old densities
  Damping of long wave oscillations: 75

Hamiltonian:
  XC and Coulomb potentials evaluated on a 160*160*96 grid
  Using the PBE Exchange-Correlation functional
  Interpolation: tri-quintic (5. degree polynomial)
  Poisson solver: Gauss-Seidel solver with 6 multi-grid levels
    Coarsest grid: 5 x 5 x 3 points
    Stencil: 6*3+1=19 point O(h^6) finite-difference Laplacian
    Max iterations: 1000
    Tolerance: 1.000000e-07

Total number of cores used: 16
Domain decomposition: 2 x 4 x 2

Number of atoms: 24
Number of atomic orbitals: 312
Number of bands in calculation: 98
Bands to converge: occupied states only
Number of valence electrons: 96

... initialized

Initializing position-dependent things.

Density initialized from atomic densities
  /        |             CC  C                    |
 *         |   C C C C     CC    C                |
 |         |          C C       C                 |
 |         .--C----C-CC---------------------------.
 |        /             C   C C                  /
 |       /       C    C  C                      /
 |      /           C                          /

Positions:
   0 C      6.334200    9.603599    4.446536
   1 C      8.529154    3.569003    5.698057
   2 C     10.551909   10.239642    4.586638
   3 C      7.334747   11.985743    4.350059
   4 C      8.696923    8.633621    5.090411
   5 C     10.824297    7.978857    4.858051
   6 C      7.066970    3.331529    4.420607
   7 C      6.999351    5.880667    5.307524
   8 C      7.467748    4.629350    4.648542
   9 C      8.718474    4.344842    4.653822
  10 C      3.421220    8.177457    4.315140
  11 C      7.317121    8.909570    4.574622
  12 C      3.959802    9.551001    4.692461
  13 C      6.087378    5.036516    5.558983
  14 C      5.063401    9.832834    5.124152
  15 C      8.444427   11.789014    4.840317
  16 C      6.933735   11.448428    5.182799
  17 C      5.944846    8.276895    5.497581
  18 C      8.069106   10.051069    4.372281
  19 C      5.481232    4.476021    4.284004
  20 C      3.822053    8.196130    5.342183
  21 C     10.218371    5.886475    4.797372
  22 C     10.074999    4.671491    5.304797
  23 C      6.608103    6.927037    4.850834

Unit cell:
           periodic     x           y           z      points  spacing
  1. axis:    yes   16.000000    0.000000    0.000000    80     0.2000
  2. axis:    yes    0.000000   16.000000    0.000000    80     0.2000
  3. axis:    yes    0.000000    0.000000   10.000000    48     0.2083

Effective grid spacing dv^(1/3) = 0.2027

                     log10-error:    total        iterations:
           time      wfs    density  energy       fermi  poisson
iter:   1  14:13:07          +inf  -132.950183    3      6
iter:   2  14:13:07         -0.83  -128.881758    4      3
iter:   3  14:13:08         -0.90  -126.558591    33     3
iter:   4  14:13:08         -0.95  -125.583745    4      3
iter:   5  14:13:09         -1.02  -124.588204    4      3
iter:   6  14:13:09         -1.10  -124.079772    2      2
iter:   7  14:13:10         -1.17  -123.484282    34     4
iter:   8  14:13:10         -1.47  -123.358911    3      3
iter:   9  14:13:11         -1.60  -123.239512    2      3
iter:  10  14:13:12         -1.80  -123.225819    3      3
iter:  11  14:13:12         -1.93  -123.213637    3      2
iter:  12  14:13:13         -2.05  -123.202342    3      2
iter:  13  14:13:13         -2.26  -123.198569    2      2
iter:  14  14:13:14         -2.45  -123.197024    2      2
iter:  15  14:13:14         -2.53  -123.199493    2      2
iter:  16  14:13:15         -2.85  -123.196286    2      2
iter:  17  14:13:15         -2.99  -123.197078    2      1
iter:  18  14:13:16         -3.16  -123.193705    2      1
iter:  19  14:13:16         -3.29  -123.194043    2      1
iter:  20  14:13:17         -3.41  -123.194732    2      1
iter:  21  14:13:17         -3.57  -123.194341    2      1
iter:  22  14:13:18         -3.78  -123.193305    2      1
iter:  23  14:13:18         -3.96  -123.193907    2      1
iter:  24  14:13:19         -4.08  -123.193883    2      1

Converged after 24 iterations.

Dipole moment: (0.422636, 0.888922, -0.252251) |e|*Ang

Energy contributions relative to reference atoms: (reference = -24663.074771)

Kinetic:       +237.731137
Potential:     -196.110184
External:        +0.000000
XC:            -167.409825
Entropy (-ST):   -0.424752
Local:           +2.807366
Free energy:   -123.406259
Extrapolated:  -123.193883

Fermi level: -4.80856

 Band  Eigenvalues  Occupancy
    0    -26.34915    2.00000
    1    -26.00806    2.00000
    2    -25.26667    2.00000
    3    -24.01398    2.00000
    4    -23.64865    2.00000
    5    -21.23193    2.00000
    6    -20.40653    2.00000
    7    -19.23180    2.00000
    8    -18.79248    2.00000
    9    -17.81243    2.00000
   10    -16.76750    2.00000
   11    -16.48545    2.00000
   12    -15.84825    2.00000
   13    -15.41635    2.00000
   14    -14.60188    2.00000
   15    -14.34588    2.00000
   16    -14.03190    2.00000
   17    -13.30255    2.00000
   18    -12.90109    2.00000
   19    -12.48114    2.00000
   20    -12.42064    2.00000
   21    -11.96444    2.00000
   22    -11.43353    2.00000
   23    -11.30683    2.00000
   24    -11.06517    2.00000
   25    -10.59605    2.00000
   26     -9.96871    2.00000
   27     -9.78740    2.00000
   28     -9.25195    2.00000
   29     -9.01738    2.00000
   30     -8.83326    2.00000
   31     -8.67260    2.00000
   32     -8.44918    2.00000
   33     -8.10828    2.00000
   34     -7.85948    2.00000
   35     -7.62077    2.00000
   36     -7.21416    2.00000
   37     -6.95204    2.00000
   38     -6.69474    2.00000
   39     -6.36303    2.00000
   40     -6.08313    1.99999
   41     -5.83954    1.99993
   42     -5.63954    1.99951
   43     -5.57877    1.99910
   44     -5.38398    1.99368
   45     -5.19760    1.95994
   46     -5.07104    1.86488
   47     -4.81563    1.03537
   48     -4.79071    0.91099
   49     -4.60697    0.23509
   50     -4.06933    0.00123
   51     -3.88626    0.00020
   52     -3.73720    0.00004
   53     -3.67332    0.00002
   54     -3.56007    0.00001
   55     -3.27935    0.00000
   56     -3.11451    0.00000
   57     -2.81267    0.00000
   58     -2.72942    0.00000
   59     -2.40553    0.00000
[...]
   83      6.96143    0.00000
   84      7.26084    0.00000
   85      7.46210    0.00000
   86      7.71590    0.00000
   87      7.86086    0.00000
   88      8.28150    0.00000
   89      8.37963    0.00000
   90      8.52113    0.00000
   91      8.59993    0.00000
   92      8.81687    0.00000
   93      8.95753    0.00000
   94      9.13744    0.00000
   95      9.30298    0.00000
   96      9.35925    0.00000
   97      9.47627    0.00000

Forces in eV/Ang:
  0 C   -13.51020    5.13922   -1.10545
  1 C    -1.03336   -4.25166    2.07801
  2 C    -1.44161   -2.63595    0.13474
  3 C     1.01250   19.90051  -26.67114
  4 C     1.42646    1.76455   -0.64521
  5 C    -3.44710    0.28055    0.01485
  6 C    -6.01756   -1.78415   -0.09454
  7 C     7.96239   -0.28036    2.63307
  8 C    -3.86011    2.35480   -1.89078
  9 C    12.98732    0.78125   -0.39994
 10 C   -10.63248    0.44656  -24.12659
 11 C     9.81838   -9.60166    0.78976
 12 C    -8.04667   -2.33216   -3.64750
 13 C   -10.25787   -8.69542    0.05736
 14 C    10.36369    2.96959    0.96105
 15 C    10.85622   -2.66103    2.73338
 16 C   -13.10994  -12.88554   25.02976
 17 C     0.45735   -3.84341    0.37630
 18 C     8.59403    0.21763   -0.00359
 19 C     0.74153   -1.26455    2.67021
 20 C     8.98821   -2.23618   24.87876
 21 C     1.59853    2.39202    0.23783
 22 C     0.25304    2.38155   -1.41644
 23 C    -3.69865   13.89489   -2.59705

System changes: positions

[...]

Density initialized from wave functions
  /        |             CC  C                    |
 *         |   C C  CC     CC    C                |
 |         |          C C       C                 |
 |         .--C----C-CC---------------------------.
 |        /             C   C C                  /
 |       /       C    C  C                      /
 |      /           C                          /

[...]

Density initialized from wave functions
  /        |             CC  C                    |
[...]
 |        /      C     C  C  C                   /
 |       /        C  C  C                       /

[...]

Density initialized from wave functions
  /        |             C  CC C                  |
 *         |     C   C        C                   |
 |         |   C  C  C  C  C  C                   |
 |         .--------C----------C------------------.
 |        /      C     C  C  C                   /
 |       /        C  C  C                       /

[...]

Density initialized from wave functions
  /        |             C  CC C                  |
 *         |     C   C        C                   |
 |         |   CC C  C  C  C  C                   |
 |         .--------C----------C------------------.
 |        /      C     C  C  C                   /
 |       /        C  C  C                       /

[...]

Density initialized from wave functions
  /        |             C  CC C                  |
 *         |     C   C        C                   |
 |         |   CC C  C  C  C  C                   |
 |         .--------C----------C------------------.
 |        /      C     C  C  C                   /
 |       /        C  C  C                       /

[...]

Density initialized from wave functions
  /        |             C C C C                  |
 *         |      C  C        C                   |
 |         |   CC C  C  C  C  C                   |
 |         .--------C----------C------------------.
 |        /      C     C  C  C                   /
 |       /        C  C  C                       /

[...]

Density initialized from wave functions
  /        |             C C C C                  |
 *         |      C  C        C                   |
 |         |   CC  C C  C  C  C                   |
 |         .--------C----------C------------------.
 |        /      C     C  C  C                   /
 |       /        C  C  C                       /

[...]

Density initialized from wave functions
  /        |            C  C C C                  |
 *         |      C  CC       C                   |
 |         |   CC  C    C  C  C                   |
 |         .--------CC---------C------------------.
 |        /      C     C  C  C                   /
 |       /        C  C  C                       /

[...]

Density initialized from wave functions
  /        |            C  C C C                  |
 *         |      C  CC       C                   |
 |         |   CC  C    C  C  C                   |
 |         .--------CC---------C------------------.
 |        /      C     C  C  C                   /
 |       /       C   C  C                       /

[...]

Density initialized from wave functions
  /        |            C  C C C                  |
 *         |      C  CC       C                   |
 |         |   CC  C C  C  C  C                   |
 |         .--------C----------C------------------.
 |        /      C     C  C  C                   /
 |       /       C   C  C                       /

[...]

Density initialized from wave functions
  /        |            C  C C C                  |
 *         |      C  CC       C                   |
 |         |   CC  C C  C  C  C                   |
 |         .--------C----------C------------------.
 |        /      C     C  C  C                   /
 |       /        C  C  C                       /

[...]

Density initialized from wave functions
  /        |               C C C                  |
 *         |      C  C  C     C                   |
 |         |   CC  C C  C  C  C                   |
 |         .--------C----------C------------------.
 |        /      C     C  C  C                   /
 |       /        C  C  C                       /

[...]

Density initialized from wave functions
  /        |               C C C                  |
 *         |      C  C  C     C                   |
 |         |   CC C  C  C  C  C                   |
 |         .--------C----------C------------------.
 |        /      C     CC C  C                   /
 |       /        C  C                          /

[...]

Density initialized from wave functions
  /        |               C C C                  |
 *         |      C  C  C     C                   |
 |         |   CC  C C  C  C  C                   |
 |         .--------C----------C------------------.
 |        /      C     CC C  C                   /
 |       /        C  C                          /

[...]

Density initialized from wave functions
  /        |               C  C                   |
 *         |      C  C  C     CC                  |
 |         |   CC  C C  C  C  C                   |
 |         .--------C----------C------------------.
 |        /      C     CC C  C                   /
 |       /        C  C                          /

[...]

Density initialized from wave functions
  /        |               C  C                   |
 *         |      C  C  C     CC                  |
 |         |   CC  C C  C  C  C                   |
 |         .--------C----------C------------------.
 |        /      C     CC C  C                   /
 |       /        C  C                          /

[...]

Density initialized from wave functions
  /        |               C  C                   |
 *         |      C  C  C     CC                  |
 |         |   C   C C  C  C  C                   |
 |         .--------C----------C------------------.
 |        /      C     CC C  C                   /
 |       /        C  C                          /

[...]

Density initialized from wave functions
  /        |               C  C                   |
 *         |     C   C  C      C                  |
 |         |   C   C C  C  C  C                   |
 |         .--------C----------C------------------.
 |        /      C     CC C  C                   /
 |       /        C  C                          /

[...]

Density initialized from wave functions
  /        |               C  C                   |
 *         |     C   C  C      C                  |
 |         |   C  C  C  C  C  C                   |
 |         .--------C----------C------------------.
 |        /      C     CC C  C                   /
 |       /        C  C                          /

[...]

Density initialized from wave functions
  /        |            C  C  C                   |
 *         |     C   C         CC                 |
 |         |   C  C  C  C  C  C                   |
 |         .--------C----------C------------------.
 |        /      C     CC C  C                   /
 |       /       C   C                          /

[...]

Density initialized from wave functions
  /        |            C  C  C                   |
 *         |     C   C         CC                 |
 |         |   C  C  C  C  C  C                   |
 |         .--------C----------C------------------.
 |        /      C     CC C  C                   /
 |       /       C   C                          /

[...]

Density initialized from wave functions
  /        |            C  C  C                   |
 *         |     C   C        C C                 |
 |         |   C  C  C  C  C  C                   |
 |         .--------C----------C------------------.
 |        /      C     CC C  C                   /
 |       /       C   C                          /

[...]

Density initialized from wave functions
  /        |               C  C                   |
 *         |     C   C  C     C C                 |
 |         |   C  C  C  C  C  C                   |
 |         .--------C----------C------------------.
 |        /      C     CC C  C                   /
 |       /        C  C                          /

[...]

Density initialized from wave functions
  /        |               C  C                   |
 *         |     C   C  C     C C                 |
 |         |   C  C  C  C  C  C                   |
 |         .--------C----------C------------------.
 |        /      C     CC C  C                   /
 |       /        C  C                          /

[...]

Density initialized from wave functions
  /        |               C  C                   |
 *         |     C   C  C      CC                 |
 |         |   C  C  C  C  C  C                   |
 |         .--------C----------C------------------.
 |        /       C    CC C  C                   /
 |       /       C   C                          /

[...]

Density initialized from wave functions
  /        |               C  C                   |
 *         |     C   C  C      CC                 |
 |         |   C  C     C  C  C                   |
 |         .--------CC---------C------------------.
 |        /       C    CC C  C                   /
 |       /       C   C                          /

[...]

Density initialized from wave functions
  /        |               C  C                   |
 *         |     C   C  C      CC                 |
 |         |   C  C     C  C  C                   |
 |         .--------CC---------C------------------.
 |        /       C     C C  C                   /
 |       /       C   C C                        /

[...]

Density initialized from wave functions
  /        |               C  C                   |
 *         |   C C   C  C      CC                 |
 |         |   C  C  C  C  C  C                   |
 |         .--------CC---------C------------------.
 |        /       C     C C  C                   /
 |       /       C   C C                        /

[...]

Density initialized from wave functions
  /        |               C  C                   |
 *         |   C C   C  C      CC                 |
 |         |   C  C  C  C  C  C                   |
 |         .--------CC-------C-C------------------.
 |        /       C     C C                      /
 |       /       C   C C                        /

[...]

Density initialized from wave functions
  /        |               C  C                   |
 *         |   C C   C  C      CC                 |
 |         |   C  C  C  C  C  C                   |
 |         .--------CC-------C-C------------------.
 |        /       C     C C                      /
 |       /       C   C C                        /

[...]

Density initialized from wave functions
  /        |               C  C                   |
 *         |   C C   C  C      CC                 |
 |         |   C  C  C  C  C  C                   |
 |         .--------CC---------C------------------.
 |        /       C    CC C  C                   /
 |       /       C   C                          /

[...]

System changes: positions

Initializing position-dependent things.

Density initialized from wave functions
  /        |               C  C                   |
 *         |   C C   C  C      CC                 |
 |         |   C  C  C  C  C  C                   |
 |         .--------CC-------C-C------------------.
 |        /       C    CC C                      /
 |       /       C   C                          /

Positions:
   0 C      5.988752    9.043438    4.863422
   1 C      8.580673    3.334335    5.503484
   2 C      9.721505    9.380944    4.800813
   3 C      7.564152   11.838793    4.313457
   4 C      8.572593    8.476473    4.904548
   5 C      9.947792    8.018003    4.936453
   6 C      7.320537    3.378046    4.800394
   7 C      6.536797    5.626146    5.016586
   8 C      7.715027    4.797719    4.587054
   9 C      9.121038    4.565636    4.965094
  10 C      3.489378    9.179550    4.819958
  11 C      7.230239    8.226525    4.909780
  12 C      3.986011   10.366462    4.603937
  13 C      5.633942    4.533144    5.295719
  14 C      5.439184   10.351118    4.591976
  15 C      8.874343   11.553152    4.421375
  16 C      6.395010   11.369702    4.395245
  17 C      5.160162    7.869728    5.104890
  18 C      9.854080   10.751014    4.574948
  19 C      5.910198    3.280344    5.054687
  20 C      3.744090    7.904226    5.127230
  21 C     10.461556    6.727274    4.998818
  22 C     10.118727    5.518071    5.047515
  23 C      6.367704    7.007898    5.072951

Unit cell:
           periodic     x           y           z      points  spacing
  1. axis:    yes   16.000000    0.000000    0.000000    80     0.2000
  2. axis:    yes    0.000000   16.000000    0.000000    80     0.2000
  3. axis:    yes    0.000000    0.000000   10.000000    48     0.2083

Effective grid spacing dv^(1/3) = 0.2027

                     log10-error:    total        iterations:
           time      wfs    density  energy       fermi  poisson
iter:   1  14:28:46          +inf  -179.663953    2      5
iter:   2  14:28:46         -2.47  -179.667254    3      1
iter:   3  14:28:46         -3.13  -179.669133    2      1
iter:   4  14:28:47         -3.19  -179.666253    2      1
iter:   5  14:28:47         -3.06  -179.675786    3      1
iter:   6  14:28:48         -2.78  -179.676070    2      1
iter:   7  14:28:48         -2.80  -179.668816    2      1
iter:   8  14:28:49         -3.88  -179.669951    2      1
iter:   9  14:28:49         -3.41  -179.668813    2      1
iter:  10  14:28:50         -3.97  -179.668308    2      1
iter:  11  14:28:50         -4.07  -179.669155    2      1

Converged after 11 iterations.

Dipole moment: (0.539511, 0.186978, -0.189542) |e|*Ang

Energy contributions relative to reference atoms: (reference = -24663.074771)

Kinetic:       +108.891954
Potential:     -114.630832
External:        +0.000000
XC:            -176.808052
Entropy (-ST):   -0.225811
Local:           +2.990680
Free energy:   -179.782061
Extrapolated:  -179.669155

Fermi level: -4.47729

 Band  Eigenvalues  Occupancy
    0    -23.48384    2.00000
    1    -23.02118    2.00000
    2    -22.46240    2.00000
    3    -20.94678    2.00000
    4    -20.66769    2.00000
    5    -20.26571    2.00000
    6    -19.75280    2.00000
    7    -19.38612    2.00000
    8    -18.48245    2.00000
    9    -18.21543    2.00000
   10    -17.28265    2.00000
   11    -17.13323    2.00000
   12    -16.30509    2.00000
   13    -15.89333    2.00000
   14    -15.25178    2.00000
   15    -14.91042    2.00000
   16    -14.35622    2.00000
   17    -13.71116    2.00000
   18    -13.43090    2.00000
   19    -13.22936    2.00000
   20    -12.78986    2.00000
   21    -11.82623    2.00000
   22    -11.22777    2.00000
   23    -10.79627    2.00000
   24    -10.68839    2.00000
   25    -10.54050    2.00000
   26    -10.45859    2.00000
   27    -10.10381    2.00000
   28     -9.84224    2.00000
   29     -9.72490    2.00000
   30     -9.47879    2.00000
   31     -9.17009    2.00000
   32     -8.90837    2.00000
   33     -8.82146    2.00000
   34     -8.40162    2.00000
   35     -7.83072    2.00000
   36     -7.65235    2.00000
   37     -7.34866    2.00000
   38     -7.23234    2.00000
   39     -6.76254    2.00000
   40     -6.54813    2.00000
   41     -6.21491    2.00000
   42     -5.76688    1.99999
   43     -5.67207    1.99999
   44     -5.48378    1.99991
   45     -5.15592    1.99774
   46     -4.93898    1.98043
   47     -4.60481    1.56326
   48     -4.35600    0.45836
   49     -3.59515    0.00030
   50     -3.29618    0.00001
   51     -2.75462    0.00000
   52     -2.60645    0.00000
   53     -2.17350    0.00000
   54     -2.01208    0.00000
   55     -1.61756    0.00000
   56     -1.14446    0.00000
   57     -1.12315    0.00000
   58     -0.84047    0.00000
   59     -0.18769    0.00000
[...]
   83      8.62907    0.00000
   84      8.73355    0.00000
   85      8.89990    0.00000
   86      9.08495    0.00000
   87      9.10136    0.00000
   88      9.33616    0.00000
   89      9.41485    0.00000
   90      9.51471    0.00000
   91      9.64400    0.00000
   92      9.75011    0.00000
   93      9.77162    0.00000
   94     10.02045    0.00000
   95     10.09239    0.00000
   96     10.18175    0.00000
   97     10.29868    0.00000

Forces in eV/Ang:
  0 C     0.02238   -0.04260   -0.02795
  1 C     0.03275    0.06166    0.02811
  2 C    -0.02666    0.02872   -0.00280
  3 C    -0.01334    0.00583    0.02755
  4 C    -0.02579    0.00344   -0.05712
  5 C     0.05263   -0.04856    0.00903
  6 C    -0.01763   -0.03958   -0.04566
  7 C    -0.01378   -0.01702    0.00191
  8 C    -0.00073   -0.03693    0.01549
  9 C    -0.00912   -0.01163    0.06768
 10 C     0.02992    0.01125   -0.00374
 11 C    -0.00637   -0.01768   -0.01369
 12 C     0.01590   -0.02527    0.08769
 13 C    -0.03067   -0.05600   -0.01001
 14 C    -0.03450   -0.07058    0.02129
 15 C     0.02751   -0.01046   -0.07589
 16 C     0.01911    0.07737    0.01538
 17 C     0.04592   -0.00607   -0.05063
 18 C    -0.00644    0.00490    0.02305
 19 C    -0.06196   -0.01414   -0.01589
 20 C     0.01176    0.01786   -0.01395
 21 C     0.00318   -0.00543   -0.02964
 22 C     0.03141   -0.00378    0.05142
 23 C    -0.01745   -0.00194   -0.00461