User:   esb@s65n63.grendel.cscaa.dk
Date:   Wed Nov  8 17:09:53 2017
Arch:   x86_64
Pid:    73686
Python: 2.7.13
gpaw:   /home/esb/DFT/gpaw_git/gpaw
_gpaw:  /home/esb/DFT/gpaw_git/build/bin.linux-x86_64-2.7/gpaw-python
ase:    /home/esb/DFT/ase_git/ase (version 3.15.0b1)
numpy:  /comm/swstack/core/python/2.7.13/lib/python2.7/site-packages/numpy (version 1.13.3)
scipy:  /comm/swstack/core/python/2.7.13/lib/python2.7/site-packages/scipy (version 0.19.1)
units:  Angstrom and eV
cores:  16
Extra parameters: {'blacs': True}

Input parameters:
  basis: dzp
  gpts: [80 80 48]
  kpts: [1 1 1]
  maxiter: 99
  mixer: {backend: pulay,
          beta: 0.05,
          method: separate,
          nmaxold: 5,
          weight: 75}
  mode: lcao
  nbands: -50
  occupations: {name: fermi-dirac,
                width: 0.1}
  poissonsolver: {eps: 1e-07,
                  name: fd,
                  nn: 3,
                  relax: GS}
  xc: PBE

System changes: positions, numbers, cell, pbc, initial_charges, initial_magmoms

Initialize ...

C-setup:
  name: Carbon
  id: 4aa54d4b901d75f77cc0ea3eec22967b
  Z: 6
  valence: 4
  core: 2
  charge: 0.0
  file: /home/esb/DFT/gpaw-setups-0.8.7929/C.PBE.gz
  cutoffs: 0.64(comp), 1.14(filt), 1.14(core), lmax=2
  valence states:
                energy  radius
    2s(2.00)   -13.751   0.635
    2p(2.00)    -5.284   0.635
    *s          13.461   0.635
    *p          21.927   0.635
    *d           0.000   0.635

  LCAO basis set for C:
    Name: dzp
    File: /home/esb/DFT/gpaw-setups-0.8.7929/C.dzp.basis.gz
    Number of radial functions: 5
    Number of spherical harmonics: 13
      l=0, rc=5.5469 Bohr: 2s-sz confined orbital
      l=1, rc=6.6719 Bohr: 2p-sz confined orbital
      l=0, rc=3.0312 Bohr: 2s-dz split-valence wave
      l=1, rc=3.7500 Bohr: 2p-dz split-valence wave
      l=2, rc=6.6719 Bohr: d-type Gaussian polarization

Reference energy: -24663.074771

Spin-paired calculation

Occupation numbers:
  Fermi-Dirac: width=0.1000 eV

Convergence criteria:
  Maximum total energy change: 0.0005 eV / electron
  Maximum integral of absolute density change: 0.0001 electrons
  Maximum integral of absolute eigenstate change: 4e-08 eV^2
  Maximum number of iterations: 99

Symmetries present (total): 1

  ( 1  0  0)
  ( 0  1  0)
  ( 0  0  1)

1 k-point (Gamma)
1 k-point in the irreducible part of the Brillouin zone
       k-points in crystal coordinates                weights
   0:     0.00000000    0.00000000    0.00000000          1/1

Wave functions: LCAO
  Diagonalizer: Serial LAPACK
  Atomic Correction: dense with blas
  Datatype: float
  Eigensolver: None

LCAO using direct dense diagonalizer

Densities:
  Coarse grid: 80*80*48 grid
  Fine grid: 160*160*96 grid
  Total Charge: 0.000000

Density mixing:
  Method: separate
  Backend: pulay
  Linear mixing parameter: 0.05
  Mixing with 5 old densities
  Damping of long wave oscillations: 75

Hamiltonian:
  XC and Coulomb potentials evaluated on a 160*160*96 grid
  Using the PBE Exchange-Correlation functional
  Interpolation: tri-quintic (5. degree polynomial)
  Poisson solver: Gauss-Seidel solver with 6 multi-grid levels
    Coarsest grid: 5 x 5 x 3 points
    Stencil: 6*3+1=19 point O(h^6) finite-difference Laplacian
    Max iterations: 1000
    Tolerance: 1.000000e-07

Total number of cores used: 16
Domain decomposition: 2 x 4 x 2

Number of atoms: 24
Number of atomic orbitals: 312
Number of bands in calculation: 98
Bands to converge: occupied states only
Number of valence electrons: 96

... initialized

Initializing position-dependent things.

Density initialized from atomic densities
    /      |             C  C C                   |
   /       |                 C                    |
  /        |           C       C                  |
 *         |  C C   C   C C    C                  |
 |         | C       C    C C                     |
 |         .---C---C-C----------------------------.
 |        /    C    C     C                      /
 |       /       C     C                        /

Positions:
   0 C      3.259175    6.251518    5.560335
   1 C      4.616837    4.088007    5.355297
   2 C      4.474201    5.498887    5.461761
   3 C      5.610078    3.318896    5.305737
   4 C      3.537909    7.528178    5.687544
   5 C      4.071908    8.709465    5.847802
   6 C      6.950910    3.769821    5.309245
   7 C      5.833599    6.079579    5.484298
   8 C      7.010492    5.237664    5.381104
   9 C      8.244528    3.229307    5.229574
  10 C      5.495636    8.689150    5.818119
  11 C      6.313855    7.469667    5.597377
  12 C      9.644051    9.263721    7.732724
  13 C     10.602384    6.911818    7.391819
  14 C      9.624080    7.928453    7.213956
  15 C     10.678761    5.710157    7.030305
  16 C      8.541501    9.888730    7.389965
  17 C      7.363185   10.262196    6.967626
  18 C      9.696164    5.064954    6.243290
  19 C      8.531142    7.352203    6.402109
  20 C      8.595319    5.985341    5.920325
  21 C      9.478181    3.811310    5.649312
  22 C      6.688712    9.252010    6.224051
  23 C      7.256176    7.914228    5.917992

Unit cell:
           periodic     x           y           z      points  spacing
  1. axis:    yes   16.000000    0.000000    0.000000    80     0.2000
  2. axis:    yes    0.000000   16.000000    0.000000    80     0.2000
  3. axis:    yes    0.000000    0.000000   10.000000    48     0.2083

Effective grid spacing dv^(1/3) = 0.2027

                     log10-error:    total        iterations:
           time      wfs    density  energy       fermi  poisson
iter:   1  17:09:55          +inf  -182.969079    3      6
iter:   2  17:09:55         -0.89  -182.019780    4      3
iter:   3  17:09:56         -0.93  -179.051505    34     4
iter:   4  17:09:57         -1.18  -178.365079    4      3
iter:   5  17:09:57         -1.40  -178.505550    33     3
iter:   6  17:09:58         -1.54  -178.335784    4      3
iter:   7  17:09:59         -1.80  -178.334111    3      3
iter:   8  17:10:00         -1.91  -178.295682    3      2
iter:   9  17:10:00         -2.11  -178.284617    3      2
iter:  10  17:10:01         -2.24  -178.274220    4      2
iter:  11  17:10:01         -2.48  -178.269610    4      2
iter:  12  17:10:02         -2.66  -178.267512    3      2
iter:  13  17:10:03         -2.80  -178.272601    2      1
iter:  14  17:10:03         -2.85  -178.268300    3      2
iter:  15  17:10:04         -3.10  -178.273910    2      1
iter:  16  17:10:05         -3.24  -178.275062    2      1
iter:  17  17:10:05         -3.43  -178.270946    2      1
iter:  18  17:10:06         -3.57  -178.271727    2      1
iter:  19  17:10:07         -3.79  -178.269046    2      1
iter:  20  17:10:07         -3.95  -178.265511    2      1
iter:  21  17:10:08         -4.13  -178.266336    2      1

Converged after 21 iterations.

Dipole moment: (0.159075, -0.245931, -0.123961) |e|*Ang

Energy contributions relative to reference atoms: (reference = -24663.074771)

Kinetic:       +137.825492
Potential:     -137.626736
External:        +0.000000
XC:            -181.301199
Entropy (-ST):   -0.344242
Local:           +3.008228
Free energy:   -178.438457
Extrapolated:  -178.266336

Fermi level: -4.71267

 Band  Eigenvalues  Occupancy
    0    -24.58550    2.00000
    1    -22.09882    2.00000
    2    -21.84175    2.00000
    3    -20.79822    2.00000
    4    -20.62976    2.00000
    5    -20.13052    2.00000
    6    -19.40826    2.00000
    7    -19.26905    2.00000
    8    -18.48073    2.00000
    9    -18.31103    2.00000
   10    -17.98503    2.00000
   11    -17.24162    2.00000
   12    -16.49693    2.00000
   13    -15.76679    2.00000
   14    -15.07595    2.00000
   15    -14.80145    2.00000
   16    -14.44964    2.00000
   17    -13.61530    2.00000
   18    -13.48719    2.00000
   19    -13.05687    2.00000
   20    -12.33328    2.00000
   21    -11.84078    2.00000
   22    -11.67529    2.00000
   23    -11.36000    2.00000
   24    -11.19664    2.00000
   25    -11.19031    2.00000
   26    -11.18611    2.00000
   27    -10.61742    2.00000
   28     -9.97092    2.00000
   29     -9.81607    2.00000
   30     -9.65977    2.00000
   31     -8.85645    2.00000
   32     -8.63955    2.00000
   33     -8.45491    2.00000
   34     -8.28225    2.00000
   35     -8.05319    2.00000
   36     -7.20762    2.00000
   37     -7.12063    2.00000
   38     -6.99851    2.00000
   39     -6.96611    2.00000
   40     -6.65486    2.00000
   41     -6.49982    2.00000
   42     -6.38334    2.00000
   43     -6.04289    2.00000
   44     -5.86045    1.99998
   45     -5.20065    1.98492
   46     -4.94494    1.82148
   47     -4.74126    1.14199
   48     -4.72297    1.05144
   49     -3.78961    0.00020
   50     -3.20171    0.00000
   51     -2.97308    0.00000
   52     -2.85222    0.00000
   53     -2.53817    0.00000
   54     -1.58581    0.00000
   55     -1.41810    0.00000
   56     -1.37622    0.00000
   57     -1.37122    0.00000
   58     -0.62528    0.00000
   59     -0.32485    0.00000
[...]
   83      8.73550    0.00000
   84      8.96733    0.00000
   85      9.09974    0.00000
   86      9.19099    0.00000
   87      9.21653    0.00000
   88      9.49790    0.00000
   89      9.55972    0.00000
   90      9.66409    0.00000
   91      9.68674    0.00000
   92      9.88053    0.00000
   93     10.19788    0.00000
   94     10.21186    0.00000
   95     10.24634    0.00000
   96     10.40930    0.00000
   97     10.48004    0.00000

Forces in eV/Ang:
  0 C     0.77137    0.26303   -0.20968
  1 C    -0.05629    0.23220    0.02035
  2 C    -0.73234   -0.49736    0.01038
  3 C     0.07555   -0.03452   -0.16576
  4 C    -0.91437   -0.30023    0.08474
  5 C     1.71273    1.01659    0.00414
  6 C     0.99867    0.01347   -0.54741
  7 C     2.42345   -0.64810   -0.53810
  8 C     2.26165    1.90964    1.89808
  9 C     6.45078    2.91879    2.55495
 10 C    -5.20982    0.01792   -0.73964
 11 C   -29.63512  -15.23961   -9.88549
 12 C    -0.46308   -0.32123   -0.60980
 13 C    -0.15206    0.17559   -0.02426
 14 C     0.69041    0.17466    0.49971
 15 C     0.07510   -0.02330   -0.15858
 16 C     0.59557    0.42473    0.62070
 17 C    -1.57220   -0.55097   -1.11416
 18 C    -0.24066   -0.55367   -0.92983
 19 C    -0.48071   -2.00311   -1.50209
 20 C    -3.44243   -0.79068   -0.04544
 21 C    -6.55919   -3.17112   -1.84678
 22 C     2.95120    3.87922    2.05358
 23 C    30.44830   13.11883   10.53794

System changes: positions

[...]

Density initialized from wave functions
    /      |             C  C C                   |
   /       |                 C                    |
  /        |           C       C                  |
 *         |  C C   C   C C    C                  |
 |         | C       C    C C                     |
 |         .---C---C-C----------------------------.
 |        /    C    C     C                      /
 |       /       C     C                        /

[...]

Density initialized from wave functions
    /      |             C  C C                   |
   /       |                 C                    |
  /        |           C       C                  |
 *         |  C C   C   C C    C                  |
 |         | C       C    C C                     |
 |         .---C---C-C----------------------------.
 |        /    C    C     C                      /
 |       /       C     C                        /

[...]

Density initialized from wave functions
    /      |             C  C C                   |
   /       |                 C                    |
  /        |           C       C                  |
 *         |  C C   C   C C    C                  |
 |         | C       C    C C                     |
 |         .---C---C--C---------------------------.
 |        /    C    C     C                      /
 |       /       C     C                        /

[...]

Density initialized from wave functions
    /      |             C  C C                   |
   /       |                 C                    |
  /        |           C       C                  |
 *         |  C C   C   C C    C                  |
 |         | C       C   C  C                     |
 |         .---C---C--C---------------------------.
 |        /    C    C     C                      /
 |       /       C     C                        /

[...]

Density initialized from wave functions
    /      |             C  C C                   |
   /       |                 C                    |
  /        |    C      C       C                  |
 *         |  C     C   C C    C                  |
 |         | C       C   C  C                     |
 |         .---C---C--C---------------------------.
 |        /    C    C     C                      /
 |       /       C     C                        /

[...]

Density initialized from wave functions
    /      |             C  C C                   |
   /       |                 C                    |
  /        |    C      C       C                  |
 *         |  C     C   C C    C                  |
 |         | C       C   C  C                     |
 |         .---C---C--C---------------------------.
 |        /    C     C    C                      /
 |       /       C     C                        /

[...]

Density initialized from wave functions
    /      |             C  C C                   |
   /       |                 C                    |
  /        |    C      C       C                  |
 *         |  C     C   C C    C                  |
 |         | C       C   C  C                     |
 |         .----C--C--C---------------------------.
 |        /    C     C    C                      /
 |       /       C     C                        /

[...]

Density initialized from wave functions
    /      |             C  C C                   |
  /        |    C      C     C C                  |
 *         |  C     C   C C    C                  |
 |         | C       C   C  C                     |
 |         .----C--C--C---------------------------.
 |        /    C     C    C                      /
 |       /       C     C                        /

[...]

Density initialized from wave functions
    /      |             C  C C                   |
  /        |    C      C     C C                  |
 *         |  C     C   C C    C                  |
 |         | C       C   C  C                     |
 |         .----C--C--C---------------------------.
 |        /    C     C    C                      /
 |       /       C     C                        /

[...]

Density initialized from wave functions
    /      |             C  C C                   |
  /        |    C   C  C     C C                  |
 *         |  C     C   C C    C                  |
 |         | C           C  C                     |
 |         .----C--C--C---------------------------.
 |        /    C     C    C                      /
 |       /       C     C                        /

[...]

Density initialized from wave functions
    /      |             C  C C                   |
  /        |    C   C  C     C C                  |
 *         |  C     C   C C    C                  |
 |         | C           C  C                     |
 |         .---C---C--C---------------------------.
 |        /    C     C    C                      /
 |       /       C     C                        /

[...]

Density initialized from wave functions
    /      |             C  C C                   |
  /        |    C   C  C      CC                  |
 *         |  C     C   C C    C                  |
 |         | C           C  C                     |
 |         .---C---C--C---------------------------.
 |        /    C     C    C                      /
 |       /       C     C                        /

[...]

Density initialized from wave functions
    /      |             C  C C                   |
   /       |           C                          |
  /        |    C  C          CC                  |
 *         |  C     C   C C    C                  |
 |         |             C  C                     |
 |         .-C-C---C--C---------------------------.
 |        /    C     C C  C                      /
 |       /       C                              /

[...]

Density initialized from wave functions
    /      |             C  C C                   |
   /       |           C                          |
  /        |    C  C          C C                 |
 *         |  C     C   C C    C                  |
 |         |             C  C                     |
 |         .-C-C---C--C---------------------------.
 |        /    C     C C  C                      /
 |       /       C                              /

[...]

Density initialized from wave functions
    /      |             C  C C                   |
   /       |           C                          |
  /        |    C  C          C C                 |
 *         |  C     C   C C    C                  |
 |         |             C  C                     |
 |         .-C-C---C--C---------------------------.
 |        /    C     C C  C                      /
 |       /       C                              /

[...]

Density initialized from wave functions
    /      |             C  C C                   |
   /       |           C                          |
  /        |    C  C    C     C C                 |
 *         |        C     C    C                  |
 |         |  C          C  C                     |
 |         .-C-C---C--C---------------------------.
 |        /    C     C C  C                      /
 |       /       C                              /

[...]

Density initialized from wave functions
    /      |             C  C C                   |
   /       |           C                          |
  /        |    C  C    C     C C                 |
 *         |        C     C    C                  |
 |         |  C          C  C                     |
 |         .-C-C---C--C---------------------------.
 |        /    C     C C  C                      /
 |       /       C                              /

[...]

Density initialized from wave functions
    /      |             C  C C                   |
   /       |           C                          |
  /        |    C  C    C     C C                 |
 *         |        C     C    C                  |
 |         |  C    C     C  C                     |
 |         .-C-C------C---------------------------.
 |        /    C     C C  C                      /
 |       /       C                              /

[...]

Density initialized from wave functions
    /      |             C  C C                   |
   /       |           C                          |
  /        |    C  C    C     C C                 |
 *         |        C     C    C                  |
 |         |  C    C     C  C                     |
 |         .-C-C------C---------------------------.
 |        /          C C  C                      /
 |       /     C C                              /

[...]

System changes: positions

Initializing position-dependent things.

Density initialized from wave functions
    /      |             C  C C                   |
   /       |           C                          |
  /        |    C  C    C     C C                 |
 *         |        C     C    C                  |
 |         |  C    C     C  C                     |
 |         .-C-C------C---------------------------.
 |        /          C C  C                      /
 |       /     C C                              /

Positions:
   0 C      3.430618    6.367236    5.224453
   1 C      4.721990    4.126056    4.903132
   2 C      4.538842    5.494375    5.231172
   3 C      5.740551    3.387568    4.956784
   4 C      3.535561    7.625926    5.527187
   5 C      3.944378    8.872441    5.859287
   6 C      7.036786    3.769117    5.384702
   7 C      5.881275    6.011394    5.643247
   8 C      7.108986    5.212934    5.743139
   9 C      8.274157    3.142138    5.558936
  10 C      5.317840    8.640212    6.091316
  11 C      6.038032    7.372145    5.963123
  12 C      9.649535    9.300191    7.349884
  13 C     10.759126    6.972609    6.967925
  14 C      9.716283    7.935086    6.999952
  15 C     10.745136    5.749104    6.669709
  16 C      8.558352    9.994768    7.241098
  17 C      7.309711   10.459733    7.004496
  18 C      9.619129    4.987979    6.268930
  19 C      8.479059    7.237264    6.527302
  20 C      8.383408    5.815244    6.177413
  21 C      9.365741    3.655230    5.932901
  22 C      6.676280    9.281223    6.551234
  23 C      7.279238    7.958209    6.384313

Unit cell:
           periodic     x           y           z      points  spacing
  1. axis:    yes   16.000000    0.000000    0.000000    80     0.2000
  2. axis:    yes    0.000000   16.000000    0.000000    80     0.2000
  3. axis:    yes    0.000000    0.000000   10.000000    48     0.2083

Effective grid spacing dv^(1/3) = 0.2027

                     log10-error:    total        iterations:
           time      wfs    density  energy       fermi  poisson
iter:   1  17:15:21          +inf  -185.806403    3      5
iter:   2  17:15:21         -3.11  -185.806157    2      1
iter:   3  17:15:22         -3.21  -185.805993    2      1
iter:   4  17:15:23         -3.41  -185.806190    2      1
iter:   5  17:15:23         -3.54  -185.805195    2      1
iter:   6  17:15:24         -3.75  -185.805490    2      1
iter:   7  17:15:24         -3.84  -185.807588    2      1
iter:   8  17:15:25         -4.17  -185.807433    2      1

Converged after 8 iterations.

Dipole moment: (0.398003, -0.782418, -0.093419) |e|*Ang

Energy contributions relative to reference atoms: (reference = -24663.074771)

Kinetic:       +116.675288
Potential:     -125.434984
External:        +0.000000
XC:            -179.970017
Entropy (-ST):   -0.193716
Local:           +3.019138
Free energy:   -185.904291
Extrapolated:  -185.807433

Fermi level: -4.39207

 Band  Eigenvalues  Occupancy
    0    -23.18033    2.00000
    1    -22.29463    2.00000
    2    -21.93330    2.00000
    3    -20.95349    2.00000
    4    -20.67841    2.00000
    5    -20.30056    2.00000
    6    -19.56247    2.00000
    7    -19.43106    2.00000
    8    -18.71988    2.00000
    9    -18.63272    2.00000
   10    -17.98734    2.00000
   11    -17.01663    2.00000
   12    -16.71361    2.00000
   13    -15.90158    2.00000
   14    -15.56151    2.00000
   15    -15.44159    2.00000
   16    -13.90174    2.00000
   17    -13.57987    2.00000
   18    -13.34578    2.00000
   19    -12.95158    2.00000
   20    -12.74454    2.00000
   21    -12.05904    2.00000
   22    -11.92549    2.00000
   23    -11.60691    2.00000
   24    -11.14833    2.00000
   25    -11.09578    2.00000
   26    -10.92620    2.00000
   27    -10.51005    2.00000
   28     -9.92520    2.00000
   29     -9.83211    2.00000
   30     -9.81013    2.00000
   31     -9.48507    2.00000
   32     -8.98974    2.00000
   33     -8.64583    2.00000
   34     -8.47643    2.00000
   35     -8.18941    2.00000
   36     -7.19393    2.00000
   37     -7.16626    2.00000
   38     -7.11406    2.00000
   39     -6.78128    2.00000
   40     -6.75703    2.00000
   41     -6.66307    2.00000
   42     -6.60152    2.00000
   43     -6.49519    2.00000
   44     -6.42287    2.00000
   45     -5.43087    1.99994
   46     -4.66966    1.88272
   47     -4.61704    1.80926
   48     -4.22169    0.30795
   49     -3.41989    0.00012
   50     -3.12213    0.00001
   51     -2.90650    0.00000
   52     -2.84422    0.00000
   53     -2.67495    0.00000
   54     -2.21025    0.00000
   55     -1.81944    0.00000
   56     -1.42193    0.00000
   57     -1.09068    0.00000
   58     -0.25321    0.00000
   59      0.01052    0.00000
[...]
   83      8.97872    0.00000
   84      9.02382    0.00000
   85      9.06455    0.00000
   86      9.16489    0.00000
   87      9.31342    0.00000
   88      9.43933    0.00000
   89      9.46955    0.00000
   90      9.49616    0.00000
   91      9.52591    0.00000
   92      9.77005    0.00000
   93     10.16839    0.00000
   94     10.20545    0.00000
   95     10.22589    0.00000
   96     10.29963    0.00000
   97     10.43652    0.00000

Forces in eV/Ang:
  0 C    -0.01462    0.02034   -0.03354
  1 C    -0.05588   -0.03392    0.01163
  2 C     0.01691    0.02124   -0.01764
  3 C    -0.02540    0.02161    0.05144
  4 C    -0.01105   -0.00030   -0.03622
  5 C     0.03632   -0.00189    0.02143
  6 C     0.03793    0.04553    0.01493
  7 C     0.04681    0.02304   -0.00436
  8 C     0.03169    0.04910   -0.00122
  9 C     0.02055   -0.02034   -0.02999
 10 C     0.03603   -0.05915    0.02120
 11 C     0.05049    0.03441    0.00469
 12 C     0.00781   -0.00077   -0.00938
 13 C     0.01728    0.00456    0.04658
 14 C    -0.02166    0.00807   -0.05042
 15 C    -0.03258    0.01985    0.05714
 16 C    -0.01710    0.03107   -0.03631
 17 C    -0.01470   -0.04349    0.00913
 18 C    -0.04496    0.00454   -0.00416
 19 C    -0.03289   -0.03026   -0.02218
 20 C    -0.03351    0.00504   -0.02669
 21 C     0.00046   -0.03437   -0.04756
 22 C     0.00484   -0.06501    0.03373
 23 C    -0.01960   -0.00553   -0.01146