User:   esb@s65n12.grendel.cscaa.dk
Date:   Thu Nov  9 09:32:27 2017
Arch:   x86_64
Pid:    18283
Python: 2.7.13
gpaw:   /home/esb/DFT/gpaw_git/gpaw
_gpaw:  /home/esb/DFT/gpaw_git/build/bin.linux-x86_64-2.7/gpaw-python
ase:    /home/esb/DFT/ase_git/ase (version 3.15.0b1)
numpy:  /comm/swstack/core/python/2.7.13/lib/python2.7/site-packages/numpy (version 1.13.3)
scipy:  /comm/swstack/core/python/2.7.13/lib/python2.7/site-packages/scipy (version 0.19.1)
units:  Angstrom and eV
cores:  16
Extra parameters: {'blacs': True}

Input parameters:
  basis: dzp
  gpts: [80 80 48]
  kpts: [1 1 1]
  maxiter: 99
  mixer: {backend: pulay,
          beta: 0.05,
          method: separate,
          nmaxold: 5,
          weight: 75}
  mode: lcao
  nbands: -50
  occupations: {name: fermi-dirac,
                width: 0.1}
  poissonsolver: {eps: 1e-07,
                  name: fd,
                  nn: 3,
                  relax: GS}
  xc: PBE

System changes: positions, numbers, cell, pbc, initial_charges, initial_magmoms

Initialize ...

C-setup:
  name: Carbon
  id: 4aa54d4b901d75f77cc0ea3eec22967b
  Z: 6
  valence: 4
  core: 2
  charge: 0.0
  file: /home/esb/DFT/gpaw-setups-0.8.7929/C.PBE.gz
  cutoffs: 0.64(comp), 1.14(filt), 1.14(core), lmax=2
  valence states:
                energy  radius
    2s(2.00)   -13.751   0.635
    2p(2.00)    -5.284   0.635
    *s          13.461   0.635
    *p          21.927   0.635
    *d           0.000   0.635

  LCAO basis set for C:
    Name: dzp
    File: /home/esb/DFT/gpaw-setups-0.8.7929/C.dzp.basis.gz
    Number of radial functions: 5
    Number of spherical harmonics: 13
      l=0, rc=5.5469 Bohr: 2s-sz confined orbital
      l=1, rc=6.6719 Bohr: 2p-sz confined orbital
      l=0, rc=3.0312 Bohr: 2s-dz split-valence wave
      l=1, rc=3.7500 Bohr: 2p-dz split-valence wave
      l=2, rc=6.6719 Bohr: d-type Gaussian polarization

Reference energy: -24663.074771

Spin-paired calculation

Occupation numbers:
  Fermi-Dirac: width=0.1000 eV

Convergence criteria:
  Maximum total energy change: 0.0005 eV / electron
  Maximum integral of absolute density change: 0.0001 electrons
  Maximum integral of absolute eigenstate change: 4e-08 eV^2
  Maximum number of iterations: 99

Symmetries present (total): 1

  ( 1  0  0)
  ( 0  1  0)
  ( 0  0  1)

1 k-point (Gamma)
1 k-point in the irreducible part of the Brillouin zone
       k-points in crystal coordinates                weights
   0:     0.00000000    0.00000000    0.00000000          1/1

Wave functions: LCAO
  Diagonalizer: Serial LAPACK
  Atomic Correction: dense with blas
  Datatype: float
  Eigensolver: None

LCAO using direct dense diagonalizer

Densities:
  Coarse grid: 80*80*48 grid
  Fine grid: 160*160*96 grid
  Total Charge: 0.000000

Density mixing:
  Method: separate
  Backend: pulay
  Linear mixing parameter: 0.05
  Mixing with 5 old densities
  Damping of long wave oscillations: 75

Hamiltonian:
  XC and Coulomb potentials evaluated on a 160*160*96 grid
  Using the PBE Exchange-Correlation functional
  Interpolation: tri-quintic (5. degree polynomial)
  Poisson solver: Gauss-Seidel solver with 6 multi-grid levels
    Coarsest grid: 5 x 5 x 3 points
    Stencil: 6*3+1=19 point O(h^6) finite-difference Laplacian
    Max iterations: 1000
    Tolerance: 1.000000e-07

Total number of cores used: 16
Domain decomposition: 2 x 4 x 2

Number of atoms: 24
Number of atomic orbitals: 312
Number of bands in calculation: 98
Bands to converge: occupied states only
Number of valence electrons: 96

... initialized

Initializing position-dependent things.

Density initialized from atomic densities
  /        |           C  C       C               |
 *         |  C C   C      C                      |
 |         | C  C    C    C   C  C                |
 |         .-------C-C---C-C----CC----------------.
 |        /    C    C     C                      /
 |       /       C     C                        /

Positions:
   0 C     11.359453    5.360462    5.468271
   1 C     11.449530    6.740570    4.713016
   2 C     11.113106    8.505769    4.934269
   3 C     10.756620   10.051584    5.333675
   4 C      9.289009    3.933811    5.174407
   5 C      9.501709    5.328032    5.187972
   6 C      9.245965    9.756524    4.389370
   7 C      5.495636    8.689150    5.818119
   8 C      5.610078    3.318896    5.305737
   9 C      3.537909    7.528178    5.687544
  10 C      7.622854    9.807095    5.802140
  11 C      6.375922    9.789677    5.940044
  12 C      5.833599    6.079579    5.484298
  13 C      8.244528    3.229307    5.229574
  14 C      8.378663    7.703893    4.858370
  15 C      4.513777    5.703780    5.898022
  16 C      8.217251    6.019402    5.321390
  17 C      6.313855    7.469667    5.597377
  18 C      6.950910    3.769821    5.309245
  19 C      4.071908    8.709465    5.847802
  20 C      4.616837    4.088007    5.355297
  21 C      8.496992    8.748068    5.468537
  22 C      3.259175    6.251518    5.560335
  23 C      7.010492    5.237664    5.381104

Unit cell:
           periodic     x           y           z      points  spacing
  1. axis:    yes   16.000000    0.000000    0.000000    80     0.2000
  2. axis:    yes    0.000000   16.000000    0.000000    80     0.2000
  3. axis:    yes    0.000000    0.000000   10.000000    48     0.2083

Effective grid spacing dv^(1/3) = 0.2027

                     log10-error:    total        iterations:
           time      wfs    density  energy       fermi  poisson
iter:   1  09:32:29          +inf  -168.558410    2      6
iter:   2  09:32:29         -0.92  -167.455061    3      3
iter:   3  09:32:30         -0.95  -165.796620    3      3
iter:   4  09:32:31         -1.05  -164.942239    4      3
iter:   5  09:32:31         -1.24  -164.505799    33     3
iter:   6  09:32:32         -1.39  -164.511115    32     3
iter:   7  09:32:32         -1.61  -164.431941    3      3
iter:   8  09:32:33         -1.76  -164.394653    3      3
iter:   9  09:32:34         -1.93  -164.376736    3      2
iter:  10  09:32:34         -2.09  -164.370045    3      2
iter:  11  09:32:35         -2.21  -164.359065    3      2
iter:  12  09:32:35         -2.49  -164.359875    3      2
iter:  13  09:32:36         -2.64  -164.358053    2      2
iter:  14  09:32:37         -2.84  -164.357513    2      2
iter:  15  09:32:37         -3.06  -164.363318    2      1
iter:  16  09:32:38         -3.17  -164.368488    2      1
iter:  17  09:32:38         -3.48  -164.355761    2      1
iter:  18  09:32:39         -3.55  -164.352870    2      1
iter:  19  09:32:40         -3.67  -164.357659    2      1
iter:  20  09:32:40         -3.79  -164.355062    2      1
iter:  21  09:32:41         -3.84  -164.354080    2      1
iter:  22  09:32:41         -3.91  -164.355775    2      1
iter:  23  09:32:42         -4.18  -164.354974    2      1

Converged after 23 iterations.

Dipole moment: (-0.240105, 0.004789, 0.196238) |e|*Ang

Energy contributions relative to reference atoms: (reference = -24663.074771)

Kinetic:        +74.471916
Potential:      -88.270661
External:        +0.000000
XC:            -153.277704
Entropy (-ST):   -0.236500
Local:           +2.839725
Free energy:   -164.473224
Extrapolated:  -164.354974

Fermi level: -4.59791

 Band  Eigenvalues  Occupancy
    0    -22.74800    2.00000
    1    -22.10544    2.00000
    2    -21.82736    2.00000
    3    -20.70356    2.00000
    4    -20.33436    2.00000
    5    -20.01781    2.00000
    6    -19.09881    2.00000
    7    -18.35013    2.00000
    8    -18.12382    2.00000
    9    -17.67693    2.00000
   10    -16.99821    2.00000
   11    -16.79037    2.00000
   12    -15.96082    2.00000
   13    -15.59550    2.00000
   14    -14.97838    2.00000
   15    -14.71378    2.00000
   16    -13.58753    2.00000
   17    -13.12585    2.00000
   18    -12.89394    2.00000
   19    -12.58038    2.00000
   20    -12.25544    2.00000
   21    -11.98622    2.00000
   22    -11.44693    2.00000
   23    -10.72915    2.00000
   24    -10.61243    2.00000
   25    -10.39891    2.00000
   26     -9.97311    2.00000
   27     -9.89198    2.00000
   28     -9.66250    2.00000
   29     -9.42715    2.00000
   30     -8.72214    2.00000
   31     -8.49070    2.00000
   32     -8.13287    2.00000
   33     -7.97198    2.00000
   34     -7.91333    2.00000
   35     -7.37714    2.00000
   36     -7.13329    2.00000
   37     -6.95188    2.00000
   38     -6.80901    2.00000
   39     -6.71945    2.00000
   40     -6.49644    2.00000
   41     -6.15663    2.00000
   42     -6.11614    2.00000
   43     -6.06775    2.00000
   44     -5.82090    1.99999
   45     -5.60455    1.99992
   46     -5.30724    1.99834
   47     -4.70803    1.50097
   48     -4.48290    0.48096
   49     -4.10236    0.01399
   50     -4.01338    0.00577
   51     -3.54587    0.00005
   52     -3.31291    0.00001
   53     -3.17036    0.00000
   54     -3.07407    0.00000
   55     -2.70942    0.00000
   56     -2.48404    0.00000
   57     -2.21627    0.00000
   58     -1.78187    0.00000
   59     -1.61528    0.00000
[...]
   83      7.91865    0.00000
   84      8.13540    0.00000
   85      8.58077    0.00000
   86      8.69417    0.00000
   87      8.80610    0.00000
   88      8.87629    0.00000
   89      8.98201    0.00000
   90      9.32283    0.00000
   91      9.41874    0.00000
   92      9.49268    0.00000
   93      9.60709    0.00000
   94      9.67873    0.00000
   95      9.84094    0.00000
   96      9.95169    0.00000
   97     10.06373    0.00000

Forces in eV/Ang:
  0 C    -1.88135    6.06937   -3.50714
  1 C    -1.87786    0.64562    3.60964
  2 C    -0.09100    0.74218    1.12132
  3 C    -0.90483   -7.24881   -3.59984
  4 C    -0.02349    1.40796    0.27250
  5 C     1.68259   -1.53434    0.85126
  6 C     3.08608   -0.15357    2.81530
  7 C     0.03420   -0.10371    0.09844
  8 C     0.15020   -0.01952    0.17998
  9 C    -0.58525    1.08585    0.11082
 10 C    -0.05411    0.29301    1.08491
 11 C     0.23137    0.32112    0.27589
 12 C     1.83460    2.98369    1.90442
 13 C    -0.45476   -0.57687   -0.05752
 14 C    -4.10307  -14.06473   -1.49407
 15 C    -1.11167   -6.22911   -4.38328
 16 C     3.72645    1.68935   -2.14159
 17 C    -1.86330   -0.38060   -0.87592
 18 C     0.42475    0.05900   -0.37139
 19 C     0.39101   -0.24413   -0.52656
 20 C    -0.66261    2.36417    2.09759
 21 C     2.31164   11.64697    1.65387
 22 C    -0.32671    0.49245    1.29938
 23 C     0.12505    0.74921   -0.47102

System changes: positions

[...]

Density initialized from wave functions
  /        |           C  C      C                |
 *         |  C C   C      C                      |
 |         | C  C    C    C   C  C                |
 |         .-------C-C---C-C----CC----------------.
 |        /    C    C     C                      /
 |       /       C     C                        /

[...]

Density initialized from wave functions
  /        |           C  C      C                |
 *         |  C C   C      C                      |
 |         | C  C    C    C   C  C                |
 |         .-------C-C---C--C---CC----------------.
 |        /    C    C     C                      /
 |       /       C     C                        /

[...]

Density initialized from wave functions
  /        |           C  C      C                |
 *         |  C C   C      C                      |
 |         | C C     C    C   C  C                |
 |         .-------C-C---C--C---CC----------------.
 |        /    C    C     C                      /
 |       /       C     C                        /

[...]

Density initialized from wave functions
  /        |           C  C                       |
 *         |  C C   C      C     C                |
 |         | C       C    C   C  C                |
 |         .---C---C-C---C--C---CC----------------.
 |        /    C    C     C                      /
 |       /       C     C                        /

[...]

Density initialized from wave functions
  /        |           C  C                       |
 *         |  C C   C      C     C                |
 |         | C       C    C   C  C                |
 |         .---C---C-C---C--C---CC----------------.
 |        /    C    C     C                      /
 |       /       C     C                        /

[...]

Density initialized from wave functions
  /        |           C  C                       |
 *         |  C C   C      C  C  C                |
 |         | C       C    C      C                |
 |         .---C---C-C---C--C---CC----------------.
 |        /    C    C     C                      /
 |       /       C     C                        /

[...]

Density initialized from wave functions
  /        |           C  C                       |
 *         |  C C   C      C  C  C                |
 |         | C       C   C        C               |
 |         .---C---C-C---C--C---CC----------------.
 |        /    C    C     C                      /
 |       /       C     C                        /

[...]

Density initialized from wave functions
  /        |           C  C                       |
 *         |  C C   C      C  C  C                |
 |         | C       C   C        C               |
 |         .---C---C--C--C--C---CC----------------.
 |        /    C    C     C                      /
 |       /       C     C                        /

[...]

Density initialized from wave functions
  /        |           C  C                       |
 *         |  C C   C      C  C  C                |
 |         | C       C   C        C               |
 |         .---C---C--C--C--C---CC----------------.
 |        /    C    C     C                      /
 |       /       C     C                        /

[...]

Density initialized from wave functions
  /        |           C  C                       |
 *         |  C C   C      C  C  C                |
 |         | C       C   C        C               |
 |         .---C---C--C--C--C--C-C----------------.
 |        /    C    C     C                      /
 |       /       C     C                        /

[...]

Density initialized from wave functions
  /        |           C  C                       |
 *         |  C C   C      C  C  C                |
 |         | C       C   C        C               |
 |         .---C---C--C--C--C--C-C----------------.
 |        /    C    C     C                      /
 |       /       C     C                        /

[...]

Density initialized from wave functions
  /        |           C  C                       |
 *         |  C C   C      C  C  C                |
 |         | C       C   C        C               |
 |         .---C---C--C--C--C--C-C----------------.
 |        /    C C  C     C                      /
 |       /             C                        /

[...]

Density initialized from wave functions
  /        |           C  C                       |
 *         |  C C   C      C  C  C                |
 |         | C       C   C        C               |
 |         .---C---C--C--C--C--C-C----------------.
 |        /    C C  C     C                      /
 |       /             C                        /

[...]

Density initialized from wave functions
  /        |           C  C                       |
 *         |  C C   C      C  C  C                |
 |         | C       C   C       CC               |
 |         .---C---C--C--C--C--C------------------.
 |        /    C C  C     C                      /
 |       /             C                        /

[...]

Density initialized from wave functions
  /        |           C  C                       |
 *         |  C C   C      C  C  C                |
 |         | C       C   C       CC               |
 |         .---C---C--C--C--C--C------------------.
 |        /    C C  C     C                      /
 |       /             C                        /

[...]

Density initialized from wave functions
  /        |           C  C                       |
 *         |  C C   C      C  C  C                |
 |         | C       C   C       C C              |
 |         .---C---C-C---C--C--C------------------.
 |        /    C C  C     C                      /
 |       /             C                        /

[...]

Density initialized from wave functions
  /        |           C  C                       |
 *         |  C C   C      C     C                |
 |         | C       C   C    C  C C              |
 |         .---C---C-C---C--C--C------------------.
 |        /    C C  C     C                      /
 |       /             C                        /

[...]

Density initialized from wave functions
  /        |           C  C                       |
 *         |  C C   C      C     C                |
 |         | C       C   C    C  C C              |
 |         .---C---C-C---C--C--C------------------.
 |        /    C C  C     C                      /
 |       /             C                        /

[...]

Density initialized from wave functions
  /        |           C  C                       |
 *         |  C C   C      C     C                |
 |         | C       C   C    C   CC              |
 |         .---C---C-C---C--C--C------------------.
 |        /    C C  C     C                      /
 |       /             C                        /

[...]

Density initialized from wave functions
  /        |           C  C                       |
 *         |  C C   C      C     C                |
 |         | C       C   C    C   CC              |
 |         .---C---C-C---C--C--C------------------.
 |        /    C C  C     C                      /
 |       /             C                        /

[...]

Density initialized from wave functions
  /        |           C  C                       |
 *         |  C C   C      C  C  C                |
 |         | C       C  C         CC              |
 |         .---C---C-C---C--C--C------------------.
 |        /    C C  C     C                      /
 |       /             C                        /

[...]

Density initialized from wave functions
  /        |          C   C                       |
 *         |  C C   C      C  C  C                |
 |         | C       C  C         CC              |
 |         .---C---C-C---C--C--C------------------.
 |        /    C C  C     C                      /
 |       /             C                        /

[...]

Density initialized from wave functions
  /        |    C     C   C                       |
 *         |  C     C      C  C  C                |
 |         | C       C   C        CC              |
 |         .---C---C-C---C--C--C------------------.
 |        /    C C  C     C                      /
 |       /             C                        /

[...]

Density initialized from wave functions
  /        |    C     C  C                        |
 *         |  C     C      C  C  C                |
 |         | C       C   C        CC              |
 |         .---C---C-C---C--C--C------------------.
 |        /    C C   C    C                      /
 |       /             C                        /

[...]

Density initialized from wave functions
  /        |    C     C  C                        |
 *         |  C     C      C  C  C                |
 |         | C       C   C        CC              |
 |         .---C---C-C---C--C--C------------------.
 |        /    C     C    C                      /
 |       /       C     C                        /

[...]

System changes: positions

Initializing position-dependent things.

Density initialized from wave functions
  /        |    C     C  C                        |
 *         |  C     C      C  C  C                |
 |         | C       C   C        CC              |
 |         .---C---C-C---C--C--C------------------.
 |        /    C     C    C                      /
 |       /       C     C                        /

Positions:
   0 C     10.773867    6.150322    5.188351
   1 C     11.782285    6.925386    5.174675
   2 C     11.782326    8.162507    4.597059
   3 C     10.958559    9.162022    4.984830
   4 C      9.367469    4.132462    5.116581
   5 C      9.519101    5.543678    5.209460
   6 C      9.684321    9.179426    5.015138
   7 C      5.378194    8.712916    5.802876
   8 C      5.713535    3.344428    5.326439
   9 C      3.478645    7.461403    5.782887
  10 C      7.474601    9.965105    5.679214
  11 C      6.241915    9.843237    5.865144
  12 C      5.816388    6.119330    5.454633
  13 C      8.349364    3.398632    5.171257
  14 C      7.701780    7.586696    5.400398
  15 C      4.483426    5.475644    5.523497
  16 C      8.198879    6.195252    5.294327
  17 C      6.237274    7.531132    5.555899
  18 C      7.023028    3.875364    5.245263
  19 C      3.962109    8.671975    5.906811
  20 C      4.691322    4.070902    5.432875
  21 C      8.368230    8.896932    5.361862
  22 C      3.243281    6.174632    5.664165
  23 C      7.020796    5.340016    5.298345

Unit cell:
           periodic     x           y           z      points  spacing
  1. axis:    yes   16.000000    0.000000    0.000000    80     0.2000
  2. axis:    yes    0.000000   16.000000    0.000000    80     0.2000
  3. axis:    yes    0.000000    0.000000   10.000000    48     0.2083

Effective grid spacing dv^(1/3) = 0.2027

                     log10-error:    total        iterations:
           time      wfs    density  energy       fermi  poisson
iter:   1  09:40:55          +inf  -184.549210    2      5
iter:   2  09:40:56         -2.87  -184.550048    1      1
iter:   3  09:40:56         -2.93  -184.552131    2      1
iter:   4  09:40:57         -3.04  -184.550659    2      2
iter:   5  09:40:57         -3.33  -184.551567    2      1
iter:   6  09:40:58         -3.54  -184.551494    2      1
iter:   7  09:40:58         -3.85  -184.550360    2      1
iter:   8  09:40:59         -3.98  -184.550439    2      1
iter:   9  09:41:00         -4.18  -184.550517    1      1

Converged after 9 iterations.

Dipole moment: (0.808863, -0.024017, -0.032914) |e|*Ang

Energy contributions relative to reference atoms: (reference = -24663.074771)

Kinetic:       +114.017173
Potential:     -122.971306
External:        +0.000000
XC:            -178.575475
Entropy (-ST):   -0.065641
Local:           +3.011911
Free energy:   -184.583338
Extrapolated:  -184.550517

Fermi level: -4.16823

 Band  Eigenvalues  Occupancy
    0    -22.57752    2.00000
    1    -21.66123    2.00000
    2    -21.46686    2.00000
    3    -20.95843    2.00000
    4    -20.47483    2.00000
    5    -20.18054    2.00000
    6    -19.58221    2.00000
    7    -19.43745    2.00000
    8    -18.33731    2.00000
    9    -18.22075    2.00000
   10    -17.52758    2.00000
   11    -17.22849    2.00000
   12    -16.52506    2.00000
   13    -15.98017    2.00000
   14    -15.52116    2.00000
   15    -14.98454    2.00000
   16    -14.03100    2.00000
   17    -13.72060    2.00000
   18    -13.30762    2.00000
   19    -12.91839    2.00000
   20    -12.70771    2.00000
   21    -12.09061    2.00000
   22    -11.81583    2.00000
   23    -11.73359    2.00000
   24    -10.77470    2.00000
   25    -10.68084    2.00000
   26    -10.41607    2.00000
   27    -10.40732    2.00000
   28     -9.60798    2.00000
   29     -9.49506    2.00000
   30     -9.39407    2.00000
   31     -9.23061    2.00000
   32     -9.06238    2.00000
   33     -8.72990    2.00000
   34     -8.41997    2.00000
   35     -7.90055    2.00000
   36     -7.31454    2.00000
   37     -7.23405    2.00000
   38     -6.88266    2.00000
   39     -6.82202    2.00000
   40     -6.53647    2.00000
   41     -6.32720    2.00000
   42     -6.26581    2.00000
   43     -6.06037    2.00000
   44     -5.75365    2.00000
   45     -5.49250    2.00000
   46     -4.98843    1.99945
   47     -4.49130    1.92394
   48     -3.84531    0.07616
   49     -3.30762    0.00037
   50     -3.14099    0.00007
   51     -2.96032    0.00001
   52     -2.76545    0.00000
   53     -2.71191    0.00000
   54     -2.31455    0.00000
   55     -1.83788    0.00000
   56     -1.37772    0.00000
   57     -0.97426    0.00000
   58     -0.91924    0.00000
   59      0.09100    0.00000
[...]
   83      8.98496    0.00000
   84      9.04590    0.00000
   85      9.28801    0.00000
   86      9.50501    0.00000
   87      9.55909    0.00000
   88      9.69304    0.00000
   89      9.77160    0.00000
   90      9.80635    0.00000
   91      9.89806    0.00000
   92     10.12540    0.00000
   93     10.15332    0.00000
   94     10.26651    0.00000
   95     10.34352    0.00000
   96     10.39364    0.00000
   97     10.51230    0.00000

Forces in eV/Ang:
  0 C     0.00163   -0.00976   -0.02499
  1 C     0.01006   -0.00407   -0.02570
  2 C    -0.00978   -0.02443    0.03559
  3 C     0.01388    0.00346    0.00635
  4 C     0.01854   -0.00371    0.01975
  5 C     0.01732    0.00462   -0.01158
  6 C    -0.00641   -0.01544    0.04790
  7 C     0.00973   -0.00529   -0.07083
  8 C    -0.00400    0.01358   -0.05561
  9 C    -0.03107    0.01826    0.02830
 10 C     0.01095    0.01901   -0.03108
 11 C    -0.01074   -0.01841    0.01950
 12 C    -0.03530   -0.00337    0.03443
 13 C     0.01974    0.01598   -0.03902
 14 C    -0.02374    0.06290    0.03105
 15 C    -0.01447    0.01165    0.00423
 16 C    -0.01912    0.00203   -0.00338
 17 C     0.01981    0.00551    0.02010
 18 C    -0.00307   -0.00225    0.03734
 19 C     0.00981    0.00570   -0.01695
 20 C     0.00505   -0.01203   -0.02049
 21 C    -0.01001   -0.02476    0.00503
 22 C     0.00940    0.01585    0.03944
 23 C    -0.02939   -0.00509    0.06380