User:   esb@s65n23.grendel.cscaa.dk
Date:   Thu Nov  9 09:22:32 2017
Arch:   x86_64
Pid:    65571
Python: 2.7.13
gpaw:   /home/esb/DFT/gpaw_git/gpaw
_gpaw:  /home/esb/DFT/gpaw_git/build/bin.linux-x86_64-2.7/gpaw-python
ase:    /home/esb/DFT/ase_git/ase (version 3.15.0b1)
numpy:  /comm/swstack/core/python/2.7.13/lib/python2.7/site-packages/numpy (version 1.13.3)
scipy:  /comm/swstack/core/python/2.7.13/lib/python2.7/site-packages/scipy (version 0.19.1)
units:  Angstrom and eV
cores:  16
Extra parameters: {'blacs': True}

Input parameters:
  basis: dzp
  gpts: [80 80 48]
  kpts: [1 1 1]
  maxiter: 99
  mixer: {backend: pulay,
          beta: 0.05,
          method: separate,
          nmaxold: 5,
          weight: 75}
  mode: lcao
  nbands: -50
  occupations: {name: fermi-dirac,
                width: 0.1}
  poissonsolver: {eps: 1e-07,
                  name: fd,
                  nn: 3,
                  relax: GS}
  xc: PBE

System changes: positions, numbers, cell, pbc, initial_charges, initial_magmoms

Initialize ...

C-setup:
  name: Carbon
  id: 4aa54d4b901d75f77cc0ea3eec22967b
  Z: 6
  valence: 4
  core: 2
  charge: 0.0
  file: /home/esb/DFT/gpaw-setups-0.8.7929/C.PBE.gz
  cutoffs: 0.64(comp), 1.14(filt), 1.14(core), lmax=2
  valence states:
                energy  radius
    2s(2.00)   -13.751   0.635
    2p(2.00)    -5.284   0.635
    *s          13.461   0.635
    *p          21.927   0.635
    *d           0.000   0.635

  LCAO basis set for C:
    Name: dzp
    File: /home/esb/DFT/gpaw-setups-0.8.7929/C.dzp.basis.gz
    Number of radial functions: 5
    Number of spherical harmonics: 13
      l=0, rc=5.5469 Bohr: 2s-sz confined orbital
      l=1, rc=6.6719 Bohr: 2p-sz confined orbital
      l=0, rc=3.0312 Bohr: 2s-dz split-valence wave
      l=1, rc=3.7500 Bohr: 2p-dz split-valence wave
      l=2, rc=6.6719 Bohr: d-type Gaussian polarization

Reference energy: -24663.074771

Spin-paired calculation

Occupation numbers:
  Fermi-Dirac: width=0.1000 eV

Convergence criteria:
  Maximum total energy change: 0.0005 eV / electron
  Maximum integral of absolute density change: 0.0001 electrons
  Maximum integral of absolute eigenstate change: 4e-08 eV^2
  Maximum number of iterations: 99

Symmetries present (total): 1

  ( 1  0  0)
  ( 0  1  0)
  ( 0  0  1)

1 k-point (Gamma)
1 k-point in the irreducible part of the Brillouin zone
       k-points in crystal coordinates                weights
   0:     0.00000000    0.00000000    0.00000000          1/1

Wave functions: LCAO
  Diagonalizer: Serial LAPACK
  Atomic Correction: dense with blas
  Datatype: float
  Eigensolver: None

LCAO using direct dense diagonalizer

Densities:
  Coarse grid: 80*80*48 grid
  Fine grid: 160*160*96 grid
  Total Charge: 0.000000

Density mixing:
  Method: separate
  Backend: pulay
  Linear mixing parameter: 0.05
  Mixing with 5 old densities
  Damping of long wave oscillations: 75

Hamiltonian:
  XC and Coulomb potentials evaluated on a 160*160*96 grid
  Using the PBE Exchange-Correlation functional
  Interpolation: tri-quintic (5. degree polynomial)
  Poisson solver: Gauss-Seidel solver with 6 multi-grid levels
    Coarsest grid: 5 x 5 x 3 points
    Stencil: 6*3+1=19 point O(h^6) finite-difference Laplacian
    Max iterations: 1000
    Tolerance: 1.000000e-07

Total number of cores used: 16
Domain decomposition: 2 x 4 x 2

Number of atoms: 24
Number of atomic orbitals: 312
Number of bands in calculation: 98
Bands to converge: occupied states only
Number of valence electrons: 96

... initialized

Initializing position-dependent things.

Density initialized from atomic densities
   /       |                C C                   |
  /        |             C  C  C C                |
 *         |         C C C     C C                |
 |         |     C  C C        C  C               |
 |         .---CC---C---C----C--------------------.
 |        /      C       C C                     /

Positions:
   0 C     10.363612   11.214820    5.104439
   1 C      9.041725   11.778453    5.387672
   2 C      7.935361   12.511924    5.010073
   3 C      9.938603    9.843161    5.548405
   4 C      8.618784   10.364209    5.406035
   5 C      6.746221   12.087455    4.794291
   6 C     11.179025    7.557348    5.664344
   7 C     12.080157    6.457487    5.861338
   8 C     10.070118    8.461115    5.499478
   9 C      7.416248    9.756505    5.013305
  10 C      6.301740   10.752036    4.783200
  11 C     10.672979    6.227493    5.601601
  12 C      5.066658    5.843309    4.250440
  13 C      4.430788    7.102615    4.644276
  14 C      3.736670    8.254134    4.333141
  15 C      6.339902    6.193807    4.968206
  16 C      5.812931    7.518862    4.953663
  17 C      4.158141    9.462946    4.377029
  18 C      8.611187    4.953367    5.250345
  19 C      9.689943    4.033629    5.475977
  20 C      7.715486    6.073340    5.119854
  21 C      6.442720    8.769274    4.856349
  22 C      5.466517    9.905057    4.648542
  23 C      9.920549    5.464473    5.480291

Unit cell:
           periodic     x           y           z      points  spacing
  1. axis:    yes   16.000000    0.000000    0.000000    80     0.2000
  2. axis:    yes    0.000000   16.000000    0.000000    80     0.2000
  3. axis:    yes    0.000000    0.000000   10.000000    48     0.2083

Effective grid spacing dv^(1/3) = 0.2027

                     log10-error:    total        iterations:
           time      wfs    density  energy       fermi  poisson
iter:   1  09:22:34          +inf  -172.011454    3      6
iter:   2  09:22:35         -0.92  -171.181681    4      3
iter:   3  09:22:35         -0.95  -168.789710    34     3
iter:   4  09:22:36         -1.12  -168.234349    34     4
iter:   5  09:22:36         -1.41  -168.114597    4      3
iter:   6  09:22:37         -1.62  -168.062014    3      3
iter:   7  09:22:37         -1.72  -168.002547    4      3
iter:   8  09:22:38         -1.94  -167.982043    3      2
iter:   9  09:22:38         -2.02  -167.972004    2      2
iter:  10  09:22:39         -2.09  -167.970487    3      2
iter:  11  09:22:39         -2.15  -167.966917    3      2
iter:  12  09:22:40         -2.29  -167.966984    4      2
iter:  13  09:22:40         -2.77  -167.963362    2      1
iter:  14  09:22:41         -2.85  -167.951240    3      2
iter:  15  09:22:41         -3.32  -167.948663    2      1
iter:  16  09:22:42         -3.37  -167.947064    2      1
iter:  17  09:22:42         -3.55  -167.946601    2      1
iter:  18  09:22:43         -3.84  -167.950461    2      1
iter:  19  09:22:43         -3.99  -167.949611    2      1
iter:  20  09:22:44         -4.08  -167.949385    2      1

Converged after 20 iterations.

Dipole moment: (-0.463758, 0.436462, 0.150483) |e|*Ang

Energy contributions relative to reference atoms: (reference = -24663.074771)

Kinetic:       +173.654530
Potential:     -160.433720
External:        +0.000000
XC:            -183.992591
Entropy (-ST):   -0.328137
Local:           +2.986464
Free energy:   -168.113454
Extrapolated:  -167.949385

Fermi level: -4.55427

 Band  Eigenvalues  Occupancy
    0    -24.05551    2.00000
    1    -23.68830    2.00000
    2    -23.12921    2.00000
    3    -22.83952    2.00000
    4    -22.61197    2.00000
    5    -20.39439    2.00000
    6    -20.06128    2.00000
    7    -18.89863    2.00000
    8    -18.43779    2.00000
    9    -18.19703    2.00000
   10    -18.02713    2.00000
   11    -17.46342    2.00000
   12    -16.50141    2.00000
   13    -16.33182    2.00000
   14    -15.07880    2.00000
   15    -15.07151    2.00000
   16    -14.67769    2.00000
   17    -13.34391    2.00000
   18    -12.85117    2.00000
   19    -12.33595    2.00000
   20    -11.93012    2.00000
   21    -11.32556    2.00000
   22    -11.17865    2.00000
   23    -11.04206    2.00000
   24    -10.98647    2.00000
   25    -10.91757    2.00000
   26    -10.72943    2.00000
   27    -10.39982    2.00000
   28    -10.06492    2.00000
   29     -9.98071    2.00000
   30     -9.51458    2.00000
   31     -9.34576    2.00000
   32     -8.89464    2.00000
   33     -8.75253    2.00000
   34     -8.12000    2.00000
   35     -7.86896    2.00000
   36     -7.80066    2.00000
   37     -7.60681    2.00000
   38     -6.88959    2.00000
   39     -6.64338    2.00000
   40     -6.59606    2.00000
   41     -6.28130    2.00000
   42     -5.80473    1.99999
   43     -5.49299    1.99983
   44     -5.40804    1.99961
   45     -5.10582    1.99198
   46     -4.78044    1.81130
   47     -4.64609    1.42935
   48     -4.50431    0.75523
   49     -4.04893    0.01269
   50     -3.25392    0.00000
   51     -3.13455    0.00000
   52     -3.10708    0.00000
   53     -2.95441    0.00000
   54     -2.51745    0.00000
   55     -1.99178    0.00000
   56     -1.82965    0.00000
   57     -0.71296    0.00000
   58      0.16245    0.00000
   59      0.52486    0.00000
[...]
   83      8.75277    0.00000
   84      8.97978    0.00000
   85      8.99219    0.00000
   86      9.15983    0.00000
   87      9.17379    0.00000
   88      9.21489    0.00000
   89      9.32055    0.00000
   90      9.51912    0.00000
   91      9.66967    0.00000
   92      9.79607    0.00000
   93      9.91291    0.00000
   94      9.96382    0.00000
   95     10.10220    0.00000
   96     10.18701    0.00000
   97     10.37872    0.00000

Forces in eV/Ang:
  0 C    -0.31983    0.43823    0.45674
  1 C     0.25215   -0.63292   -0.92718
  2 C    -0.95350    0.67978   -0.20522
  3 C     0.38113   -2.63856   -0.10125
  4 C    -1.24918   -1.73977    0.18758
  5 C     0.00569    0.65166    0.09894
  6 C    -1.74492    4.29232   -0.18203
  7 C    -0.26878    1.43292   -0.10926
  8 C     4.58589    0.33432    0.71826
  9 C     2.91493    2.72991    0.87106
 10 C     9.95673   12.41135    1.40231
 11 C    21.70781   17.74825    3.53199
 12 C    -0.52158    0.25158    0.42732
 13 C     0.79506   -0.09787   -0.84821
 14 C    -0.66498    0.99468   -0.13836
 15 C     2.63875   -0.35025    0.23861
 16 C     1.63814    1.18927    0.65922
 17 C    -0.61972   -0.02971   -0.00142
 18 C    -4.28360    1.74887   -0.59897
 19 C    -1.41235    0.29104   -0.28802
 20 C    -0.34614   -4.62026   -0.07250
 21 C    -2.75778   -3.02553   -0.04486
 22 C   -12.19897  -10.07452   -2.20110
 23 C   -17.48232  -21.96181   -2.82243

System changes: positions

[...]

Density initialized from wave functions
   /       |                C C                   |
  /        |             C  C  C C                |
 *         |        C  C C     C C                |
 |         |     C  C C        C  C               |
 |         .---CC---C---C----C--------------------.
 |        /      C       C C                     /

[...]

Density initialized from wave functions
   /       |                C C                   |
  /        |             C  C  C C                |
 *         |        C  C C     C C                |
 |         |     C  C C        C   C              |
 |         .---CC---C---C----C--------------------.
 |        /      C       C C                     /

[...]

Density initialized from wave functions
   /       |                C C                   |
  /        |             C  C  C C                |
 *         |        C  C C     C C                |
 |         |     C  C C        C   C              |
 |         .---CC---C---C---C---------------------.
 |        /      C       C C                     /

[...]

Density initialized from wave functions
   /       |                C C                   |
  /        |           C C  C  C C                |
 *         |        C    C     C C                |
 |         |     C  C C        C   C              |
 |         .---CC---C--C----C---------------------.
 |        /      C       C C                     /

[...]

Density initialized from wave functions
   /       |                C C                   |
  /        |           C C  C  C C                |
 *         |        C    C     C C                |
 |         |     C  C C        C   C              |
 |         .---CC---C--C----C---------------------.
 |        /      C       C C                     /

[...]

Density initialized from wave functions
   /       |                C C                   |
  /        |           C C  C  C C                |
 *         |        C    C     C C                |
 |         |     C  C C        C   C              |
 |         .---CC---C--C-----C--------------------.
 |        /      C       C C                     /

[...]

Density initialized from wave functions
   /       |                C C                   |
  /        |           C C  C  C C                |
 *         |        C    C     C C                |
 |         |     C  C C        C   C              |
 |         .---CC---C--C-----C--------------------.
 |        /      C       C C                     /

[...]

Density initialized from wave functions
   /       |                C C                   |
  /        |           C C  C  C C                |
 *         |        C    C      CC                |
 |         |     C  C C        C   C              |
 |         .---CC---C--C-----C--------------------.
 |        /      C       C C                     /

[...]

Density initialized from wave functions
   /       |                C C                   |
  /        |           C C  C  C C                |
 *         |        C    C      CC                |
 |         |     C  C C         C  C              |
 |         .---CC---C--C-----C--------------------.
 |        /      C       C C                     /

[...]

Density initialized from wave functions
   /       |                C C                   |
  /        |           C C  C   CC                |
 *         |        C    C      CC                |
 |         |     C  C C         C  C              |
 |         .---CC---C--C-----C--------------------.
 |        /      C       C C                     /

[...]

Density initialized from wave functions
   /       |                C C                   |
  /        |           C C  C   CC                |
 *         |        C    C      CC                |
 |         |     C  C C         C  C              |
 |         .---CC---C--C-----C--------------------.
 |        /      C       C C                     /

[...]

Density initialized from wave functions
   /       |                C C                   |
  /        |           C C  C   CC                |
 *         |        C C  C      CC                |
 |         |     C  C           C  C              |
 |         .---CC---C--C-----C--------------------.
 |        /      C       C C                     /

[...]

Density initialized from wave functions
   /       |                C C                   |
  /        |           C C  C   CC                |
 *         |        C C  C      CC                |
 |         |     C  C           C  C              |
 |         .---C-C--C--C-----C--------------------.
 |        /      C       C C                     /

[...]

System changes: positions

Initializing position-dependent things.

Density initialized from wave functions
   /       |                C C                   |
  /        |           C C  C   CC                |
 *         |        C C  C      CC                |
 |         |     C  C           C  C              |
 |         .---C-C--C--C-----C--------------------.
 |        /      C       C C                     /

Positions:
   0 C     10.415842   11.363145    5.269004
   1 C      8.997742   11.706949    5.169843
   2 C      7.931717   12.551919    4.965266
   3 C     10.012158    9.903081    5.419750
   4 C      8.579179   10.277781    5.292520
   5 C      6.671783   12.316585    4.796389
   6 C     11.225464    7.565339    5.715055
   7 C     12.295640    6.570310    5.966203
   8 C     10.641373    8.725139    5.586561
   9 C      7.274278    9.923703    5.156570
  10 C      6.227891   10.987033    4.870877
  11 C     11.041366    6.085711    5.634642
  12 C      4.894790    5.765773    4.369846
  13 C      4.533124    7.181205    4.452057
  14 C      3.704409    8.267270    4.288719
  15 C      6.301583    6.141200    4.813134
  16 C      5.914817    7.576061    4.863895
  17 C      3.927871    9.538031    4.357896
  18 C      8.598525    4.903795    5.283541
  19 C      9.570169    3.809192    5.522171
  20 C      7.457538    5.495159    5.057011
  21 C      6.252132    8.886357    4.990363
  22 C      5.219380    9.964190    4.707656
  23 C     10.068406    5.099791    5.475745

Unit cell:
           periodic     x           y           z      points  spacing
  1. axis:    yes   16.000000    0.000000    0.000000    80     0.2000
  2. axis:    yes    0.000000   16.000000    0.000000    80     0.2000
  3. axis:    yes    0.000000    0.000000   10.000000    48     0.2083

Effective grid spacing dv^(1/3) = 0.2027

                     log10-error:    total        iterations:
           time      wfs    density  energy       fermi  poisson
iter:   1  09:26:25          +inf  -178.093311    2      4
iter:   2  09:26:26         -2.96  -178.093398    2      1
iter:   3  09:26:26         -3.08  -178.093919    2      1
iter:   4  09:26:27         -3.21  -178.093729    2      1
iter:   5  09:26:27         -3.45  -178.093840    2      1
iter:   6  09:26:28         -3.64  -178.093588    2      1
iter:   7  09:26:28         -3.73  -178.093711    2      1
iter:   8  09:26:29         -3.89  -178.093688    2      1
iter:   9  09:26:29         -4.10  -178.093640    2      1

Converged after 9 iterations.

Dipole moment: (-0.182074, 0.180339, 0.051998) |e|*Ang

Energy contributions relative to reference atoms: (reference = -24663.074771)

Kinetic:       +111.758751
Potential:     -118.023274
External:        +0.000000
XC:            -174.704688
Entropy (-ST):   -0.113882
Local:           +2.932511
Free energy:   -178.150582
Extrapolated:  -178.093640

Fermi level: -4.31717

 Band  Eigenvalues  Occupancy
    0    -23.27270    2.00000
    1    -23.04337    2.00000
    2    -22.73614    2.00000
    3    -22.56265    2.00000
    4    -21.90298    2.00000
    5    -20.45192    2.00000
    6    -19.92164    2.00000
    7    -19.17250    2.00000
    8    -19.09449    2.00000
    9    -17.76939    2.00000
   10    -17.72271    2.00000
   11    -17.26678    2.00000
   12    -16.90131    2.00000
   13    -16.56737    2.00000
   14    -15.69124    2.00000
   15    -15.46958    2.00000
   16    -14.33667    2.00000
   17    -13.95461    2.00000
   18    -12.80674    2.00000
   19    -12.64199    2.00000
   20    -11.87345    2.00000
   21    -11.51168    2.00000
   22    -10.98507    2.00000
   23    -10.72953    2.00000
   24    -10.67574    2.00000
   25    -10.52723    2.00000
   26    -10.45345    2.00000
   27    -10.17963    2.00000
   28    -10.16976    2.00000
   29    -10.10239    2.00000
   30     -9.56591    2.00000
   31     -9.31604    2.00000
   32     -9.24622    2.00000
   33     -8.97860    2.00000
   34     -8.97253    2.00000
   35     -8.86836    2.00000
   36     -7.90094    2.00000
   37     -7.76679    2.00000
   38     -7.05465    2.00000
   39     -6.65618    2.00000
   40     -6.51218    2.00000
   41     -6.24383    2.00000
   42     -6.22703    2.00000
   43     -5.94652    2.00000
   44     -5.65532    2.00000
   45     -5.06630    1.99888
   46     -4.75644    1.97557
   47     -4.59943    1.88777
   48     -4.04099    0.11886
   49     -3.83897    0.01662
   50     -3.63761    0.00224
   51     -3.27731    0.00006
   52     -2.99990    0.00000
   53     -2.84128    0.00000
   54     -2.63907    0.00000
   55     -2.39034    0.00000
   56     -1.84677    0.00000
   57     -0.73993    0.00000
   58      0.17363    0.00000
   59      0.81047    0.00000
[...]
   83      8.28379    0.00000
   84      8.67515    0.00000
   85      8.72777    0.00000
   86      8.74527    0.00000
   87      8.85964    0.00000
   88      9.03431    0.00000
   89      9.21506    0.00000
   90      9.29156    0.00000
   91      9.38896    0.00000
   92      9.54453    0.00000
   93      9.55317    0.00000
   94      9.78631    0.00000
   95      9.79517    0.00000
   96     10.01458    0.00000
   97     10.07982    0.00000

Forces in eV/Ang:
  0 C     0.02985    0.04421    0.05099
  1 C     0.02927    0.03886   -0.02716
  2 C    -0.05965   -0.00647    0.00499
  3 C     0.05133    0.01857   -0.03151
  4 C     0.01576    0.03326    0.05349
  5 C     0.06934   -0.05925    0.01023
  6 C    -0.04733    0.00138   -0.00499
  7 C    -0.01495   -0.02502   -0.01293
  8 C     0.01910    0.00893   -0.04617
  9 C     0.01524    0.02245   -0.02690
 10 C    -0.03484   -0.01788    0.01053
 11 C     0.05751    0.01022    0.06298
 12 C    -0.04687   -0.01781    0.03890
 13 C    -0.03048   -0.00733   -0.02434
 14 C    -0.00552   -0.01215    0.00741
 15 C    -0.01269   -0.04945   -0.04034
 16 C    -0.06195   -0.05016    0.03928
 17 C     0.08514   -0.01770    0.02498
 18 C    -0.00823    0.02700   -0.02559
 19 C     0.00563    0.00752   -0.00955
 20 C     0.01234   -0.00409   -0.03351
 21 C    -0.01143    0.01745   -0.03104
 22 C     0.00023    0.02338    0.01695
 23 C    -0.02738   -0.05699    0.03986