User:   esb@s65n74.grendel.cscaa.dk
Date:   Thu Nov  9 11:13:07 2017
Arch:   x86_64
Pid:    100486
Python: 2.7.13
gpaw:   /home/esb/DFT/gpaw_git/gpaw
_gpaw:  /home/esb/DFT/gpaw_git/build/bin.linux-x86_64-2.7/gpaw-python
ase:    /home/esb/DFT/ase_git/ase (version 3.15.0b1)
numpy:  /comm/swstack/core/python/2.7.13/lib/python2.7/site-packages/numpy (version 1.13.3)
scipy:  /comm/swstack/core/python/2.7.13/lib/python2.7/site-packages/scipy (version 0.19.1)
units:  Angstrom and eV
cores:  16
Extra parameters: {'blacs': True}

Input parameters:
  basis: dzp
  gpts: [80 80 48]
  kpts: [1 1 1]
  maxiter: 99
  mixer: {backend: pulay,
          beta: 0.05,
          method: separate,
          nmaxold: 5,
          weight: 75}
  mode: lcao
  nbands: -50
  occupations: {name: fermi-dirac,
                width: 0.1}
  poissonsolver: {eps: 1e-07,
                  name: fd,
                  nn: 3,
                  relax: GS}
  xc: PBE

System changes: positions, numbers, cell, pbc, initial_charges, initial_magmoms

Initialize ...

C-setup:
  name: Carbon
  id: 4aa54d4b901d75f77cc0ea3eec22967b
  Z: 6
  valence: 4
  core: 2
  charge: 0.0
  file: /home/esb/DFT/gpaw-setups-0.8.7929/C.PBE.gz
  cutoffs: 0.64(comp), 1.14(filt), 1.14(core), lmax=2
  valence states:
                energy  radius
    2s(2.00)   -13.751   0.635
    2p(2.00)    -5.284   0.635
    *s          13.461   0.635
    *p          21.927   0.635
    *d           0.000   0.635

  LCAO basis set for C:
    Name: dzp
    File: /home/esb/DFT/gpaw-setups-0.8.7929/C.dzp.basis.gz
    Number of radial functions: 5
    Number of spherical harmonics: 13
      l=0, rc=5.5469 Bohr: 2s-sz confined orbital
      l=1, rc=6.6719 Bohr: 2p-sz confined orbital
      l=0, rc=3.0312 Bohr: 2s-dz split-valence wave
      l=1, rc=3.7500 Bohr: 2p-dz split-valence wave
      l=2, rc=6.6719 Bohr: d-type Gaussian polarization

Reference energy: -24663.074771

Spin-paired calculation

Occupation numbers:
  Fermi-Dirac: width=0.1000 eV

Convergence criteria:
  Maximum total energy change: 0.0005 eV / electron
  Maximum integral of absolute density change: 0.0001 electrons
  Maximum integral of absolute eigenstate change: 4e-08 eV^2
  Maximum number of iterations: 99

Symmetries present (total): 1

  ( 1  0  0)
  ( 0  1  0)
  ( 0  0  1)

1 k-point (Gamma)
1 k-point in the irreducible part of the Brillouin zone
       k-points in crystal coordinates                weights
   0:     0.00000000    0.00000000    0.00000000          1/1

Wave functions: LCAO
  Diagonalizer: Serial LAPACK
  Atomic Correction: dense with blas
  Datatype: float
  Eigensolver: None

LCAO using direct dense diagonalizer

Densities:
  Coarse grid: 80*80*48 grid
  Fine grid: 160*160*96 grid
  Total Charge: 0.000000

Density mixing:
  Method: separate
  Backend: pulay
  Linear mixing parameter: 0.05
  Mixing with 5 old densities
  Damping of long wave oscillations: 75

Hamiltonian:
  XC and Coulomb potentials evaluated on a 160*160*96 grid
  Using the PBE Exchange-Correlation functional
  Interpolation: tri-quintic (5. degree polynomial)
  Poisson solver: Gauss-Seidel solver with 6 multi-grid levels
    Coarsest grid: 5 x 5 x 3 points
    Stencil: 6*3+1=19 point O(h^6) finite-difference Laplacian
    Max iterations: 1000
    Tolerance: 1.000000e-07

Total number of cores used: 16
Domain decomposition: 2 x 4 x 2

Number of atoms: 24
Number of atomic orbitals: 312
Number of bands in calculation: 98
Bands to converge: occupied states only
Number of valence electrons: 96

... initialized

Initializing position-dependent things.

Density initialized from atomic densities
   /       |          C                           |
  /        |   C  C     C                         |
 *         |         C    C   C  C                |
 |         |  C    C     C  C   C                 |
 |         .-C-C------C--------C------------------.
 |        /          C C  C                      /
 |       /     C C                              /

Positions:
   0 C      3.430618    6.367236    5.224453
   1 C      4.721990    4.126056    4.903132
   2 C      4.538842    5.494375    5.231172
   3 C      5.740551    3.387568    4.956784
   4 C      3.535561    7.625926    5.527187
   5 C      7.036786    3.769117    5.384702
   6 C      5.881275    6.011394    5.643247
   7 C      7.108986    5.212934    5.743139
   8 C      8.274157    3.142138    5.558936
   9 C      9.619129    4.987979    6.268930
  10 C      8.383408    5.815244    6.177413
  11 C      9.365741    3.655230    5.932901
  12 C      5.991744   10.012670    6.296697
  13 C      7.153159    9.476422    6.310743
  14 C      4.696028    9.434889    6.265489
  15 C      7.430763    8.070011    6.240706
  16 C      4.943852    8.023854    6.489085
  17 C      6.190631    7.387407    6.401922
  18 C      8.536587    7.201613    5.862819
  19 C     10.734691    5.529216    5.162138
  20 C     11.038655    6.785276    5.277637
  21 C     11.080323    8.220092    5.407091
  22 C      9.854505    7.679203    5.669321
  23 C      3.264794    9.445646    5.936889

Unit cell:
           periodic     x           y           z      points  spacing
  1. axis:    yes   16.000000    0.000000    0.000000    80     0.2000
  2. axis:    yes    0.000000   16.000000    0.000000    80     0.2000
  3. axis:    yes    0.000000    0.000000   10.000000    48     0.2083

Effective grid spacing dv^(1/3) = 0.2027

                     log10-error:    total        iterations:
           time      wfs    density  energy       fermi  poisson
iter:   1  11:13:09          +inf  -182.152128    1      6
iter:   2  11:13:10         -0.91  -181.406691    3      3
iter:   3  11:13:10         -0.95  -179.204688    33     4
iter:   4  11:13:11         -1.16  -178.657983    4      3
iter:   5  11:13:12         -1.27  -178.592077    31     3
iter:   6  11:13:13         -1.54  -178.447953    3      3
iter:   7  11:13:13         -1.73  -178.476242    3      3
iter:   8  11:13:14         -1.87  -178.437217    3      2
iter:   9  11:13:15         -2.09  -178.418806    3      2
iter:  10  11:13:15         -2.33  -178.411153    3      2
iter:  11  11:13:16         -2.47  -178.410824    3      2
iter:  12  11:13:17         -2.77  -178.409599    2      2
iter:  13  11:13:17         -2.87  -178.421626    2      1
iter:  14  11:13:18         -2.93  -178.405910    2      2
iter:  15  11:13:18         -3.21  -178.395146    2      1
iter:  16  11:13:19         -3.41  -178.410985    2      1
iter:  17  11:13:20         -3.59  -178.412805    2      1
iter:  18  11:13:20         -3.75  -178.404940    2      1
iter:  19  11:13:21         -3.88  -178.405437    2      1
iter:  20  11:13:22         -3.97  -178.406267    2      1
iter:  21  11:13:22         -4.05  -178.403979    2      1

Converged after 21 iterations.

Dipole moment: (0.027982, -0.332329, 0.163765) |e|*Ang

Energy contributions relative to reference atoms: (reference = -24663.074771)

Kinetic:        +96.202502
Potential:     -105.873114
External:        +0.000000
XC:            -171.562559
Entropy (-ST):   -0.248196
Local:           +2.953290
Free energy:   -178.528077
Extrapolated:  -178.403979

Fermi level: -4.34487

 Band  Eigenvalues  Occupancy
    0    -23.33240    2.00000
    1    -22.56977    2.00000
    2    -21.96546    2.00000
    3    -21.32641    2.00000
    4    -20.74919    2.00000
    5    -20.11099    2.00000
    6    -19.26772    2.00000
    7    -19.08562    2.00000
    8    -18.72216    2.00000
    9    -18.06054    2.00000
   10    -17.78032    2.00000
   11    -16.96564    2.00000
   12    -16.51978    2.00000
   13    -15.65791    2.00000
   14    -15.37209    2.00000
   15    -14.73994    2.00000
   16    -14.21625    2.00000
   17    -13.19247    2.00000
   18    -12.83022    2.00000
   19    -12.76866    2.00000
   20    -12.48695    2.00000
   21    -11.88267    2.00000
   22    -11.26814    2.00000
   23    -11.14037    2.00000
   24    -11.05406    2.00000
   25    -10.91061    2.00000
   26    -10.51654    2.00000
   27    -10.05135    2.00000
   28     -9.85527    2.00000
   29     -9.60019    2.00000
   30     -9.35181    2.00000
   31     -9.22539    2.00000
   32     -8.98863    2.00000
   33     -8.53370    2.00000
   34     -8.46341    2.00000
   35     -8.26648    2.00000
   36     -7.77204    2.00000
   37     -7.11243    2.00000
   38     -6.87751    2.00000
   39     -6.63517    2.00000
   40     -6.54417    2.00000
   41     -6.51209    2.00000
   42     -6.05947    2.00000
   43     -5.93120    2.00000
   44     -5.77339    2.00000
   45     -5.47873    1.99998
   46     -5.24775    1.99976
   47     -4.42899    1.39745
   48     -4.25967    0.59802
   49     -3.73248    0.00437
   50     -3.49590    0.00041
   51     -3.19187    0.00002
   52     -2.91542    0.00000
   53     -2.75054    0.00000
   54     -2.42475    0.00000
   55     -2.23190    0.00000
   56     -1.66656    0.00000
   57     -1.25061    0.00000
   58     -0.57392    0.00000
   59     -0.03610    0.00000
[...]
   83      8.77593    0.00000
   84      8.85711    0.00000
   85      8.96607    0.00000
   86      9.08547    0.00000
   87      9.29049    0.00000
   88      9.37107    0.00000
   89      9.38124    0.00000
   90      9.53964    0.00000
   91      9.62532    0.00000
   92      9.70317    0.00000
   93      9.84644    0.00000
   94      9.94822    0.00000
   95     10.05791    0.00000
   96     10.17357    0.00000
   97     10.31250    0.00000

Forces in eV/Ang:
  0 C     0.00846    0.23668   -0.22260
  1 C    -0.15417    0.56900    0.12971
  2 C     1.55627   -0.48884   -0.06786
  3 C     0.74260    0.12913   -0.00515
  4 C     1.46431    3.23696    3.69346
  5 C    -0.59826   -0.31394   -0.23430
  6 C     2.34928    0.69524    2.55428
  7 C    -1.14490   -0.40155    0.54816
  8 C     0.61002   -0.55253    0.57878
  9 C     1.85161    0.99587   -4.64450
 10 C     0.26777   -1.90070   -1.78463
 11 C    -1.28958   -0.75007    0.59521
 12 C     0.23946    0.12044    0.39064
 13 C    -0.03924    0.43178   -0.21439
 14 C     0.01203   -0.10652    0.44194
 15 C     0.53827    0.09023   -0.57141
 16 C    -1.85118    0.62015   -2.65372
 17 C    -4.35152   -3.28085   -2.59164
 18 C    -0.08834    2.45194    2.11737
 19 C    -1.64248   -1.69147    3.07103
 20 C     0.07784    1.35747    0.39816
 21 C     0.03199    0.43227    0.03756
 22 C     0.15661    0.21876   -0.68812
 23 C     1.26160   -2.07545   -0.90816

System changes: positions

[...]

Density initialized from wave functions
   /       |          C                           |
  /        |   C  C     C                         |
 *         |         C    C   C  C                |
 |         |  C    C     C  C   C                 |
 |         .-C--C-----C--------C------------------.
 |        /         C  C  C                      /
 |       /     C C                              /

[...]

Density initialized from wave functions
   /       |          C                           |
  /        |   C  C     C                         |
 *         |         C    C   C  C                |
 |         |  C    C     C  C   C                 |
 |         .-C--C-----C--------C------------------.
 |        /         C  C  C                      /
 |       /     C C                              /

[...]

Density initialized from wave functions
   /       |          C                           |
  /        |   C  C     C                         |
 *         |   C     C    C   C  C                |
 |         |       C     C  C   C                 |
 |         .-C--C-----C--------C------------------.
 |        /         C  C  C                      /
 |       /     C C                              /

[...]

Density initialized from wave functions
   /       |          C                           |
  /        |   C  C     C                         |
 *         |   C    C     C   C  C                |
 |         |       C     C      C                 |
 |         .-C--C-----C-----C--C------------------.
 |        /         C  C  C                      /
 |       /     C C                              /

[...]

Density initialized from wave functions
   /       |          C                           |
  /        |   C  C     C                         |
 *         |   C    C     C   C  C                |
 |         |       C     C      C                 |
 |         .-C--C-----C-----C--C------------------.
 |        /         C  C  C                      /
 |       /     C C                              /

[...]

Density initialized from wave functions
   /       |          C                           |
  /        |   C  C     C                         |
 *         |   C    C   C C   C  C                |
 |         |       C     C      C                 |
 |         .--C-C-----C-----C--C------------------.
 |        /         C  C  C                      /
 |       /     C C                              /

[...]

Density initialized from wave functions
   /       |          C                           |
  /        |   C  C     C                         |
 *         |   C    C   C C   C  C                |
 |         |       C     C      C                 |
 |         .--C-C-----C-----C--C------------------.
 |        /         C  C  C                      /
 |       /     C C                              /

[...]

Density initialized from wave functions
   /       |          C                           |
  /        |   C  C     C                         |
 *         |   C    C   C C   C  C                |
 |         |       C     C      C                 |
 |         .--C-C-----C-----C--C------------------.
 |        /    C    C  C  C                      /
 |       /       C                              /

[...]

Density initialized from wave functions
   /       |          C                           |
  /        |   C  C     C                         |
 *         |   C    C   C C   C  C                |
 |         |       C     C      C                 |
 |         .--C-C-----C-----C--C------------------.
 |        /    C    C  C  C                      /
 |       /       C                              /

[...]

Density initialized from wave functions
   /       |      C   C                           |
  /        |   C  C     C                         |
 *         |   C    C   C C   C  C                |
 |         |       C     C      C                 |
 |         .--C-C-----C-----C--C------------------.
 |        /    C    C  C  C                      /
 |       /       C                              /

[...]

Density initialized from wave functions
   /       |      C   C                           |
  /        |   C  C     C                         |
 *         |  C     C   C C   C  C                |
 |         |       C     C      C                 |
 |         .--C-C-----C-----C--C------------------.
 |        /    C    C  C  C                      /
 |       /       C                              /

[...]

Density initialized from wave functions
   /       |      C   C                           |
  /        |      C     C                         |
 *         |  CC    C   C C   C  C                |
 |         |       C     C      C                 |
 |         .-C--C-----C-----C--C------------------.
 |        /    C    C  C  C                      /
 |       /       C                              /

[...]

Density initialized from wave functions
   /       |      C   C                           |
  /        |      C     C                         |
 *         |   C    C   C C   C  C                |
 |         |       C     C      C                 |
 |         .-C--C-----C-----C--C------------------.
 |        /    C    C  C  C                      /
 |       /       C                              /

[...]

Density initialized from wave functions
   /       |      C   C                           |
  /        |      C     C                         |
 *         |   C    C   C C   C  C                |
 |         |       C     C      C                 |
 |         .-C--C-----C-----C--C------------------.
 |        /    C    C  C  C                      /
 |       /       C                              /

[...]

Density initialized from wave functions
   /       |      C   C C                         |
  /        |      C                               |
 *         |   CC   C   C C   C  C                |
 |         |       C     C      C                 |
 |         .-C--C-----C-----C--C------------------.
 |        /    C    C  C  C                      /
 |       /       C                              /

[...]

Density initialized from wave functions
   /       |      C   C C                         |
  /        |      C                               |
 *         |   CC   C   C C   C  C                |
 |         |       C     C      C                 |
 |         .-C--C-----C-----C--C------------------.
 |        /    C    C  C  C                      /
 |       /       C                              /

[...]

Density initialized from wave functions
   /       |       C  C                           |
  /        |      C     C                         |
 *         |   CC   C   C C   C  C                |
 |         |       C     C      C                 |
 |         .-C--C-----C-----C--C------------------.
 |        /    C    C  C  C                      /
 |       /       C                              /

[...]

Density initialized from wave functions
   /       |       C  C                           |
  /        |      C     C                         |
 *         |   CC   C   C C   C  C                |
 |         |       C     C      C                 |
 |         .-C-C------C-----C--C------------------.
 |        /    C    C  C  C                      /
 |       /       C                              /

[...]

Density initialized from wave functions
   /       |       C  C                           |
  /        |      C     C                         |
 *         |   CC   C   C C   C  C                |
 |         |       C     C      C                 |
 |         .-C-C------C-----C--C------------------.
 |        /    C    C  C  C                      /
 |       /       C                              /

[...]

Density initialized from wave functions
   /       |       C  C C                         |
  /        |      C                               |
 *         |   CC   C   C C   C  C                |
 |         |       C     C      C                 |
 |         .-C-C-----C------C--C------------------.
 |        /    C    C  C  C                      /
 |       /       C                              /

[...]

Density initialized from wave functions
   /       |       C  C C                         |
  /        |      C                               |
 *         |   CC   C   C C   C  C                |
 |         |       C            C                 |
 |         .-C-C-----C---C--C--C------------------.
 |        /    C    C  C  C                      /
 |       /       C                              /

[...]

Density initialized from wave functions
   /       |       C  C C                         |
  /        |      C                               |
 *         |   CC   C   C C   C  C                |
 |         |       C           CC                 |
 |         .-C-C-----C---C--C---------------------.
 |        /    C    C  C  C                      /
 |       /       C                              /

[...]

Density initialized from wave functions
   /       |       C  C C                         |
  /        |      C                               |
 *         |   CC   C   C C   C  C                |
 |         |       C           CC                 |
 |         .-C-C-----C---C--C---------------------.
 |        /    C    C  C  C                      /
 |       /       C                              /

[...]

Density initialized from wave functions
   /       |       C  C C                         |
  /        |      C                               |
 *         |   CC   C   C C   C  C                |
 |         |       C     C      C                 |
 |         .-C-C-----C------C--C------------------.
 |        /    C    C  C  C                      /
 |       /       C                              /

[...]

Density initialized from wave functions
   /       |       C  C C                         |
  /        |      C                               |
 *         |   CC   C   C C   C  C                |
 |         |       C           CC                 |
 |         .-C-C-----C---C--C---------------------.
 |        /    C    C     C                      /
 |       /       C     C                        /

[...]

System changes: positions

Initializing position-dependent things.

Density initialized from wave functions
   /       |       C  C C                         |
  /        |      C                               |
 *         |   CC   C   C C   C  C                |
 |         |       C           CC                 |
 |         .-C-C-----C---C--C---------------------.
 |        /    C    C     C                      /
 |       /       C     C                        /

Positions:
   0 C      3.452536    6.449881    5.329125
   1 C      4.619165    4.113232    5.209542
   2 C      4.509466    5.510854    5.398143
   3 C      5.593066    3.310726    5.231442
   4 C      3.598071    7.694019    5.817577
   5 C      6.943887    3.679491    5.402635
   6 C      5.909469    5.988033    5.653956
   7 C      7.085566    5.144849    5.603534
   8 C      8.198734    3.050796    5.482088
   9 C      9.644548    4.963294    5.710608
  10 C      8.387290    5.767807    5.739398
  11 C      9.325852    3.600795    5.620624
  12 C      6.076450   10.028271    6.405105
  13 C      7.202682    9.440296    6.355272
  14 C      4.765502    9.527786    6.367555
  15 C      7.347650    8.020837    6.139902
  16 C      4.886975    8.061701    6.382060
  17 C      6.065904    7.347626    6.050738
  18 C      8.499610    7.221027    5.905503
  19 C     10.861554    5.678438    5.808082
  20 C     11.060165    6.944995    5.620661
  21 C     10.976895    8.380292    5.419584
  22 C      9.790447    7.794679    5.739512
  23 C      3.695002    9.171620    5.480076

Unit cell:
           periodic     x           y           z      points  spacing
  1. axis:    yes   16.000000    0.000000    0.000000    80     0.2000
  2. axis:    yes    0.000000   16.000000    0.000000    80     0.2000
  3. axis:    yes    0.000000    0.000000   10.000000    48     0.2083

Effective grid spacing dv^(1/3) = 0.2027

                     log10-error:    total        iterations:
           time      wfs    density  energy       fermi  poisson
iter:   1  11:19:32          +inf  -183.899243    2      4
iter:   2  11:19:33         -3.12  -183.899339    2      1
iter:   3  11:19:34         -3.32  -183.899534    2      1
iter:   4  11:19:34         -3.47  -183.899186    1      1
iter:   5  11:19:35         -3.66  -183.899472    2      1
iter:   6  11:19:36         -3.53  -183.899422    2      1
iter:   7  11:19:36         -3.69  -183.899143    2      1
iter:   8  11:19:37         -3.59  -183.899282    2      1
iter:   9  11:19:38         -4.41  -183.899472    1      1

Converged after 9 iterations.

Dipole moment: (0.193428, -0.170478, 0.207691) |e|*Ang

Energy contributions relative to reference atoms: (reference = -24663.074771)

Kinetic:       +115.556234
Potential:     -122.280151
External:        +0.000000
XC:            -180.096722
Entropy (-ST):   -0.136323
Local:           +2.989328
Free energy:   -183.967634
Extrapolated:  -183.899472

Fermi level: -4.10346

 Band  Eigenvalues  Occupancy
    0    -23.49053    2.00000
    1    -23.31495    2.00000
    2    -22.31073    2.00000
    3    -21.28042    2.00000
    4    -21.19481    2.00000
    5    -20.24505    2.00000
    6    -19.55942    2.00000
    7    -19.34373    2.00000
    8    -18.88580    2.00000
    9    -18.23832    2.00000
   10    -17.71861    2.00000
   11    -16.98978    2.00000
   12    -16.52792    2.00000
   13    -15.74132    2.00000
   14    -15.40037    2.00000
   15    -15.12066    2.00000
   16    -14.32148    2.00000
   17    -13.13371    2.00000
   18    -13.05812    2.00000
   19    -12.72851    2.00000
   20    -12.51247    2.00000
   21    -12.45002    2.00000
   22    -11.49420    2.00000
   23    -11.13740    2.00000
   24    -11.08721    2.00000
   25    -10.86200    2.00000
   26    -10.52611    2.00000
   27    -10.45002    2.00000
   28    -10.16503    2.00000
   29     -9.96766    2.00000
   30     -9.74094    2.00000
   31     -9.60406    2.00000
   32     -9.50083    2.00000
   33     -9.31166    2.00000
   34     -8.65663    2.00000
   35     -8.52934    2.00000
   36     -7.78481    2.00000
   37     -7.21435    2.00000
   38     -6.83700    2.00000
   39     -6.77464    2.00000
   40     -6.50727    2.00000
   41     -6.37377    2.00000
   42     -6.26942    2.00000
   43     -6.04061    2.00000
   44     -5.95821    2.00000
   45     -5.44831    2.00000
   46     -4.95022    1.99958
   47     -4.31692    1.78845
   48     -3.88957    0.21075
   49     -3.35883    0.00117
   50     -3.02855    0.00004
   51     -2.91661    0.00001
   52     -2.61283    0.00000
   53     -2.49035    0.00000
   54     -2.38860    0.00000
   55     -2.04201    0.00000
   56     -1.38150    0.00000
   57     -0.99466    0.00000
   58     -0.04623    0.00000
   59      0.55067    0.00000
[...]
   83      8.96318    0.00000
   84      9.01271    0.00000
   85      9.18601    0.00000
   86      9.32041    0.00000
   87      9.38462    0.00000
   88      9.50488    0.00000
   89      9.53939    0.00000
   90      9.62997    0.00000
   91      9.70645    0.00000
   92      9.91648    0.00000
   93     10.10760    0.00000
   94     10.16666    0.00000
   95     10.26157    0.00000
   96     10.31540    0.00000
   97     10.53138    0.00000

Forces in eV/Ang:
  0 C     0.00397   -0.04610    0.00179
  1 C    -0.07238   -0.03768   -0.02028
  2 C    -0.01760   -0.01413   -0.00228
  3 C    -0.02905    0.01588    0.01326
  4 C     0.01187   -0.06282    0.04461
  5 C    -0.03230   -0.02493    0.05422
  6 C    -0.03419   -0.00416    0.02560
  7 C     0.01996    0.02538   -0.02393
  8 C    -0.02759    0.04261   -0.06610
  9 C     0.02483   -0.00686    0.01374
 10 C     0.03930    0.04801   -0.00342
 11 C     0.02290   -0.02885   -0.00426
 12 C    -0.01208   -0.01738   -0.05067
 13 C    -0.01350    0.00182   -0.04247
 14 C    -0.00043    0.02413   -0.02718
 15 C    -0.01396    0.01669   -0.02403
 16 C    -0.01045    0.00403   -0.02598
 17 C     0.01992    0.02287    0.02889
 18 C     0.02689    0.03520    0.03692
 19 C    -0.00947   -0.02211   -0.03476
 20 C     0.04537   -0.01521   -0.01608
 21 C    -0.00316   -0.04785    0.05332
 22 C     0.01865    0.03274    0.08289
 23 C     0.02282    0.00896    0.03265