User:   esb@s65n74.grendel.cscaa.dk
Date:   Thu Nov  9 12:23:40 2017
Arch:   x86_64
Pid:    101567
Python: 2.7.13
gpaw:   /home/esb/DFT/gpaw_git/gpaw
_gpaw:  /home/esb/DFT/gpaw_git/build/bin.linux-x86_64-2.7/gpaw-python
ase:    /home/esb/DFT/ase_git/ase (version 3.15.0b1)
numpy:  /comm/swstack/core/python/2.7.13/lib/python2.7/site-packages/numpy (version 1.13.3)
scipy:  /comm/swstack/core/python/2.7.13/lib/python2.7/site-packages/scipy (version 0.19.1)
units:  Angstrom and eV
cores:  16
Extra parameters: {'blacs': True}

Input parameters:
  basis: dzp
  gpts: [80 80 48]
  kpts: [1 1 1]
  maxiter: 99
  mixer: {backend: pulay,
          beta: 0.05,
          method: separate,
          nmaxold: 5,
          weight: 75}
  mode: lcao
  nbands: -50
  occupations: {name: fermi-dirac,
                width: 0.1}
  poissonsolver: {eps: 1e-07,
                  name: fd,
                  nn: 3,
                  relax: GS}
  xc: PBE

System changes: positions, numbers, cell, pbc, initial_charges, initial_magmoms

Initialize ...

C-setup:
  name: Carbon
  id: 4aa54d4b901d75f77cc0ea3eec22967b
  Z: 6
  valence: 4
  core: 2
  charge: 0.0
  file: /home/esb/DFT/gpaw-setups-0.8.7929/C.PBE.gz
  cutoffs: 0.64(comp), 1.14(filt), 1.14(core), lmax=2
  valence states:
                energy  radius
    2s(2.00)   -13.751   0.635
    2p(2.00)    -5.284   0.635
    *s          13.461   0.635
    *p          21.927   0.635
    *d           0.000   0.635

  LCAO basis set for C:
    Name: dzp
    File: /home/esb/DFT/gpaw-setups-0.8.7929/C.dzp.basis.gz
    Number of radial functions: 5
    Number of spherical harmonics: 13
      l=0, rc=5.5469 Bohr: 2s-sz confined orbital
      l=1, rc=6.6719 Bohr: 2p-sz confined orbital
      l=0, rc=3.0312 Bohr: 2s-dz split-valence wave
      l=1, rc=3.7500 Bohr: 2p-dz split-valence wave
      l=2, rc=6.6719 Bohr: d-type Gaussian polarization

Reference energy: -24663.074771

Spin-paired calculation

Occupation numbers:
  Fermi-Dirac: width=0.1000 eV

Convergence criteria:
  Maximum total energy change: 0.0005 eV / electron
  Maximum integral of absolute density change: 0.0001 electrons
  Maximum integral of absolute eigenstate change: 4e-08 eV^2
  Maximum number of iterations: 99

Symmetries present (total): 1

  ( 1  0  0)
  ( 0  1  0)
  ( 0  0  1)

1 k-point (Gamma)
1 k-point in the irreducible part of the Brillouin zone
       k-points in crystal coordinates                weights
   0:     0.00000000    0.00000000    0.00000000          1/1

Wave functions: LCAO
  Diagonalizer: Serial LAPACK
  Atomic Correction: dense with blas
  Datatype: float
  Eigensolver: None

LCAO using direct dense diagonalizer

Densities:
  Coarse grid: 80*80*48 grid
  Fine grid: 160*160*96 grid
  Total Charge: 0.000000

Density mixing:
  Method: separate
  Backend: pulay
  Linear mixing parameter: 0.05
  Mixing with 5 old densities
  Damping of long wave oscillations: 75

Hamiltonian:
  XC and Coulomb potentials evaluated on a 160*160*96 grid
  Using the PBE Exchange-Correlation functional
  Interpolation: tri-quintic (5. degree polynomial)
  Poisson solver: Gauss-Seidel solver with 6 multi-grid levels
    Coarsest grid: 5 x 5 x 3 points
    Stencil: 6*3+1=19 point O(h^6) finite-difference Laplacian
    Max iterations: 1000
    Tolerance: 1.000000e-07

Total number of cores used: 16
Domain decomposition: 2 x 4 x 2

Number of atoms: 24
Number of atomic orbitals: 312
Number of bands in calculation: 98
Bands to converge: occupied states only
Number of valence electrons: 96

... initialized

Initializing position-dependent things.

Density initialized from atomic densities
   /       |            C                         |
  /        |      C  C    C   C                   |
 *         |C  C    C   CC       C                |
 |         | C      C  C         C                |
 |         .---C--------C-----CC------------------.
 |        /    CC   C   C  C                     /

Positions:
   0 C      4.809473    8.730636    5.944479
   1 C      6.673323   10.353221    6.021586
   2 C      5.452478   10.006230    5.997847
   3 C      9.276578    9.707953    6.003242
   4 C      5.978757    6.301302    5.870054
   5 C      7.300438    8.195112    5.954643
   6 C      8.175755    7.079734    5.917241
   7 C      5.917332    7.736814    5.921873
   8 C      7.858722    9.571390    6.000240
   9 C      7.346239    5.855587    5.871384
  10 C      8.664966    3.423374    5.881232
  11 C      8.052500    4.645598    5.865072
  12 C      2.147426    8.427615    5.936267
  13 C      3.411945    8.508362    5.933704
  14 C     10.399175    9.946771    4.636948
  15 C     11.048060    8.827978    4.617804
  16 C     10.284975    7.575192    4.804414
  17 C     10.502401    6.227793    4.872294
  18 C      9.419030    5.315235    5.066994
  19 C      5.487944    3.334285    5.580376
  20 C      4.412389    5.559654    5.592941
  21 C      6.857864    3.720848    5.428126
  22 C      4.511724    4.129408    5.656085
  23 C      3.277671    6.419539    5.686620

Unit cell:
           periodic     x           y           z      points  spacing
  1. axis:    yes   16.000000    0.000000    0.000000    80     0.2000
  2. axis:    yes    0.000000   16.000000    0.000000    80     0.2000
  3. axis:    yes    0.000000    0.000000   10.000000    48     0.2083

Effective grid spacing dv^(1/3) = 0.2027

                     log10-error:    total        iterations:
           time      wfs    density  energy       fermi  poisson
iter:   1  12:23:41          +inf  -167.813799    2      6
iter:   2  12:23:42         -0.90  -166.626259    3      3
iter:   3  12:23:43         -0.95  -165.319725    3      3
iter:   4  12:23:43         -1.03  -164.361760    4      3
iter:   5  12:23:44         -1.20  -164.100893    3      3
iter:   6  12:23:45         -1.30  -163.924750    4      3
iter:   7  12:23:45         -1.56  -163.910519    4      3
iter:   8  12:23:46         -1.72  -163.875111    3      2
iter:   9  12:23:47         -1.83  -163.850766    3      3
iter:  10  12:23:47         -2.03  -163.843924    3      2
iter:  11  12:23:48         -2.13  -163.836869    3      2
iter:  12  12:23:49         -2.49  -163.832339    2      2
iter:  13  12:23:49         -2.64  -163.831763    3      2
iter:  14  12:23:50         -2.85  -163.846965    2      1
iter:  15  12:23:50         -3.03  -163.839526    2      1
iter:  16  12:23:51         -3.16  -163.830179    2      1
iter:  17  12:23:52         -3.27  -163.836104    2      1
iter:  18  12:23:52         -3.43  -163.832253    2      1
iter:  19  12:23:53         -3.60  -163.830970    2      1
iter:  20  12:23:53         -3.67  -163.831965    2      1
iter:  21  12:23:54         -3.76  -163.829416    2      1
iter:  22  12:23:55         -3.84  -163.829336    2      1
iter:  23  12:23:55         -3.90  -163.828724    2      1
iter:  24  12:23:56         -4.10  -163.828426    2      1

Converged after 24 iterations.

Dipole moment: (0.329084, 0.063119, 0.007753) |e|*Ang

Energy contributions relative to reference atoms: (reference = -24663.074771)

Kinetic:        +76.596766
Potential:      -88.250420
External:        +0.000000
XC:            -154.843045
Entropy (-ST):   -0.321714
Local:           +2.829130
Free energy:   -163.989283
Extrapolated:  -163.828426

Fermi level: -4.70400

 Band  Eigenvalues  Occupancy
    0    -23.08560    2.00000
    1    -22.34647    2.00000
    2    -20.99102    2.00000
    3    -20.88787    2.00000
    4    -20.58228    2.00000
    5    -20.32853    2.00000
    6    -19.32316    2.00000
    7    -19.10451    2.00000
    8    -18.68849    2.00000
    9    -18.30460    2.00000
   10    -17.34908    2.00000
   11    -17.07764    2.00000
   12    -16.35815    2.00000
   13    -15.64349    2.00000
   14    -15.48061    2.00000
   15    -14.68351    2.00000
   16    -14.46650    2.00000
   17    -13.31431    2.00000
   18    -13.11572    2.00000
   19    -12.97684    2.00000
   20    -12.22873    2.00000
   21    -11.93443    2.00000
   22    -11.50781    2.00000
   23    -11.08012    2.00000
   24    -10.83411    2.00000
   25    -10.23708    2.00000
   26    -10.10617    2.00000
   27     -9.58460    2.00000
   28     -9.23734    2.00000
   29     -9.11798    2.00000
   30     -8.96488    2.00000
   31     -8.73642    2.00000
   32     -8.45761    2.00000
   33     -8.26512    2.00000
   34     -8.03371    2.00000
   35     -7.49435    2.00000
   36     -7.34530    2.00000
   37     -7.04009    2.00000
   38     -6.88357    2.00000
   39     -6.70956    2.00000
   40     -6.63375    2.00000
   41     -6.33107    2.00000
   42     -5.90148    1.99999
   43     -5.47619    1.99911
   44     -5.33177    1.99625
   45     -5.23748    1.99040
   46     -5.07879    1.95395
   47     -4.78142    1.36887
   48     -4.62029    0.60429
   49     -4.35941    0.06178
   50     -4.23313    0.01787
   51     -4.13328    0.00662
   52     -3.92635    0.00084
   53     -3.47204    0.00001
   54     -3.15517    0.00000
   55     -2.95292    0.00000
   56     -2.78046    0.00000
   57     -2.60988    0.00000
   58     -1.77593    0.00000
   59     -1.56712    0.00000
[...]
   83      8.33136    0.00000
   84      8.50407    0.00000
   85      8.74325    0.00000
   86      8.81648    0.00000
   87      8.86713    0.00000
   88      8.96934    0.00000
   89      9.19276    0.00000
   90      9.24567    0.00000
   91      9.34827    0.00000
   92      9.39995    0.00000
   93      9.57174    0.00000
   94      9.62910    0.00000
   95      9.76570    0.00000
   96      9.86445    0.00000
   97      9.94667    0.00000

Forces in eV/Ang:
  0 C     1.14080    0.15691    0.10230
  1 C    -0.79170    0.43785    0.04615
  2 C     0.59795    0.49785    0.04219
  3 C     1.56121    1.64821   -2.64948
  4 C    -3.46492   -0.80759   -0.85575
  5 C     1.59326   -0.31613    0.05755
  6 C    -1.80488    1.12792    0.45307
  7 C    -0.22869    1.22263    0.06898
  8 C     0.04062   -0.92289   -0.83201
  9 C     0.21018    3.15304    1.08196
 10 C    -1.14009   -3.43590   -0.10149
 11 C    -1.30315    2.65534   -1.69337
 12 C    -3.54404   -0.98804   -0.12260
 13 C     5.13424   -2.09440   -0.30047
 14 C    -4.07560    3.13878    3.65218
 15 C    -2.47067   -6.57157    0.31488
 16 C     4.03736    1.36939   -0.22714
 17 C    -3.75547   -2.84569    0.61953
 18 C     2.31709    1.10705   -1.21529
 19 C     5.42252    0.52624   -0.68048
 20 C     1.84469    2.31946    1.73164
 21 C     1.45493   -3.49349    0.93017
 22 C    -2.16743    2.62697   -0.33833
 23 C    -0.55479   -0.48097   -0.06037

System changes: positions

[...]

Density initialized from wave functions
   /       |            C                         |
  /        |      C  C    C   C                   |
 *         C   C    C   CC       C                |
 |         | C     C   C       C C                |
 |         .---C--------C-----C-------------------.
 |        /    C C  C   C  C                     /

[...]

Density initialized from wave functions
   /       |            C                         |
  /        |      C  C    C   C                   |
 *         C   C    C   CC      C                 |
[...]

[...]

Density initialized from wave functions
   /       |            C                         |
  /        |      C  C    C   C                   |
 *         C   C    C   CC      C                 |
 |         | C     C   C         C                |
 |         .----C-------C-----C-C-----------------.
 |        /    C C  C  C   C                     /

[...]

Density initialized from wave functions
   /       |            C                         |
  /        |      C  C    C   C                   |
 *         C   C    C   CC      C                 |
 |         | C  C  C   C         C                |
 |         .------------C-----C-C-----------------.
 |        /    C C  C  C   C                     /

[...]

Density initialized from wave functions
   /       |            C                         |
  /        |      C  C    C   C                   |
 *         C   C    C   CC      C                 |
 |         | C  C  C  C         C                 |
 |         .------------C-----C-C-----------------.
 |        /    C C  C  C   C                     /

[...]

Density initialized from wave functions
   /       |         C  C                         |
  /        |      C       C  C                    |
 *         C   C    C   CC      C                 |
 |         | C  C  C  C         C                 |
 |         .------------C-----C-C-----------------.
 |        /    C C  C  C   C                     /

[...]

Density initialized from wave functions
   /       |        C   C                         |
  /        |      C       C  C                    |
 *         C   C     C  CC      C                 |
 |         |  C C   C  C        C                 |
 |         .------------C-----C-C-----------------.
 |        /    C C C  C    C                     /

[...]

Density initialized from wave functions
   /       |        C   C                         |
  /        |      C       C  C                    |
 *         C   C     C  C C     C                 |
 |         |  C C   C  C         C                |
 |         .------------C-----C-C-----------------.
 |        /    CC  C  C    C                     /

[...]

Density initialized from wave functions
   /       |        C  C                          |
  /        |      C       C  C                    |
 *         C   C     C  C C     C                 |
 |         |  C C   C  C         C                |
 |         .------------C-----C-C-----------------.
 |        /    CC  C  C     C                    /

[...]

Density initialized from wave functions
   /       |        C  C                          |
  /        |      C       C  C                    |
 *         C   C     C  C C     C                 |
 |         |  C C   C  C         C                |
 |         .---C--------C-----C-C-----------------.
 |        /     C  C  C     C                    /

[...]

Density initialized from wave functions
   /       |        C  C                          |
  /        |      C       C  C                    |
 *         C   C     C  C C    C                  |
 |         |  C C   C  C         C                |
 |         .---C--------C-----C-C-----------------.
 |        /     C  C  C     C                    /

[...]

Density initialized from wave functions
   /       |        C  C                          |
  /        |      C       C  C                    |
 *         C   C     C  C C    C                  |
 |         |  C C   C  C         C                |
 |         .---C--------C------CC-----------------.
 |        /     C  C  C     C                    /

[...]

Density initialized from wave functions
   /       |        C  C                          |
  /        |      C       C  C                    |
 *         C   C     C  C C    C                  |
 |         |  C C   C  C         C                |
 |         .---C--------C------CC-----------------.
 |        /     C  C  C     C                    /

[...]

Density initialized from wave functions
   /       |        C  C                          |
  /        |      C       C  C                    |
 *         C   C     C  CC     C                  |
 |         |  C C   C  C         C                |
 |         .---C--------C---C--C-C----------------.
 |        /     C  C  C                          /

[...]

Density initialized from wave functions
   /       |        C  C                          |
  /        |      C       C  C                    |
 *         C   C    C   CC     C                  |
 |         |  C C   C  C         C                |
 |         .---C--------C---C--C-C----------------.
 |        /     C  C  C                          /

[...]

Density initialized from wave functions
   /       |        C  C                          |
  /        |      C       C  C                    |
 *         C   C    C   C C    C                  |
 |         |  C C   C  C         C                |
 |         .---C--------C---C--C-C----------------.
 |        /     C  C  C                          /

[...]

Density initialized from wave functions
   /       |        C  C                          |
  /        |      C       C  C                    |
 *         C   C     C  C C    C                  |
 |         |  C C   C  C         C                |
 |         .---C--------C---C--C-C----------------.
 |        /     C     C                          /
 |       /         C                            /

[...]

Density initialized from wave functions
   /       |        C  C                          |
  /        |      C       C  C                    |
 *         C   C     C  C C    C                  |
 |         |  C C   C  C         C                |
 |         .---C--------C---C--C-C----------------.
 |        /     C     C                          /
 |       /         C                            /

[...]

Density initialized from wave functions
   /       |        C  C                          |
  /        |      C       C  C                    |
 *         C   C     C  C      C                  |
 |         |  C C  C   C  C      C                |
 |         .---C--------C---C--C-C----------------.
 |        /     C     C                          /
 |       /         C                            /

[...]

Density initialized from wave functions
   /       |        C  C                          |
  /        |      C       C  C                    |
 *         C   C    C   C      C                  |
 |         |  C C  C   C  C      C                |
 |         .---C--------C---C--C-C----------------.
 |        /     C     C                          /
 |       /         C                            /

[...]

Density initialized from wave functions
   /       |        C  C                          |
  /        |      C       C  C                    |
 *         C   C    C   C      C                  |
 |         |  C C  C   C C       C                |
 |         .---C--------C---C--C-C----------------.
 |        /     C  C   C                         /

[...]

Density initialized from wave functions
   /       |        C  C                          |
  /        |      C       C  C                    |
 *         C   C     C  C      C                  |
 |         |  C C  C   C C       C                |
 |         .---C--------C---C--C-C----------------.
 |        /      C  C  C                         /

[...]

Density initialized from wave functions
   /       |        C  C                          |
  /        |      C       C  C                    |
 *         C   C     C  C      C                  |
 |         |  C C  C   C C       C                |
 |         .---C--------C---C--CC-----------------.
 |        /      C  C  C                         /

[...]

Density initialized from wave functions
   /       |        C  C                          |
  /        |      C       C  C                    |
 *         C   C     C  C      C                  |
 |         |  C C  C  C  C       C                |
 |         .---C--------C--C---CC-----------------.
 |        /      C C   C                         /

[...]

Density initialized from wave functions
   /       |        C   C                         |
  /        |      C       C  C                    |
 *         C   C     C  C      C                  |
 |         |  C C  C  C  C       C                |
 |         .---C--------C--C---CC-----------------.
 |        /      C C   C                         /

[...]

Density initialized from wave functions
   /       |        C   C                         |
  /        |      C       C  C                    |
 *         C   C     C  C      C                  |
 |         |  C C  C  C  C       C                |
 |         .---C--------C--C---CC-----------------.
 |        /     C      C                         /
 |       /         C                            /

[...]

Density initialized from wave functions
   /       |        C   C                         |
  /        |      C       C   C                   |
 *         C   C     C  C       C                 |
 |         |  C C  C  C  C      C C               |
 |         .---C--------C--C---C------------------.
 |        /     C      C                         /
 |       /         C                            /

[...]

Density initialized from wave functions
   /       |        C   C                         |
  /        |      C       C   C                   |
 *         C   C     C  C       C                 |
 |         |  C C  C  C  C        C               |
 |         .---C--------C--C---CC-----------------.
 |        /     C     C                          /
 |       /         C                            /

[...]

Density initialized from wave functions
   /       |        C   C                         |
  /        |      C       C   C                   |
 *         C   C     C  C       C                 |
 |         |  C C  C  C  C      C C               |
 |         .---C--------C--C---C------------------.
 |        /     C     C                          /
 |       /         C                            /

[...]

Density initialized from wave functions
   /       |         C  C                         |
  /        |      C       C   C                   |
 *         C   C     C  C       C                 |
 |         |  C C  C  C  C       CC               |
 |         .---C--------C--C---C------------------.
 |        /     C     C                          /
 |       /         C                            /

[...]

System changes: positions

Initializing position-dependent things.

Density initialized from wave functions
   /       |         C  C                         |
  /        |      C       C   C                   |
 *         C   C    C   C       C                 |
 |         |  C C  C  C  C       CC               |
 |         .---C--------C--C---C------------------.
 |        /     C     C                          /
 |       /         C                            /

Positions:
   0 C      4.887044    8.781260    6.064179
   1 C      6.621090   10.444435    5.969794
   2 C      5.409220   10.115908    6.101847
   3 C      9.135254   10.030568    5.462053
   4 C      5.823724    6.425911    5.841222
   5 C      7.389878    8.258483    5.746408
   6 C      8.095369    7.003200    5.600733
   7 C      5.977811    7.872903    5.912455
   8 C      7.801306    9.670795    5.732143
   9 C      7.178199    5.947619    5.667270
  10 C      7.902896    3.554328    5.350570
  11 C      8.222425    4.929773    5.428588
  12 C      2.279657    7.540286    5.994070
  13 C      3.628115    8.101577    6.072702
  14 C     10.224105    9.409207    5.209968
  15 C     11.311309    8.646619    4.941605
  16 C     11.047273    7.348862    4.967829
  17 C     10.583839    6.120916    5.033623
  18 C      9.234367    5.976349    5.330159
  19 C      5.427544    3.380749    5.654613
  20 C      4.552542    5.766693    5.897997
  21 C      6.731242    3.069211    5.466055
  22 C      4.627302    4.346357    5.815430
  23 C      3.475087    6.718745    5.990792

Unit cell:
           periodic     x           y           z      points  spacing
  1. axis:    yes   16.000000    0.000000    0.000000    80     0.2000
  2. axis:    yes    0.000000   16.000000    0.000000    80     0.2000
  3. axis:    yes    0.000000    0.000000   10.000000    48     0.2083

Effective grid spacing dv^(1/3) = 0.2027

                     log10-error:    total        iterations:
           time      wfs    density  energy       fermi  poisson
iter:   1  12:40:53          +inf  -184.007172    3      4
iter:   2  12:40:54         -2.43  -183.999641    3      1
iter:   3  12:40:54         -2.92  -183.999960    2      1
iter:   4  12:40:55         -3.29  -184.000107    2      1
iter:   5  12:40:55         -3.39  -183.999316    2      1
iter:   6  12:40:56         -3.49  -184.000069    2      1
iter:   7  12:40:57         -3.16  -184.000748    2      1
iter:   8  12:40:57         -3.72  -183.999932    2      1
iter:   9  12:40:58         -3.15  -183.999399    2      1
iter:  10  12:40:59         -4.08  -183.999631    2      1

Converged after 10 iterations.

Dipole moment: (0.004502, -0.578344, 0.091234) |e|*Ang

Energy contributions relative to reference atoms: (reference = -24663.074771)

Kinetic:       +113.782570
Potential:     -121.779668
External:        +0.000000
XC:            -178.895986
Entropy (-ST):   -0.200239
Local:           +2.993573
Free energy:   -184.099750
Extrapolated:  -183.999631

Fermi level: -4.40984

 Band  Eigenvalues  Occupancy
    0    -23.34874    2.00000
    1    -22.69325    2.00000
    2    -21.72559    2.00000
    3    -21.16747    2.00000
    4    -20.75349    2.00000
    5    -20.43797    2.00000
    6    -19.80205    2.00000
    7    -19.41858    2.00000
    8    -18.91512    2.00000
    9    -18.42747    2.00000
   10    -17.90122    2.00000
   11    -16.96287    2.00000
   12    -16.42523    2.00000
   13    -16.11702    2.00000
   14    -15.68775    2.00000
   15    -14.53917    2.00000
   16    -14.20602    2.00000
   17    -14.05860    2.00000
   18    -13.47101    2.00000
   19    -13.03355    2.00000
   20    -12.92774    2.00000
   21    -12.13003    2.00000
   22    -11.61244    2.00000
   23    -11.36746    2.00000
   24    -10.92254    2.00000
   25    -10.72836    2.00000
   26    -10.25772    2.00000
   27     -9.92753    2.00000
   28     -9.69311    2.00000
   29     -9.57837    2.00000
   30     -9.19517    2.00000
   31     -9.12680    2.00000
   32     -8.86632    2.00000
   33     -8.67700    2.00000
   34     -8.63747    2.00000
   35     -8.34638    2.00000
   36     -8.19682    2.00000
   37     -8.13665    2.00000
   38     -7.45325    2.00000
   39     -7.02779    2.00000
   40     -6.59475    2.00000
   41     -6.33716    2.00000
   42     -6.12153    2.00000
   43     -5.92240    2.00000
   44     -5.76912    2.00000
   45     -5.13351    1.99856
   46     -4.69016    1.88570
   47     -4.62681    1.79499
   48     -4.24369    0.31913
   49     -3.69645    0.00159
   50     -3.31322    0.00003
   51     -2.80419    0.00000
   52     -2.78050    0.00000
   53     -2.23090    0.00000
   54     -1.69337    0.00000
   55     -1.15324    0.00000
   56     -1.11015    0.00000
   57     -0.36227    0.00000
   58     -0.08803    0.00000
   59      0.06706    0.00000
[...]
   83      8.71730    0.00000
   84      8.74635    0.00000
   85      9.11225    0.00000
   86      9.19697    0.00000
   87      9.28063    0.00000
   88      9.34026    0.00000
   89      9.48097    0.00000
   90      9.58956    0.00000
   91      9.67432    0.00000
   92      9.85151    0.00000
   93     10.03756    0.00000
   94     10.26090    0.00000
   95     10.39659    0.00000
   96     10.43950    0.00000
   97     10.48427    0.00000

Forces in eV/Ang:
  0 C    -0.02405    0.00415    0.01097
  1 C    -0.01069   -0.00050   -0.01063
  2 C     0.01249    0.00296   -0.02713
  3 C    -0.02403   -0.00206    0.05949
  4 C     0.00159    0.05068    0.01144
  5 C     0.04936   -0.02686    0.03168
  6 C     0.00453   -0.01828   -0.00294
  7 C    -0.00377    0.03780   -0.03180
  8 C    -0.01051   -0.01837   -0.06966
  9 C    -0.03949    0.01812    0.00100
 10 C     0.03038   -0.01632    0.00406
 11 C    -0.05245   -0.01953   -0.00102
 12 C     0.01815    0.02060    0.02687
 13 C     0.00750   -0.00128    0.01829
 14 C     0.04369    0.00861   -0.01307
 15 C     0.01015    0.01852    0.00315
 16 C     0.04901   -0.02774   -0.00632
 17 C     0.02432   -0.01053   -0.00321
 18 C     0.01959   -0.01037   -0.02970
 19 C    -0.01551   -0.00754   -0.00235
 20 C     0.01376   -0.00441    0.01975
 21 C    -0.01300   -0.00554   -0.01465
 22 C     0.00236   -0.01017   -0.01339
 23 C     0.03907   -0.01639    0.01620