User:   esb@s65n11.grendel.cscaa.dk
Date:   Thu Nov  9 12:15:02 2017
Arch:   x86_64
Pid:    78446
Python: 2.7.13
gpaw:   /home/esb/DFT/gpaw_git/gpaw
_gpaw:  /home/esb/DFT/gpaw_git/build/bin.linux-x86_64-2.7/gpaw-python
ase:    /home/esb/DFT/ase_git/ase (version 3.15.0b1)
numpy:  /comm/swstack/core/python/2.7.13/lib/python2.7/site-packages/numpy (version 1.13.3)
scipy:  /comm/swstack/core/python/2.7.13/lib/python2.7/site-packages/scipy (version 0.19.1)
units:  Angstrom and eV
cores:  16
Extra parameters: {'blacs': True}

Input parameters:
  basis: dzp
  gpts: [80 80 48]
  kpts: [1 1 1]
  maxiter: 99
  mixer: {backend: pulay,
          beta: 0.05,
          method: separate,
          nmaxold: 5,
          weight: 75}
  mode: lcao
  nbands: -50
  occupations: {name: fermi-dirac,
                width: 0.1}
  poissonsolver: {eps: 1e-07,
                  name: fd,
                  nn: 3,
                  relax: GS}
  xc: PBE

System changes: positions, numbers, cell, pbc, initial_charges, initial_magmoms

Initialize ...

C-setup:
  name: Carbon
  id: 4aa54d4b901d75f77cc0ea3eec22967b
  Z: 6
  valence: 4
  core: 2
  charge: 0.0
  file: /home/esb/DFT/gpaw-setups-0.8.7929/C.PBE.gz
  cutoffs: 0.64(comp), 1.14(filt), 1.14(core), lmax=2
  valence states:
                energy  radius
    2s(2.00)   -13.751   0.635
    2p(2.00)    -5.284   0.635
    *s          13.461   0.635
    *p          21.927   0.635
    *d           0.000   0.635

  LCAO basis set for C:
    Name: dzp
    File: /home/esb/DFT/gpaw-setups-0.8.7929/C.dzp.basis.gz
    Number of radial functions: 5
    Number of spherical harmonics: 13
      l=0, rc=5.5469 Bohr: 2s-sz confined orbital
      l=1, rc=6.6719 Bohr: 2p-sz confined orbital
      l=0, rc=3.0312 Bohr: 2s-dz split-valence wave
      l=1, rc=3.7500 Bohr: 2p-dz split-valence wave
      l=2, rc=6.6719 Bohr: d-type Gaussian polarization

Reference energy: -24663.074771

Spin-paired calculation

Occupation numbers:
  Fermi-Dirac: width=0.1000 eV

Convergence criteria:
  Maximum total energy change: 0.0005 eV / electron
  Maximum integral of absolute density change: 0.0001 electrons
  Maximum integral of absolute eigenstate change: 4e-08 eV^2
  Maximum number of iterations: 99

Symmetries present (total): 1

  ( 1  0  0)
  ( 0  1  0)
  ( 0  0  1)

1 k-point (Gamma)
1 k-point in the irreducible part of the Brillouin zone
       k-points in crystal coordinates                weights
   0:     0.00000000    0.00000000    0.00000000          1/1

Wave functions: LCAO
  Diagonalizer: Serial LAPACK
  Atomic Correction: dense with blas
  Datatype: float
  Eigensolver: None

LCAO using direct dense diagonalizer

Densities:
  Coarse grid: 80*80*48 grid
  Fine grid: 160*160*96 grid
  Total Charge: 0.000000

Density mixing:
  Method: separate
  Backend: pulay
  Linear mixing parameter: 0.05
  Mixing with 5 old densities
  Damping of long wave oscillations: 75

Hamiltonian:
  XC and Coulomb potentials evaluated on a 160*160*96 grid
  Using the PBE Exchange-Correlation functional
  Interpolation: tri-quintic (5. degree polynomial)
  Poisson solver: Gauss-Seidel solver with 6 multi-grid levels
    Coarsest grid: 5 x 5 x 3 points
    Stencil: 6*3+1=19 point O(h^6) finite-difference Laplacian
    Max iterations: 1000
    Tolerance: 1.000000e-07

Total number of cores used: 16
Domain decomposition: 2 x 4 x 2

Number of atoms: 24
Number of atomic orbitals: 312
Number of bands in calculation: 98
Bands to converge: occupied states only
Number of valence electrons: 96

... initialized

Initializing position-dependent things.

Density initialized from atomic densities
  /        |    C     C   C                       |
 *         |  C     C       C                     |
 |         | C       C    C    C                  |
 |         .---C---C-C-----C----C-----------------.
 |        /    C     C  C     C  C               /
 |       /       C      C  C  C                 /

Positions:
   0 C      3.243281    6.174632    5.664165
   1 C      3.478645    7.461403    5.782887
   2 C      3.962109    8.671975    5.906811
   3 C      4.691322    4.070902    5.432875
   4 C      4.483426    5.475644    5.523497
   5 C      5.713535    3.344428    5.326439
   6 C      5.378194    8.712916    5.802876
   7 C      5.816388    6.119330    5.454633
   8 C      6.237274    7.531132    5.555899
   9 C      7.023028    3.875364    5.245263
  10 C      6.241915    9.843237    5.865144
  11 C      7.020796    5.340016    5.298345
  12 C     11.022087    7.563475    3.460211
  13 C     10.481532    8.711712    3.798771
  14 C      9.770033    9.708933    4.261263
  15 C     10.423703    5.094372    3.808731
  16 C     10.184815    6.493581    3.908132
  17 C      9.786676    4.071655    4.172404
  18 C      8.573449    9.283403    4.897570
  19 C      8.878933    6.666122    4.586928
  20 C      8.141235    7.871069    5.016454
  21 C      8.529458    4.144324    4.818449
  22 C      7.552736   10.077273    5.493751
  23 C      8.088022    5.530561    4.995969

Unit cell:
           periodic     x           y           z      points  spacing
  1. axis:    yes   16.000000    0.000000    0.000000    80     0.2000
  2. axis:    yes    0.000000   16.000000    0.000000    80     0.2000
  3. axis:    yes    0.000000    0.000000   10.000000    48     0.2083

Effective grid spacing dv^(1/3) = 0.2027

                     log10-error:    total        iterations:
           time      wfs    density  energy       fermi  poisson
iter:   1  12:15:03          +inf  -183.096661    2      6
iter:   2  12:15:04         -0.89  -182.058852    3      3
iter:   3  12:15:04         -0.92  -179.378709    35     4
iter:   4  12:15:05         -1.15  -178.815747    4      2
iter:   5  12:15:06         -1.20  -178.793720    32     3
iter:   6  12:15:06         -1.46  -178.588322    3      3
iter:   7  12:15:07         -1.58  -178.343013    4      3
iter:   8  12:15:08         -1.79  -178.333714    3      2
iter:   9  12:15:08         -1.85  -178.227574    4      3
iter:  10  12:15:09         -2.19  -178.230512    2      2
iter:  11  12:15:09         -2.28  -178.215284    3      2
iter:  12  12:15:10         -2.38  -178.219732    3      2
iter:  13  12:15:11         -2.54  -178.219374    3      2
iter:  14  12:15:11         -2.64  -178.217773    3      2
iter:  15  12:15:12         -2.72  -178.218074    3      2
iter:  16  12:15:12         -2.82  -178.218144    2      2
iter:  17  12:15:13         -3.32  -178.214725    2      1
iter:  18  12:15:13         -3.38  -178.213920    2      1
iter:  19  12:15:14         -3.49  -178.216193    2      1
iter:  20  12:15:15         -3.58  -178.215449    2      1
iter:  21  12:15:15         -3.74  -178.213263    2      1
iter:  22  12:15:16         -3.79  -178.209090    2      1
iter:  23  12:15:16         -4.02  -178.212362    2      1

Converged after 23 iterations.

Dipole moment: (0.135387, -0.615517, 0.082809) |e|*Ang

Energy contributions relative to reference atoms: (reference = -24663.074771)

Kinetic:       +124.480160
Potential:     -127.820503
External:        +0.000000
XC:            -177.722891
Entropy (-ST):   -0.223359
Local:           +2.962552
Free energy:   -178.324041
Extrapolated:  -178.212362

Fermi level: -4.56478

 Band  Eigenvalues  Occupancy
    0    -24.34614    2.00000
    1    -21.85972    2.00000
    2    -21.67959    2.00000
    3    -20.85694    2.00000
    4    -20.78371    2.00000
    5    -19.89506    2.00000
    6    -19.68474    2.00000
    7    -19.50989    2.00000
    8    -18.85461    2.00000
    9    -18.13362    2.00000
   10    -17.44751    2.00000
   11    -16.79214    2.00000
   12    -16.43739    2.00000
   13    -16.31994    2.00000
   14    -15.52511    2.00000
   15    -15.39920    2.00000
   16    -13.94170    2.00000
   17    -13.92833    2.00000
   18    -12.95350    2.00000
   19    -12.61141    2.00000
   20    -12.56154    2.00000
   21    -12.30840    2.00000
   22    -11.80781    2.00000
   23    -11.45920    2.00000
   24    -11.41769    2.00000
   25    -10.88706    2.00000
   26    -10.67317    2.00000
   27    -10.53384    2.00000
   28     -9.82309    2.00000
   29     -9.71779    2.00000
   30     -9.55982    2.00000
   31     -8.66122    2.00000
   32     -8.65236    2.00000
   33     -8.54879    2.00000
   34     -8.54273    2.00000
   35     -7.80152    2.00000
   36     -7.36870    2.00000
   37     -7.24844    2.00000
   38     -7.21708    2.00000
   39     -7.14529    2.00000
   40     -6.93875    2.00000
   41     -6.65433    2.00000
   42     -6.42600    2.00000
   43     -5.72526    1.99998
   44     -5.63468    1.99995
   45     -5.01763    1.97864
   46     -4.88861    1.92450
   47     -4.74438    1.71533
   48     -4.42029    0.38159
   49     -3.19375    0.00000
   50     -3.15364    0.00000
   51     -2.99880    0.00000
   52     -2.89805    0.00000
   53     -2.79118    0.00000
   54     -2.45734    0.00000
   55     -2.20167    0.00000
   56     -1.32783    0.00000
   57     -1.27280    0.00000
   58     -0.84135    0.00000
   59     -0.19745    0.00000
[...]
   83      8.82617    0.00000
   84      8.84158    0.00000
   85      9.18604    0.00000
   86      9.34410    0.00000
   87      9.46618    0.00000
   88      9.47329    0.00000
   89      9.50589    0.00000
   90      9.59790    0.00000
   91      9.64170    0.00000
   92     10.05145    0.00000
   93     10.16340    0.00000
   94     10.22250    0.00000
   95     10.30294    0.00000
   96     10.39563    0.00000
   97     10.43700    0.00000

Forces in eV/Ang:
  0 C     0.42729   -0.25254   -0.10773
  1 C    -0.19486    0.35040    0.12605
  2 C    -0.31442   -0.38102   -0.04414
  3 C    -1.25378    1.31067    0.34528
  4 C    -1.12581   -1.25959    0.10733
  5 C     2.90955   -0.75921   -0.43213
  6 C     1.87028    0.65661    0.06706
  7 C     2.32903    2.57084    0.34089
  8 C     0.81124   -0.77222   -1.08307
  9 C    -0.94676   -0.73449   -0.10280
 10 C     6.46056    1.17671   -1.95173
 11 C   -27.33387   -4.77034    7.42629
 12 C    -0.32236   -0.40594    0.06953
 13 C     0.10835    0.35855    0.03645
 14 C     0.34232   -0.27447   -0.23112
 15 C     0.75137    1.67013   -0.23722
 16 C     1.35348   -0.77188   -0.58463
 17 C    -2.30580   -1.67723    1.03546
 18 C    -1.69949    0.01119    1.07756
 19 C    -2.50191    1.71139    1.72641
 20 C    -0.92463   -1.09017   -0.61457
 21 C     0.95657   -0.39016   -0.64972
 22 C    -6.51989   -1.14443    1.69258
 23 C    27.14229    4.96056   -8.00456

System changes: positions

[...]

Density initialized from wave functions
  /        |    C     C   C                       |
 *         |  C     C       C                     |
 |         | C       C    C    C                  |
 |         .---C---C-C-----C----C-----------------.
 |        /    C     C  C     C  C               /
 |       /       C      C  C  C                 /

[...]

Density initialized from wave functions
  /        |    C      C  C                       |
 *         |  C     C       C                     |
 |         | C       C    C    C                  |
 |         .---C---C-C-----C----C-----------------.
 |        /    C     C  C     C  C               /
 |       /       C      C  C  C                 /

[...]

Density initialized from wave functions
  /        |           C  C                       |
 *         |  C C   C       C                     |
 |         | C       C   C     C                  |
 |         .---C---C-C-----C----C-----------------.
 |        /    C     C   C    C  C               /
 |       /       C      C  C  C                 /

[...]

Density initialized from wave functions
  /        |           C  C                       |
 *         |  C C   C      C                      |
 |         | C       C   C     C                  |
 |         .---C---C-C-----C----C-----------------.
 |        /    C     C   C    C  C               /
 |       /       C      C  C  C                 /

[...]

Density initialized from wave functions
  /        |           C  C                       |
 *         |  C C   C      C                      |
 |         | C       C   C     C                  |
 |         .---C---C-C-----C----C-----------------.
 |        /    C     C   C    C  C               /
 |       /       C      C     C                 /
 |      /                  C                   /

[...]

System changes: positions

Initializing position-dependent things.

Density initialized from wave functions
  /        |           C  C                       |
 *         |  C C   C      C                      |
 |         | C       C   C    C                   |
 |         .---C---C-C-----C----C-----------------.
 |        /    C     C   C    C  C               /
 |       /       C      C     C                 /
 |      /                  C                   /

Positions:
   0 C      3.248115    6.173061    5.678942
   1 C      3.541526    7.461541    5.806546
   2 C      4.139485    8.600906    5.878238
   3 C      4.713855    4.088358    5.453977
   4 C      4.490512    5.479256    5.555181
   5 C      5.729686    3.330675    5.257069
   6 C      5.546228    8.745955    5.746408
   7 C      5.871901    6.195653    5.485230
   8 C      6.428182    7.587924    5.398955
   9 C      7.015577    3.873881    5.199539
  10 C      6.286116    9.938938    5.835507
  11 C      6.907187    5.294108    5.399270
  12 C     11.022596    7.554988    3.464023
  13 C     10.443646    8.687208    3.848798
  14 C      9.635874    9.577192    4.312122
  15 C     10.411348    5.102624    3.839672
  16 C     10.192352    6.494410    3.937669
  17 C      9.742464    4.045116    4.123142
  18 C      8.401299    9.254007    4.935599
  19 C      8.824363    6.720757    4.644570
  20 C      7.891036    7.848385    4.983341
  21 C      8.511751    4.139314    4.776018
  22 C      7.476918   10.153929    5.495915
  23 C      8.243794    5.531063    5.018134

Unit cell:
           periodic     x           y           z      points  spacing
  1. axis:    yes   16.000000    0.000000    0.000000    80     0.2000
  2. axis:    yes    0.000000   16.000000    0.000000    80     0.2000
  3. axis:    yes    0.000000    0.000000   10.000000    48     0.2083

Effective grid spacing dv^(1/3) = 0.2027

                     log10-error:    total        iterations:
           time      wfs    density  energy       fermi  poisson
iter:   1  12:17:26          +inf  -183.218036    3      4
iter:   2  12:17:27         -2.96  -183.216598    2      1
iter:   3  12:17:27         -3.08  -183.214034    3      1
iter:   4  12:17:28         -3.40  -183.213619    2      1
iter:   5  12:17:28         -3.62  -183.213079    2      1
iter:   6  12:17:29         -3.70  -183.213238    2      1
iter:   7  12:17:29         -3.91  -183.213353    2      1
iter:   8  12:17:30         -4.04  -183.213090    2      1

Converged after 8 iterations.

Dipole moment: (0.102066, -0.336912, 0.153610) |e|*Ang

Energy contributions relative to reference atoms: (reference = -24663.074771)

Kinetic:       +115.407871
Potential:     -122.732687
External:        +0.000000
XC:            -178.772432
Entropy (-ST):   -0.242027
Local:           +3.005172
Free energy:   -183.334104
Extrapolated:  -183.213090

Fermi level: -4.48135

 Band  Eigenvalues  Occupancy
    0    -23.39408    2.00000
    1    -21.91281    2.00000
    2    -21.71076    2.00000
    3    -20.76093    2.00000
    4    -20.63684    2.00000
    5    -20.03899    2.00000
    6    -19.59705    2.00000
    7    -19.45434    2.00000
    8    -18.72963    2.00000
    9    -18.41431    2.00000
   10    -17.42024    2.00000
   11    -17.15558    2.00000
   12    -16.27897    2.00000
   13    -16.24673    2.00000
   14    -15.28054    2.00000
   15    -15.03870    2.00000
   16    -14.41741    2.00000
   17    -13.95389    2.00000
   18    -12.97927    2.00000
   19    -12.64886    2.00000
   20    -12.34032    2.00000
   21    -11.94851    2.00000
   22    -11.56435    2.00000
   23    -11.38535    2.00000
   24    -10.94687    2.00000
   25    -10.90736    2.00000
   26    -10.62940    2.00000
   27    -10.59387    2.00000
   28     -9.90125    2.00000
   29     -9.70245    2.00000
   30     -9.55712    2.00000
   31     -9.24298    2.00000
   32     -9.12988    2.00000
   33     -8.51932    2.00000
   34     -8.46935    2.00000
   35     -7.85303    2.00000
   36     -7.22667    2.00000
   37     -7.19742    2.00000
   38     -7.08484    2.00000
   39     -7.04840    2.00000
   40     -6.71353    2.00000
   41     -6.53121    2.00000
   42     -6.38552    2.00000
   43     -6.12665    2.00000
   44     -6.07867    2.00000
   45     -5.13947    1.99723
   46     -4.78486    1.90827
   47     -4.63148    1.63553
   48     -4.36023    0.45896
   49     -3.18044    0.00000
   50     -3.17107    0.00000
   51     -2.94849    0.00000
   52     -2.80901    0.00000
   53     -2.74762    0.00000
   54     -2.08097    0.00000
   55     -1.78265    0.00000
   56     -1.26877    0.00000
   57     -1.19796    0.00000
   58     -0.24254    0.00000
   59     -0.12567    0.00000
[...]
   83      9.04418    0.00000
   84      9.10540    0.00000
   85      9.14820    0.00000
   86      9.28072    0.00000
   87      9.49269    0.00000
   88      9.49495    0.00000
   89      9.57155    0.00000
   90      9.61784    0.00000
   91      9.87933    0.00000
   92     10.11079    0.00000
   93     10.25799    0.00000
   94     10.31548    0.00000
   95     10.34649    0.00000
   96     10.37048    0.00000
   97     10.50137    0.00000

Forces in eV/Ang:
  0 C     0.01151    0.00516    0.01926
  1 C     0.01446    0.06499    0.02622
  2 C     0.00646    0.02225   -0.01688
  3 C     0.01393   -0.00234   -0.05415
  4 C    -0.05431   -0.06256    0.02044
  5 C     0.02109   -0.01878   -0.03381
  6 C     0.01710    0.03177   -0.00859
  7 C     0.02791    0.02646    0.02713
  8 C    -0.03664    0.03671    0.01492
  9 C    -0.01251    0.00364   -0.00507
 10 C     0.05508   -0.02639   -0.05808
 11 C     0.05439   -0.00290    0.04639
 12 C    -0.00255    0.01651    0.01212
 13 C     0.02073    0.01823   -0.00302
 14 C    -0.04275    0.01627    0.01263
 15 C    -0.05965   -0.07064   -0.03133
 16 C     0.07743   -0.03148   -0.02696
 17 C     0.00540   -0.00185   -0.00670
 18 C    -0.00657    0.02073   -0.00340
 19 C    -0.01900    0.01169    0.05786
 20 C     0.01872    0.03544    0.01109
 21 C    -0.01126    0.00764   -0.00351
 22 C    -0.06431   -0.04655   -0.03078
 23 C    -0.01738    0.00159    0.05785