User:   esb@s65n74.grendel.cscaa.dk
Date:   Thu Nov  9 10:22:42 2017
Arch:   x86_64
Pid:    99488
Python: 2.7.13
gpaw:   /home/esb/DFT/gpaw_git/gpaw
_gpaw:  /home/esb/DFT/gpaw_git/build/bin.linux-x86_64-2.7/gpaw-python
ase:    /home/esb/DFT/ase_git/ase (version 3.15.0b1)
numpy:  /comm/swstack/core/python/2.7.13/lib/python2.7/site-packages/numpy (version 1.13.3)
scipy:  /comm/swstack/core/python/2.7.13/lib/python2.7/site-packages/scipy (version 0.19.1)
units:  Angstrom and eV
cores:  16
Extra parameters: {'blacs': True}

Input parameters:
  basis: dzp
  gpts: [80 80 48]
  kpts: [1 1 1]
  maxiter: 99
  mixer: {backend: pulay,
          beta: 0.05,
          method: separate,
          nmaxold: 5,
          weight: 75}
  mode: lcao
  nbands: -50
  occupations: {name: fermi-dirac,
                width: 0.1}
  poissonsolver: {eps: 1e-07,
                  name: fd,
                  nn: 3,
                  relax: GS}
  xc: PBE

System changes: positions, numbers, cell, pbc, initial_charges, initial_magmoms

Initialize ...

C-setup:
  name: Carbon
  id: 4aa54d4b901d75f77cc0ea3eec22967b
  Z: 6
  valence: 4
  core: 2
  charge: 0.0
  file: /home/esb/DFT/gpaw-setups-0.8.7929/C.PBE.gz
  cutoffs: 0.64(comp), 1.14(filt), 1.14(core), lmax=2
  valence states:
                energy  radius
    2s(2.00)   -13.751   0.635
    2p(2.00)    -5.284   0.635
    *s          13.461   0.635
    *p          21.927   0.635
    *d           0.000   0.635

  LCAO basis set for C:
    Name: dzp
    File: /home/esb/DFT/gpaw-setups-0.8.7929/C.dzp.basis.gz
    Number of radial functions: 5
    Number of spherical harmonics: 13
      l=0, rc=5.5469 Bohr: 2s-sz confined orbital
      l=1, rc=6.6719 Bohr: 2p-sz confined orbital
      l=0, rc=3.0312 Bohr: 2s-dz split-valence wave
      l=1, rc=3.7500 Bohr: 2p-dz split-valence wave
      l=2, rc=6.6719 Bohr: d-type Gaussian polarization

Reference energy: -24663.074771

Spin-paired calculation

Occupation numbers:
  Fermi-Dirac: width=0.1000 eV

Convergence criteria:
  Maximum total energy change: 0.0005 eV / electron
  Maximum integral of absolute density change: 0.0001 electrons
  Maximum integral of absolute eigenstate change: 4e-08 eV^2
  Maximum number of iterations: 99

Symmetries present (total): 1

  ( 1  0  0)
  ( 0  1  0)
  ( 0  0  1)

1 k-point (Gamma)
1 k-point in the irreducible part of the Brillouin zone
       k-points in crystal coordinates                weights
   0:     0.00000000    0.00000000    0.00000000          1/1

Wave functions: LCAO
  Diagonalizer: Serial LAPACK
  Atomic Correction: dense with blas
  Datatype: float
  Eigensolver: None

LCAO using direct dense diagonalizer

Densities:
  Coarse grid: 80*80*48 grid
  Fine grid: 160*160*96 grid
  Total Charge: 0.000000

Density mixing:
  Method: separate
  Backend: pulay
  Linear mixing parameter: 0.05
  Mixing with 5 old densities
  Damping of long wave oscillations: 75

Hamiltonian:
  XC and Coulomb potentials evaluated on a 160*160*96 grid
  Using the PBE Exchange-Correlation functional
  Interpolation: tri-quintic (5. degree polynomial)
  Poisson solver: Gauss-Seidel solver with 6 multi-grid levels
    Coarsest grid: 5 x 5 x 3 points
    Stencil: 6*3+1=19 point O(h^6) finite-difference Laplacian
    Max iterations: 1000
    Tolerance: 1.000000e-07

Total number of cores used: 16
Domain decomposition: 2 x 4 x 2

Number of atoms: 24
Number of atomic orbitals: 312
Number of bands in calculation: 98
Bands to converge: occupied states only
Number of valence electrons: 96

... initialized

Initializing position-dependent things.

Density initialized from atomic densities
  /        |        C  C     C  C                 |
 *         |   C C        C      C                |
 |         |  C           C   CC                  |
 |         .------------CC-CC-C-------------------.
 |        /     CCC  C                           /

Positions:
   0 C      9.949949    7.491084    4.585505
   1 C      8.154275    8.995749    4.521513
   2 C      6.301023   10.443037    5.223881
   3 C      7.695759   10.379813    4.989030
   4 C      4.763503    5.073603    4.772189
   5 C     10.596033    9.708192    4.865049
   6 C      8.751582   11.266791    5.208853
   7 C      9.989359   10.902145    5.060117
   8 C      7.277075    7.948014    4.297466
   9 C      9.530624    8.761304    4.477195
  10 C      5.126119   10.011067    5.330030
  11 C      5.564430    3.946225    5.050687
  12 C      6.514374    6.932551    4.230498
  13 C      5.650033    5.950698    4.196641
  14 C      4.075351    9.228465    5.358003
  15 C      3.567884    8.089061    5.595037
  16 C      3.509808    6.783443    5.873978
  17 C      8.562908    4.459614    6.259982
  18 C     10.731988    5.840759    6.458928
  19 C      9.540594    5.382812    5.854151
  20 C     11.284718    6.998066    6.380354
  21 C      9.136253    6.350992    4.784174
  22 C     10.963267    8.034841    5.513893
  23 C      3.951991    5.618181    6.124947

Unit cell:
           periodic     x           y           z      points  spacing
  1. axis:    yes   16.000000    0.000000    0.000000    80     0.2000
  2. axis:    yes    0.000000   16.000000    0.000000    80     0.2000
  3. axis:    yes    0.000000    0.000000   10.000000    48     0.2083

Effective grid spacing dv^(1/3) = 0.2027

                     log10-error:    total        iterations:
           time      wfs    density  energy       fermi  poisson
iter:   1  10:22:44          +inf  -176.433846    2      6
iter:   2  10:22:44         -0.89  -175.388235    3      3
iter:   3  10:22:45         -0.92  -173.724583    5      4
iter:   4  10:22:45         -1.06  -173.901601    2      2
iter:   5  10:22:46         -1.05  -172.586923    4      3
iter:   6  10:22:46         -1.18  -172.415030    33     3
iter:   7  10:22:47         -1.39  -172.075649    4      3
iter:   8  10:22:47         -1.47  -171.724491    4      3
iter:   9  10:22:48         -1.67  -171.710389    2      2
iter:  10  10:22:48         -1.77  -171.664114    3      2
iter:  11  10:22:49         -1.87  -171.645169    3      3
iter:  12  10:22:49         -2.03  -171.647629    3      3
iter:  13  10:22:50         -2.20  -171.645075    3      2
iter:  14  10:22:50         -2.26  -171.642743    2      2
iter:  15  10:22:51         -2.32  -171.643001    3      2
iter:  16  10:22:51         -2.50  -171.638689    3      2
iter:  17  10:22:52         -2.69  -171.634775    2      2
iter:  18  10:22:52         -2.86  -171.635445    2      1
iter:  19  10:22:53         -2.91  -171.631518    2      1
iter:  20  10:22:53         -2.99  -171.633968    2      2
iter:  21  10:22:54         -3.14  -171.634528    2      2
iter:  22  10:22:54         -3.29  -171.631731    2      1
iter:  23  10:22:55         -3.35  -171.619806    2      1
iter:  24  10:22:55         -3.66  -171.631846    2      1
iter:  25  10:22:56         -3.81  -171.633604    2      1
iter:  26  10:22:56         -3.89  -171.630680    2      1
iter:  27  10:22:57         -3.97  -171.631810    2      1
iter:  28  10:22:57         -4.08  -171.633305    2      1

Converged after 28 iterations.

Dipole moment: (0.232502, 0.633187, -0.279168) |e|*Ang

Energy contributions relative to reference atoms: (reference = -24663.074771)

Kinetic:       +112.510504
Potential:     -118.435813
External:        +0.000000
XC:            -168.506191
Entropy (-ST):   -0.276477
Local:           +2.936433
Free energy:   -171.771544
Extrapolated:  -171.633305

Fermi level: -4.38107

 Band  Eigenvalues  Occupancy
    0    -23.36520    2.00000
    1    -21.61098    2.00000
    2    -21.03492    2.00000
    3    -20.65338    2.00000
    4    -20.29257    2.00000
    5    -20.26902    2.00000
    6    -19.31946    2.00000
    7    -19.04102    2.00000
    8    -18.86655    2.00000
    9    -17.91550    2.00000
   10    -17.66675    2.00000
   11    -17.03578    2.00000
   12    -16.39843    2.00000
   13    -16.09842    2.00000
   14    -15.44803    2.00000
   15    -15.32810    2.00000
   16    -14.13167    2.00000
   17    -13.89748    2.00000
   18    -13.43208    2.00000
   19    -13.11889    2.00000
   20    -12.39574    2.00000
   21    -12.05840    2.00000
   22    -11.87007    2.00000
   23    -11.13469    2.00000
   24    -10.84169    2.00000
   25    -10.56233    2.00000
   26     -9.89646    2.00000
   27     -9.46153    2.00000
   28     -9.38309    2.00000
   29     -9.06135    2.00000
   30     -8.95105    2.00000
   31     -8.82339    2.00000
   32     -8.26875    2.00000
   33     -8.18002    2.00000
   34     -8.06502    2.00000
   35     -7.42796    2.00000
   36     -7.31125    2.00000
   37     -7.02186    2.00000
   38     -6.92070    2.00000
   39     -6.80661    2.00000
   40     -6.41773    2.00000
   41     -6.29688    2.00000
   42     -5.98737    2.00000
   43     -5.57756    1.99999
   44     -5.48500    1.99997
   45     -5.12695    1.99885
   46     -4.96248    1.99405
   47     -4.44218    1.29641
   48     -4.31692    0.68984
   49     -3.89649    0.01560
   50     -3.78697    0.00525
   51     -3.30095    0.00004
   52     -3.17504    0.00001
   53     -2.83963    0.00000
   54     -2.65061    0.00000
   55     -2.33410    0.00000
   56     -2.25003    0.00000
   57     -1.62202    0.00000
   58     -1.02910    0.00000
   59     -1.01466    0.00000
[...]
   83      8.66039    0.00000
   84      8.71543    0.00000
   85      8.84952    0.00000
   86      9.17976    0.00000
   87      9.24022    0.00000
   88      9.27723    0.00000
   89      9.42890    0.00000
   90      9.53565    0.00000
   91      9.60969    0.00000
   92      9.70978    0.00000
   93      9.87958    0.00000
   94      9.93416    0.00000
   95     10.03072    0.00000
   96     10.15599    0.00000
   97     10.30620    0.00000

Forces in eV/Ang:
  0 C     0.81396   -4.61268    1.06834
  1 C    -1.42244    2.42815   -0.18918
  2 C     0.55788    0.44764   -0.19052
  3 C    -1.03322   -0.75256   -0.11965
  4 C     0.18985   -0.84914    3.19746
  5 C    -0.03467   -3.88235    0.55641
  6 C     1.05312    0.00654   -0.70395
  7 C    -0.92380    0.67474    1.32663
  8 C     1.09286    0.25039    0.20839
  9 C    -2.10710    4.32250   -1.69546
 10 C     1.63482    1.10889   -0.25438
 11 C    -0.55455    1.08157   -1.10683
 12 C    -1.47353   -0.57427   -0.41155
 13 C     0.80080   -0.32913    0.12198
 14 C    -1.79720   -1.20278    0.41583
 15 C     0.15543    0.31627    0.30864
 16 C    -0.93080    1.32245    0.12005
 17 C     0.44095    0.58037   -0.60153
 18 C     0.72179    0.05168    1.06219
 19 C    -1.37081    0.22129   -1.23217
 20 C     1.32222    1.14880    0.99347
 21 C     1.35039    0.10980    0.18819
 22 C     1.02519   -0.09791   -0.88997
 23 C     0.45403   -1.69121   -2.13532

System changes: positions

[...]

Density initialized from wave functions
  /        |        C  C     C  C                 |
 *         |   C C        C      C                |
 |         |  C           C   CC                  |
 |         .------------CC-CC-C-------------------.
 |        /     CC C C                           /

[...]

Density initialized from wave functions
[...]
  /        |    C  C         C C                  |
 *         | CC       C   C    C CCC              |
 |         | C           C  C C C                 |
 |         .----------C------C--------------------.
 |        /   C     C                            /
 |       /       C                              /
 |      /      C                               /

[...]

Density initialized from wave functions
  /        |  C C  C         C C                  |
 *         | C        C  C     C C C              |
 |         | C           C  C C C                 |
 |         .----------C------C--------------------.
 |        /   C     C        C                   /
 |       /       C                              /
 |      /      C                               /

[...]

Density initialized from wave functions
  /        |  C C  C         C C                  |
 *         | C        C  C     C C CC             |
 |         | C           C  C C C                 |
 |         .----------C------C--------------------.
 |        /   C     C        C                   /
 |       /       C                              /
 |      /      C                               /

[...]

Density initialized from wave functions
  /        |    C  C         C C                  |
 *         | CC       C  C     C C CC             |
 |         | C           C  C C C                 |
 |         .----------C------C--------------------.
 |        /   C     C        C                   /
 |       /       C                              /
 |      /      C                               /

[...]

Density initialized from wave functions
  /        |    C  C         C C                  |
 *         | CC       C  C     C C CC             |
 |         | C           C  C C C                 |
 |         .----------C------C--------------------.
 |        /   C     C        C                   /
 |       /       C                              /
 |      /      C                               /

[...]

Density initialized from wave functions
  /        |    C  C         C C                  |
 *         |C C       C  C     C C CC             |
 |         | C           C  C C C                 |
 |         .----------C------C--------------------.
 |        /   C     C        C                   /
 |       /       C                              /
 |      /      C                               /

[...]

Density initialized from wave functions
  /        |    C  C         C C                  |
 *         |C C       C  C     C C CC             |
 |         | C           C  C C C                 |
 |         .----------C------C--------------------.
 |        /   C     C        C                   /
 |       /       C                              /
 |      /      C                               /

[...]

Density initialized from wave functions
  /        |    C  C         C C                  |
 *         |C C       C  C      CC CC             |
 |         | C           C  C C C                 |
 |         .----------C-------C-------------------.
 |        /   C     C        C                   /
 |       /       C                              /
 |      /      C                               /

[...]

Density initialized from wave functions
  /        |    C  C         C C                  |
 *         |C C       C  C      CC CC             |
 |         | C           C  C C C                 |
 |         .----------C-------C-------------------.
 |        /   C     C        C                   /
 |       /       C                              /
 |      /      C                               /

[...]

Density initialized from wave functions
  /        |    C  C         C C                  |
 *         |C C       C  C      CC CC             |
 |         |C            C  C C  C                |
 |         .----------C-------C-------------------.
 |        /   C  C  C         C                  /
 |      /      C                               /

[...]

Density initialized from wave functions
  /        |    C  C         C C                  |
 *         |C C       C  C      CC CC             |
 |         |C            C  C C  C                |
 |         .----------C-------C-------------------.
 |        /   C  C  C         C                  /
 |      /      C                               /

[...]

Density initialized from wave functions
  /        |    C  C         C C                  |
 *         |C C       C  C      CC CC             |
 |         |C            C  C C  C                |
 |         .----------C-------C-------------------.
 |        /   C  C  C                            /
 |      /      C                               /

[...]

Density initialized from wave functions
  /        |    C  C         C C                  |
 *         |C C       C  C      CC CC             |
 |         |             C  C C  C                |
 |         .C---------C-------C-------------------.
 |        /   C  C  C                            /
 |      /      C                               /

[...]

Density initialized from wave functions
  /        |    C  C         C C                  |
 *         |C C       C  C      CC CC             |
 |         |             C  C C  C                |
 |         .C---------C-------C-------------------.
 |        /  C   C  C                            /
 |      /     C                                /

[...]

Density initialized from wave functions
  /        |    C  C        C  C                  |
 *         |  C       C  C      CC  C             |
 |         |C            C  C C  C                |
 |         .C---------C-------C-------------------.
 |        /  C   C  C                            /
 |      /     C                                /

[...]

Density initialized from wave functions
  /        |    C  C        C  C                  |
 *         | C        C  C      CC  C             |
 |         |C            C   CC  C                |
 |         .C---------C-------C-------------------.
 |        /  C   C  C                            /
 |      /     C                                /

[...]

Density initialized from wave functions
  /        |    C  C        C  C                  |
 *         | C        C  C      CC  C             |
 |         |C            C   CC  C                |
 |         .C---------C-------C-------------------.
 |        /  C   C  C                            /
 |      /     C                                /

[...]

Density initialized from wave functions
  /        |    C  C        C  C                  |
 *         | C        C  C      CC  C             |
 |         |C            C   CC  C  C             |
 |         .C---------C-------C-------------------.
 |        /  C   C  C                            /
 |      /     C                                /

[...]

Density initialized from wave functions
  /        |    C  C        C  C                  |
 *         | C        C  C      CC  C             |
 |         |C            C   CC  C  C             |
 |         .C---------C-------C-------------------.
 |        /  C   C  C                            /
 |      /     C                                /

[...]

Density initialized from wave functions
  /        |    C  C        C  C                  |
 *         | C        C  C      CC  C             |
 |         C             C   CC  C  C             |
 |         .C---------C-------C-------------------.
 |        /  C   C  C                            /
 |      /     C                                /

[...]

Density initialized from wave functions
  /        |    C  C        C  C                  |
 *         | C        C  C      CC   C            |
 |         C             C   CC   C C             |
 |         .C---------C-------C-------------------.
 |        /  C   C  C                            /
 |      /     C                                /

[...]

Density initialized from wave functions
  /        |    C  C        C  C                  |
 *         | C        C  C      C C  C            |
 |         C             C   CC   C C             |
 |         .C---------C-------C-------------------.
 |        /  C   C  C                            /
 |      /     C                                /

[...]

Density initialized from wave functions
  /        |    C  C        C  C                  |
 *         | C        C  C      C C  C            |
 |         C             C   CC   C C             |
 |         .C---------C-------CC------------------.
 |        /  C   C  C                            /
 |      /     C                                /

[...]

Density initialized from wave functions
  /        |    C  C        C  C                  |
 *         | C        C  C      C C  C            |
 |         C             C   CC   C C             |
 |         .C---------C-------CC------------------.
 |        /  C   C  C                            /
 |      /     C                                /

[...]

Density initialized from wave functions
  /        |    C  C        C  C                  |
 *         | C        C  C      C C  C            |
 |         C             C   CC   C C             |
 |         .C-------C-C-------CC------------------.
 |        /  C   C                               /
 |      /     C                                /

[...]

Density initialized from wave functions
  /        |    C  C  C     C  C                  |
 *         | C           C      C C  C            |
 |         C             C   CC   C C             |
 |         .C-------C-C-------CC------------------.
 |        /  C   C                               /
 |      /     C                                /

[...]

Density initialized from wave functions
  /        |    C  C  C     C  C                  |
 *         | C           C      C C  C            |
 |         C             C   CC   C C             |
 |         .C-------C-C-------CC------------------.
 |        /  C   C                               /
 |      /     C                                /

[...]

Density initialized from wave functions
  /        |    C  C  C     C  C                  |
 *         | C           C      C C  C            |
 |         C             C   CC   C C             |
 |         C--------C-C--------C------------------.
 |        /  C   C                               /
 |      /     C                                /

[...]

Density initialized from wave functions
  /        |   C   C  C     C  C                  |
 *         | C           C      C C  C            |
 |         C             C   CC   C C             |
 |         C--------C-C-------CC------------------.
 |        /  C   C                               /
 |      /     C                                /

[...]

System changes: positions

Initializing position-dependent things.

Density initialized from wave functions
  /        |   C   C  C     C  C                  |
 *         | C           C      C C  C            |
 |         C             C   CC   C C             |
 |         C--------C-C--------C------------------.
 |        /  C   C                               /
 |      /     C                                /

Positions:
   0 C     10.266573    7.125904    5.367001
   1 C      7.842556    8.417070    4.977014
   2 C      5.983281   10.116845    5.200896
   3 C      7.361559    9.858405    5.071377
   4 C      3.568806    5.525501    4.539238
   5 C     10.214646    9.221243    5.299384
   6 C      8.444532   10.729330    5.133182
   7 C      9.699816   10.493096    5.244799
   8 C      6.864697    7.398944    4.779385
   9 C      9.206597    8.170340    5.122846
  10 C      4.749157   10.082691    5.394825
  11 C      4.297068    4.416717    3.949362
  12 C      6.007437    6.525083    4.551995
  13 C      4.973905    5.620462    4.348016
  14 C      3.427664    9.807729    5.560382
  15 C      2.665116    8.794555    5.544003
  16 C      2.181905    7.552800    5.341197
  17 C     11.050949    4.447935    5.848371
  18 C     12.741369    6.627147    6.067257
  19 C     12.019846    5.500403    5.978908
  20 C     12.610144    7.925479    5.933427
  21 C     10.616572    5.804899    5.573148
  22 C     11.268296    8.191220    5.555276
  23 C      2.651584    6.414339    5.018554

Unit cell:
           periodic     x           y           z      points  spacing
  1. axis:    yes   16.000000    0.000000    0.000000    80     0.2000
  2. axis:    yes    0.000000   16.000000    0.000000    80     0.2000
  3. axis:    yes    0.000000    0.000000   10.000000    48     0.2083

Effective grid spacing dv^(1/3) = 0.2027

                     log10-error:    total        iterations:
           time      wfs    density  energy       fermi  poisson
iter:   1  10:36:30          +inf  -180.832158    2      5
iter:   2  10:36:31         -3.08  -180.832110    2      1
iter:   3  10:36:31         -3.17  -180.832182    2      1
iter:   4  10:36:32         -3.43  -180.832664    2      1
iter:   5  10:36:32         -3.71  -180.831640    2      1
iter:   6  10:36:32         -3.69  -180.830991    2      1
iter:   7  10:36:33         -4.09  -180.831363    2      1

Converged after 7 iterations.

Dipole moment: (-0.017930, 0.659548, 0.085810) |e|*Ang

Energy contributions relative to reference atoms: (reference = -24663.074771)

Kinetic:       +107.345326
Potential:     -116.176134
External:        +0.000000
XC:            -174.966057
Entropy (-ST):   -0.037997
Local:           +2.984500
Free energy:   -180.850362
Extrapolated:  -180.831363

Fermi level: -4.33655

 Band  Eigenvalues  Occupancy
    0    -23.40907    2.00000
    1    -22.78291    2.00000
    2    -22.64549    2.00000
    3    -21.35625    2.00000
    4    -20.48587    2.00000
    5    -20.05334    2.00000
    6    -19.89786    2.00000
    7    -19.49647    2.00000
    8    -18.96545    2.00000
    9    -18.34621    2.00000
   10    -17.79546    2.00000
   11    -17.17762    2.00000
   12    -16.72931    2.00000
   13    -16.40909    2.00000
   14    -15.95714    2.00000
   15    -15.21262    2.00000
   16    -14.75754    2.00000
   17    -14.33810    2.00000
   18    -13.65049    2.00000
   19    -13.13416    2.00000
   20    -12.39563    2.00000
   21    -12.07944    2.00000
   22    -11.00074    2.00000
   23    -10.89871    2.00000
   24    -10.87146    2.00000
   25    -10.79339    2.00000
   26    -10.09841    2.00000
   27    -10.00331    2.00000
   28     -9.84108    2.00000
   29     -9.50694    2.00000
   30     -9.18470    2.00000
   31     -9.07915    2.00000
   32     -8.99818    2.00000
   33     -8.75784    2.00000
   34     -8.69216    2.00000
   35     -8.04437    2.00000
   36     -7.68474    2.00000
   37     -7.43082    2.00000
   38     -7.36899    2.00000
   39     -7.17181    2.00000
   40     -6.85156    2.00000
   41     -6.61446    2.00000
   42     -6.29542    2.00000
   43     -5.79276    2.00000
   44     -5.61429    1.99999
   45     -5.25990    1.99980
   46     -4.92971    1.99471
   47     -4.75668    1.97049
   48     -3.92405    0.03181
   49     -3.68987    0.00310
   50     -3.33495    0.00009
   51     -2.65156    0.00000
   52     -2.46592    0.00000
   53     -2.28561    0.00000
   54     -2.13958    0.00000
   55     -1.30986    0.00000
   56     -1.16861    0.00000
   57     -0.81473    0.00000
   58     -0.18238    0.00000
   59      0.15555    0.00000
[...]
   83      8.70582    0.00000
   84      8.82368    0.00000
   85      8.90446    0.00000
   86      9.07684    0.00000
   87      9.08590    0.00000
   88      9.17699    0.00000
   89      9.34528    0.00000
   90      9.54733    0.00000
   91      9.63349    0.00000
   92      9.76209    0.00000
   93      9.77304    0.00000
   94      9.84762    0.00000
   95     10.05454    0.00000
   96     10.06403    0.00000
   97     10.10540    0.00000

Forces in eV/Ang:
  0 C    -0.02300    0.06234   -0.02450
  1 C    -0.04601    0.00430    0.01783
  2 C     0.04769    0.00869   -0.02462
  3 C    -0.01644    0.02908    0.00450
  4 C    -0.03717    0.05224    0.01727
  5 C     0.02467    0.00516    0.02323
  6 C    -0.01631   -0.01512   -0.01851
  7 C     0.00939    0.04056    0.03114
  8 C     0.02936    0.05958    0.02268
  9 C    -0.01005    0.01049    0.04350
 10 C     0.01381    0.02634    0.00026
 11 C     0.03312   -0.09000    0.01640
 12 C    -0.02327   -0.00843    0.02940
 13 C     0.02376   -0.03059    0.02946
 14 C    -0.01056   -0.02743    0.00562
 15 C    -0.03748   -0.03639   -0.00890
 16 C    -0.00831    0.05670   -0.02577
 17 C    -0.02606   -0.04003   -0.00031
 18 C     0.04434    0.02549   -0.01167
 19 C     0.00120    0.00104   -0.01252
 20 C     0.02913   -0.01037   -0.03279
 21 C     0.00045    0.04768    0.00841
 22 C    -0.01274   -0.02825   -0.01314
 23 C     0.01192   -0.03375   -0.04515