User:   esb@s65n11.grendel.cscaa.dk
Date:   Thu Nov  9 11:02:48 2017
Arch:   x86_64
Pid:    76858
Python: 2.7.13
gpaw:   /home/esb/DFT/gpaw_git/gpaw
_gpaw:  /home/esb/DFT/gpaw_git/build/bin.linux-x86_64-2.7/gpaw-python
ase:    /home/esb/DFT/ase_git/ase (version 3.15.0b1)
numpy:  /comm/swstack/core/python/2.7.13/lib/python2.7/site-packages/numpy (version 1.13.3)
scipy:  /comm/swstack/core/python/2.7.13/lib/python2.7/site-packages/scipy (version 0.19.1)
units:  Angstrom and eV
cores:  16
Extra parameters: {'blacs': True}

Input parameters:
  basis: dzp
  gpts: [80 80 48]
  kpts: [1 1 1]
  maxiter: 99
  mixer: {backend: pulay,
          beta: 0.05,
          method: separate,
          nmaxold: 5,
          weight: 75}
  mode: lcao
  nbands: -50
  occupations: {name: fermi-dirac,
                width: 0.1}
  poissonsolver: {eps: 1e-07,
                  name: fd,
                  nn: 3,
                  relax: GS}
  xc: PBE

System changes: positions, numbers, cell, pbc, initial_charges, initial_magmoms

Initialize ...

C-setup:
  name: Carbon
  id: 4aa54d4b901d75f77cc0ea3eec22967b
  Z: 6
  valence: 4
  core: 2
  charge: 0.0
  file: /home/esb/DFT/gpaw-setups-0.8.7929/C.PBE.gz
  cutoffs: 0.64(comp), 1.14(filt), 1.14(core), lmax=2
  valence states:
                energy  radius
    2s(2.00)   -13.751   0.635
    2p(2.00)    -5.284   0.635
    *s          13.461   0.635
    *p          21.927   0.635
    *d           0.000   0.635

  LCAO basis set for C:
    Name: dzp
    File: /home/esb/DFT/gpaw-setups-0.8.7929/C.dzp.basis.gz
    Number of radial functions: 5
    Number of spherical harmonics: 13
      l=0, rc=5.5469 Bohr: 2s-sz confined orbital
      l=1, rc=6.6719 Bohr: 2p-sz confined orbital
      l=0, rc=3.0312 Bohr: 2s-dz split-valence wave
      l=1, rc=3.7500 Bohr: 2p-dz split-valence wave
      l=2, rc=6.6719 Bohr: d-type Gaussian polarization

Reference energy: -24663.074771

Spin-paired calculation

Occupation numbers:
  Fermi-Dirac: width=0.1000 eV

Convergence criteria:
  Maximum total energy change: 0.0005 eV / electron
  Maximum integral of absolute density change: 0.0001 electrons
  Maximum integral of absolute eigenstate change: 4e-08 eV^2
  Maximum number of iterations: 99

Symmetries present (total): 1

  ( 1  0  0)
  ( 0  1  0)
  ( 0  0  1)

1 k-point (Gamma)
1 k-point in the irreducible part of the Brillouin zone
       k-points in crystal coordinates                weights
   0:     0.00000000    0.00000000    0.00000000          1/1

Wave functions: LCAO
  Diagonalizer: Serial LAPACK
  Atomic Correction: dense with blas
  Datatype: float
  Eigensolver: None

LCAO using direct dense diagonalizer

Densities:
  Coarse grid: 80*80*48 grid
  Fine grid: 160*160*96 grid
  Total Charge: 0.000000

Density mixing:
  Method: separate
  Backend: pulay
  Linear mixing parameter: 0.05
  Mixing with 5 old densities
  Damping of long wave oscillations: 75

Hamiltonian:
  XC and Coulomb potentials evaluated on a 160*160*96 grid
  Using the PBE Exchange-Correlation functional
  Interpolation: tri-quintic (5. degree polynomial)
  Poisson solver: Gauss-Seidel solver with 6 multi-grid levels
    Coarsest grid: 5 x 5 x 3 points
    Stencil: 6*3+1=19 point O(h^6) finite-difference Laplacian
    Max iterations: 1000
    Tolerance: 1.000000e-07

Total number of cores used: 16
Domain decomposition: 2 x 4 x 2

Number of atoms: 24
Number of atomic orbitals: 312
Number of bands in calculation: 98
Bands to converge: occupied states only
Number of valence electrons: 96

... initialized

Initializing position-dependent things.

Density initialized from atomic densities
    /      |             C  C C                   |
   /       |           C                          |
  /        |            C     C C                 |
 *         |    C   C     C    C                  |
 |         | C     C     C  C                     |
 |         C----------C---------------------------.
 |        /C         C C  C                      /
 |       /   C   C                 C            /

Positions:
   0 C      5.740551    3.387568    4.956784
   1 C      7.036786    3.769117    5.384702
   2 C      5.881275    6.011394    5.643247
   3 C      7.108986    5.212934    5.743139
   4 C      8.274157    3.142138    5.558936
   5 C      6.038032    7.372145    5.963123
   6 C      9.649535    9.300191    7.349884
   7 C     10.759126    6.972609    6.967925
   8 C      9.716283    7.935086    6.999952
   9 C     10.745136    5.749104    6.669709
  10 C      8.558352    9.994768    7.241098
  11 C      7.309711   10.459733    7.004496
  12 C      9.619129    4.987979    6.268930
  13 C      8.479059    7.237264    6.527302
  14 C      8.383408    5.815244    6.177413
  15 C      9.365741    3.655230    5.932901
  16 C      6.676280    9.281223    6.551234
  17 C      7.279238    7.958209    6.384313
  18 C      4.268014    7.935060    5.796246
  19 C      3.207281    7.264044    5.735558
  20 C      2.546639    6.112033    5.472372
  21 C     12.237015    6.343361    3.754586
  22 C      3.996697    4.330604    4.665500
  23 C      2.860389    4.956718    5.051592

Unit cell:
           periodic     x           y           z      points  spacing
  1. axis:    yes   16.000000    0.000000    0.000000    80     0.2000
  2. axis:    yes    0.000000   16.000000    0.000000    80     0.2000
  3. axis:    yes    0.000000    0.000000   10.000000    48     0.2083

Effective grid spacing dv^(1/3) = 0.2027

                     log10-error:    total        iterations:
           time      wfs    density  energy       fermi  poisson
iter:   1  11:02:50          +inf  -173.843735    3      6
iter:   2  11:02:50         -0.85  -170.057028    33     3
iter:   3  11:02:51         -0.92  -172.739735    30     3
iter:   4  11:02:52         -0.80  -169.265689    33     2
iter:   5  11:02:52         -0.89  -168.707412    4      2
iter:   6  11:02:53         -0.96  -169.478047    4      4
iter:   7  11:02:53         -0.93  -167.826009    34     3
iter:   8  11:02:54         -1.12  -167.116960    3      2
iter:   9  11:02:55         -1.18  -167.506614    3      3
iter:  10  11:02:55         -1.29  -166.693502    34     2
iter:  11  11:02:56         -1.54  -166.743031    4      3
iter:  12  11:02:57         -1.55  -166.662927    3      2
iter:  13  11:02:57         -1.76  -166.643568    2      3
iter:  14  11:02:58         -1.83  -166.623680    3      2
iter:  15  11:02:58         -1.94  -166.619393    3      2
iter:  16  11:02:59         -2.09  -166.606696    3      2
iter:  17  11:03:00         -2.20  -166.603494    3      2
iter:  18  11:03:00         -2.33  -166.593988    3      2
iter:  19  11:03:01         -2.61  -166.600551    2      2
iter:  20  11:03:02         -2.73  -166.602001    3      2
iter:  21  11:03:02         -2.95  -166.601370    2      1
iter:  22  11:03:03         -2.99  -166.609772    2      1
iter:  23  11:03:03         -3.08  -166.614457    3      1
iter:  24  11:03:04         -3.25  -166.607878    2      1
iter:  25  11:03:04         -3.39  -166.598626    2      1
iter:  26  11:03:05         -3.59  -166.600931    1      1
iter:  27  11:03:06         -3.71  -166.602629    2      1
iter:  28  11:03:06         -3.91  -166.601493    2      1
iter:  29  11:03:07         -3.96  -166.598854    2      1
iter:  30  11:03:07         -3.90  -166.601772    2      1
iter:  31  11:03:08         -4.18  -166.600184    2      1

Converged after 31 iterations.

Dipole moment: (0.061814, -0.211367, -0.041554) |e|*Ang

Energy contributions relative to reference atoms: (reference = -24663.074771)

Kinetic:        +81.484039
Potential:      -92.513302
External:        +0.000000
XC:            -158.177197
Entropy (-ST):   -0.671296
Local:           +2.941923
Free energy:   -166.935832
Extrapolated:  -166.600184

Fermi level: -4.29031

 Band  Eigenvalues  Occupancy
    0    -22.55533    2.00000
    1    -21.60694    2.00000
    2    -21.07754    2.00000
    3    -20.62025    2.00000
    4    -20.31467    2.00000
    5    -19.72293    2.00000
    6    -18.88471    2.00000
    7    -18.78919    2.00000
    8    -18.57360    2.00000
    9    -17.95907    2.00000
   10    -16.92485    2.00000
   11    -16.51979    2.00000
   12    -15.94586    2.00000
   13    -15.65365    2.00000
   14    -14.90400    2.00000
   15    -14.20126    2.00000
   16    -13.85474    2.00000
   17    -13.33971    2.00000
   18    -12.82123    2.00000
   19    -12.70809    2.00000
   20    -12.39289    2.00000
   21    -11.77408    2.00000
   22    -11.27877    2.00000
   23    -10.91448    2.00000
   24    -10.62592    2.00000
   25    -10.43797    2.00000
   26    -10.18568    2.00000
   27    -10.00639    2.00000
   28     -9.43390    2.00000
   29     -9.05355    2.00000
   30     -8.95771    2.00000
   31     -8.90548    2.00000
   32     -8.73925    2.00000
   33     -8.16894    2.00000
   34     -7.57746    2.00000
   35     -7.52844    2.00000
   36     -6.93947    2.00000
   37     -6.69779    2.00000
   38     -6.64853    2.00000
   39     -6.58978    2.00000
   40     -6.58383    2.00000
   41     -6.53407    2.00000
   42     -5.76938    2.00000
   43     -5.44404    1.99998
   44     -5.06813    1.99916
   45     -4.67613    1.95866
   46     -4.35368    1.30664
   47     -4.25617    0.83093
   48     -4.22180    0.67024
   49     -4.21218    0.62806
   50     -4.20165    0.58363
   51     -3.83940    0.02178
   52     -3.51983    0.00090
   53     -3.11196    0.00002
   54     -2.90269    0.00000
   55     -2.80365    0.00000
   56     -2.57511    0.00000
   57     -2.54097    0.00000
   58     -2.18984    0.00000
   59     -1.52331    0.00000
[...]
   83      8.58517    0.00000
   84      8.88898    0.00000
   85      9.02808    0.00000
   86      9.23699    0.00000
   87      9.37552    0.00000
   88      9.51705    0.00000
   89      9.58447    0.00000
   90      9.59773    0.00000
   91      9.65942    0.00000
   92      9.72095    0.00000
   93      9.91564    0.00000
   94      9.93453    0.00000
   95     10.03541    0.00000
   96     10.15305    0.00000
   97     10.29149    0.00000

Forces in eV/Ang:
  0 C    -3.09547   -0.81956   -0.26224
  1 C    -2.32166    1.84389   -0.47525
  2 C     2.02614    0.80728    0.51829
  3 C    -0.28501    1.32172    0.17456
  4 C     0.31140   -0.21727   -0.05558
  5 C    -3.98516   -4.27867   -1.42947
  6 C    -0.06002    0.08310    0.01516
  7 C     0.00779    0.65082    0.16799
  8 C    -0.16463   -0.22922   -0.17523
  9 C    -0.16432   -0.54872   -0.30025
 10 C     0.21784    0.06221    0.10575
 11 C    -1.02476   -1.30686   -0.63206
 12 C     0.24195    0.39333    0.11799
 13 C     0.51758   -0.80513   -0.12597
 14 C    -0.00427    0.38621    0.03105
 15 C    -0.21798   -0.59155   -0.10225
 16 C     4.02495    2.21983    1.55762
 17 C    -4.92400    2.52310   -0.55927
 18 C     5.32124    0.13013    0.67151
 19 C    -1.83281   -1.25020   -0.12825
 20 C     0.00280    2.92438    0.65613
 21 C    -0.08804   -0.04249    0.20330
 22 C     3.68191   -0.30025    0.41753
 23 C     1.82456   -3.01209   -0.46602

System changes: positions

[...]

Density initialized from wave functions
[...]
 |        /     C   C     C                      /
 |       /       C     C                        /

[...]

Density initialized from wave functions
    /      |            C  C                      |
   /       |            C    C                    |
  /        |           C     C                    |
 *         |     C C     C     C                  |
 |         |  C          C     C                  |
 |         .C-C-C--C--C-----C----C----------------.
 |        /         C     C                      /
 |       /       C     C                        /

[...]

Density initialized from wave functions
    /      |            C  C                      |
   /       |            C    C                    |
  /        |           C     C                    |
 *         |     C  C     C     C                 |
 |         |  C          C     C                  |
 |         .C-C-C--C--C-----C----C----------------.
 |        /         C     C                      /
 |       /       C     C                        /

[...]

Density initialized from wave functions
    /      |            C  C                      |
   /       |            C    C                    |
  /        |           C     C                    |
 *         |     C  C     C     C                 |
 |         |  C    C     C     C                  |
 |         C--C-C-----C-----C----C----------------.
 |        /         C     C                      /
 |       /       C     C                        /

[...]

Density initialized from wave functions
    /      |            C  C                      |
   /       |            C    C                    |
  /        |           C     C                    |
 *         |     C  C     C     C                 |
 |         |  C    C     C     C                  |
 |         C--C-C-----C-----C----C----------------.
 |        /         C     C                      /
 |       /       C     C                        /

[...]

Density initialized from wave functions
    /      |            C  C                      |
   /       |            C    C                    |
  /        |           C     C                    |
 *         |     C  C     C     C                 |
 |         |  C    C     C     C                  |
 |         C--C-C-----C-----C-----C---------------.
 |        /         C     C                      /
 |       /       C     C                        /

[...]

Density initialized from wave functions
    /      |            C  C                      |
   /       |            C    C                    |
  /        |           C     C                    |
 *         |     C  C     C     C                 |
 |         |  C    C     C     C                  |
 |         C--C-C-----C-----C-----C---------------.
 |        /         C  C  C                      /
 |       /       C                              /

[...]

Density initialized from wave functions
    /      |            C  C                      |
   /       |            C    C                    |
  /        |           C     C                    |
 *         |     C  C     C     C                 |
 |         |  C    C     C     C                  |
 |         C--C-C-----C-----C-----C---------------.
 |        /         C  C  C                      /
 |       /       C                              /

[...]

Density initialized from wave functions
    /      |            C  C                      |
   /       |            C    C                    |
  /        |                 C                    |
 *         |     C  C  C  C     C                 |
 |         |  C    C     C     C                  |
 |         C--C-C-----C-----C-----C---------------.
 |        /         C  C  C                      /
 |       /       C                              /

[...]

Density initialized from wave functions
    /      |            C  C                      |
   /       |            C    C                    |
  /        |                 C                    |
 *         |     C  C  C  C     C                 |
 |         |  C    C     C     C  C               |
 |         C--C-C-----C-----C---------------------.
 |        /      C  C  C  C                      /

[...]

Density initialized from wave functions
    /      |            C  C                      |
   /       |            C    C                    |
  /        |                 C                    |
 *         |      C C  C  C     C                 |
 |         |   C    C    C     C  C               |
 |         C--C-C-----C-----C---------------------.
 |        /      C  C  C  C                      /

[...]

Density initialized from wave functions
    /      |            C  C                      |
   /       |            C    C                    |
  /        |                 C                    |
 *         |      C C  C  C     C                 |
 |         |   C         C     C  C               |
 |         .C-C-C---C-C-----C---------------------.
 |        /      C  C  C  C                      /

[...]

Density initialized from wave functions
    /      |            C  C                      |
   /       |            C    C                    |
  /        |           C     C                    |
 *         |      C C     C     C                 |
 |         |   C         C     C  C               |
 |         .C-C-C---C-C-----C---------------------.
 |        /      C  C  C  C                      /

[...]

Density initialized from wave functions
    /      |            C  C                      |
   /       |            C    C                    |
  /        |           C     C                    |
 *         |      C C     C     C                 |
 |         |   C         C  C  C  C               |
 |         .C-C-C---C-C---------------------------.
 |        /      C  C  C  C                      /

[...]

Density initialized from wave functions
    /      |             C  C                     |
   /       |            C     C                   |
  /        |           C      C                   |
 *         |     C  C     C     C                 |
 |         |   C         C  C  C  C               |
 |         .C-C-C---C-C---------------------------.
 |        /      C  C  C  C                      /

[...]

Density initialized from wave functions
    /      |             C  C C                   |
   /       |            C                         |
  /        |           C      C                   |
 *         |     C  C     C     C                 |
 |         |   C          C C  C  C               |
 |         .C-C-C---C-C---------------------------.
 |        /      C   C C  C                      /

[...]

Density initialized from wave functions
    /      |             C  C C                   |
   /       |            C                         |
  /        |           C      C                   |
 *         |     C  C     C     C                 |
 |         |   C          C C  C  C               |
 |         .C-C-C---C-C---------------------------.
 |        /      C   C C  C                      /

[...]

Density initialized from wave functions
    /      |             C  C C                   |
   /       |            C                         |
  /        |           C      C                   |
 *         |     C  C     C     C                 |
 |         |   C    C     C C  C  C               |
 |         .C-C-C-----C---------------------------.
 |        /      C   C C  C                      /

[...]

Density initialized from wave functions
    /      |             C  C C                   |
   /       |            C                         |
  /        |           C      C                   |
 *         |     C  C     C     C                 |
 |         |   C    C     C C  C  C               |
 |         .C-C-C-----C---C-----------------------.
 |        /      C   C C                         /

[...]

Density initialized from wave functions
    /      |             C  C C                   |
   /       |            C                         |
  /        |           C      C                   |
 *         |     C  C     C     C                 |
 |         |  C     C     C C  C   C              |
 |         .C-C-C-----C---C-----------------------.
 |        /      C   C C                         /

[...]

Density initialized from wave functions
    /      |             C  C C                   |
   /       |            C                         |
  /        |           C      C                   |
 *         |     C  C     C     C                 |
 |         |  C     C     C C  C   C              |
 |         .C-C--C----C---C-----------------------.
 |        /      C   C C                         /

[...]

Density initialized from wave functions
    /      |             C  C C                   |
   /       |            C                         |
  /        |           C      C C                 |
 *         |     C  C     C                       |
 |         |  C     C     C C  C   C              |
 |         .C-C--C----C----C----------------------.
 |        /      C   C C                         /

[...]

Density initialized from wave functions
    /      |             C  C C                   |
   /       |            C                         |
  /        |            C     C C                 |
 *         |     C  C     C        C              |
 |         |  C     C     C C  C                  |
 |         .C-C--C----C----C----------------------.
 |        /      C   C C                         /

[...]

Density initialized from wave functions
    /      |             C  C C                   |
   /       |            C                         |
  /        |            C     C C                 |
 *         |     C  C     C        C              |
 |         |  C     C     C C   C                 |
 |         .C-C--C----C----C----------------------.
 |        /      C   C  C                        /

[...]

Density initialized from wave functions
    /      |             C  C C                   |
   /       |            C                         |
  /        |            C     C C                 |
 *         |     C  C     C        C              |
 |         |  C     C     C C   C                 |
 |         C--C--C----C----C----------------------.
 |        /      C   C  C                        /

[...]

System changes: positions

Initializing position-dependent things.

Density initialized from wave functions
    /      |             C  C C                   |
   /       |            C                         |
  /        |            C     C C                 |
 *         |     C  C     C        C              |
 |         |  C     C     C C   C                 |
 |         C--C--C----C----C----------------------.
 |        /      C   C  C                        /

Positions:
   0 C      5.825703    3.503990    5.592378
   1 C      7.223594    3.738952    5.777299
   2 C      6.205496    5.821797    5.944071
   3 C      7.451292    5.188179    5.970897
   4 C      8.501877    3.176050    5.911284
   5 C      6.028281    7.205023    6.219909
   6 C      9.616850    9.352202    7.311194
   7 C     10.993304    7.263353    6.713915
   8 C      9.797092    8.040528    6.835551
   9 C     11.057837    5.898478    6.453593
  10 C      8.503009   10.049508    7.274926
  11 C      7.212911   10.654184    7.115046
  12 C      9.913738    5.073994    6.277212
  13 C      8.580834    7.276254    6.485252
  14 C      8.669669    5.851768    6.229190
  15 C      9.653881    3.687293    6.109737
  16 C      7.254792    9.296744    6.853917
  17 C      7.263835    7.929385    6.505156
  18 C      4.680880    7.668832    6.193108
  19 C      3.671856    6.932439    5.881057
  20 C      2.721882    5.954108    5.502702
  21 C     12.293569    6.687422    6.445949
  22 C      5.181842    4.764483    5.683478
  23 C      3.885604    5.297532    5.588398

Unit cell:
           periodic     x           y           z      points  spacing
  1. axis:    yes   16.000000    0.000000    0.000000    80     0.2000
  2. axis:    yes    0.000000   16.000000    0.000000    80     0.2000
  3. axis:    yes    0.000000    0.000000   10.000000    48     0.2083

Effective grid spacing dv^(1/3) = 0.2027

                     log10-error:    total        iterations:
           time      wfs    density  energy       fermi  poisson
iter:   1  11:24:51          +inf  -183.517122    3      4
iter:   2  11:24:52         -2.63  -183.507922    2      1
iter:   3  11:24:52         -2.85  -183.506301    2      1
iter:   4  11:24:53         -2.98  -183.507095    3      1
iter:   5  11:24:54         -3.15  -183.505350    2      1
iter:   6  11:24:54         -2.81  -183.503670    2      1
iter:   7  11:24:55         -3.43  -183.505957    2      1
iter:   8  11:24:55         -3.30  -183.505360    2      1
iter:   9  11:24:56         -3.34  -183.505577    2      1
iter:  10  11:24:57         -3.41  -183.506598    2      1
iter:  11  11:24:57         -3.35  -183.505289    2      1
iter:  12  11:24:58         -4.06  -183.504451    2      1

Converged after 12 iterations.

Dipole moment: (-0.248258, 0.347482, 0.152502) |e|*Ang

Energy contributions relative to reference atoms: (reference = -24663.074771)

Kinetic:       +116.249141
Potential:     -123.241605
External:        +0.000000
XC:            -179.308549
Entropy (-ST):   -0.296144
Local:           +2.944634
Free energy:   -183.652523
Extrapolated:  -183.504451

Fermi level: -4.42230

 Band  Eigenvalues  Occupancy
    0    -23.92063    2.00000
    1    -23.14185    2.00000
    2    -22.90740    2.00000
    3    -22.28183    2.00000
    4    -21.39874    2.00000
    5    -20.92867    2.00000
    6    -20.47366    2.00000
    7    -19.37952    2.00000
    8    -19.06382    2.00000
    9    -18.53100    2.00000
   10    -18.00336    2.00000
   11    -17.40988    2.00000
   12    -16.82010    2.00000
   13    -15.89950    2.00000
   14    -15.69591    2.00000
   15    -15.00493    2.00000
   16    -14.02884    2.00000
   17    -13.62771    2.00000
   18    -13.08074    2.00000
   19    -12.92938    2.00000
   20    -12.17857    2.00000
   21    -11.76268    2.00000
   22    -11.55543    2.00000
   23    -11.22649    2.00000
   24    -11.19578    2.00000
   25    -10.81543    2.00000
   26    -10.48859    2.00000
   27    -10.40584    2.00000
   28    -10.26329    2.00000
   29    -10.13633    2.00000
   30     -9.70012    2.00000
   31     -9.53257    2.00000
   32     -9.37465    2.00000
   33     -9.08050    2.00000
   34     -9.00881    2.00000
   35     -8.75749    2.00000
   36     -8.28584    2.00000
   37     -8.06104    2.00000
   38     -7.88425    2.00000
   39     -7.13381    2.00000
   40     -6.71410    2.00000
   41     -6.43492    2.00000
   42     -6.26225    2.00000
   43     -6.00025    2.00000
   44     -5.77390    2.00000
   45     -4.90140    1.98353
   46     -4.75058    1.92766
   47     -4.52083    1.45630
   48     -4.33791    0.60143
   49     -4.00666    0.03084
   50     -3.51462    0.00023
   51     -3.17363    0.00001
   52     -2.61651    0.00000
   53     -2.53893    0.00000
   54     -2.12977    0.00000
   55     -1.37802    0.00000
   56     -0.59215    0.00000
   57     -0.03958    0.00000
   58      0.49023    0.00000
   59      0.83084    0.00000
[...]
   83      8.71024    0.00000
   84      8.85754    0.00000
   85      9.00085    0.00000
   86      9.13989    0.00000
   87      9.29314    0.00000
   88      9.33325    0.00000
   89      9.39629    0.00000
   90      9.41418    0.00000
   91      9.74295    0.00000
   92      9.77648    0.00000
   93      9.94579    0.00000
   94     10.00978    0.00000
   95     10.04882    0.00000
   96     10.13796    0.00000
   97     10.24567    0.00000

Forces in eV/Ang:
  0 C    -0.02404   -0.08928   -0.01614
  1 C    -0.00521    0.01598    0.00856
  2 C     0.04561   -0.01392    0.01604
  3 C     0.02144    0.05490    0.00768
  4 C    -0.00905   -0.00899   -0.09141
  5 C    -0.00733   -0.03960    0.00383
  6 C     0.00395   -0.03458    0.02787
  7 C     0.01864   -0.00848   -0.01719
  8 C    -0.02009   -0.00025   -0.03149
  9 C     0.00002   -0.02248    0.06781
 10 C    -0.03743    0.02598    0.00537
 11 C    -0.01309   -0.04816   -0.07591
 12 C     0.00241    0.00227    0.00348
 13 C    -0.01350    0.03756    0.04111
 14 C     0.04141    0.05411    0.01943
 15 C     0.06105    0.03076   -0.04020
 16 C     0.06823    0.01665    0.01810
 17 C    -0.02622   -0.01065    0.00904
 18 C     0.07909    0.03823    0.04081
 19 C    -0.00540    0.03075   -0.00257
 20 C    -0.02241   -0.02621    0.01620
 21 C     0.05802   -0.00340    0.03059
 22 C    -0.04641    0.01268   -0.00190
 23 C    -0.05503   -0.03311   -0.00427