User:   esb@s65n32.grendel.cscaa.dk
Date:   Thu Nov  9 10:32:42 2017
Arch:   x86_64
Pid:    23067
Python: 2.7.13
gpaw:   /home/esb/DFT/gpaw_git/gpaw
_gpaw:  /home/esb/DFT/gpaw_git/build/bin.linux-x86_64-2.7/gpaw-python
ase:    /home/esb/DFT/ase_git/ase (version 3.15.0b1)
numpy:  /comm/swstack/core/python/2.7.13/lib/python2.7/site-packages/numpy (version 1.13.3)
scipy:  /comm/swstack/core/python/2.7.13/lib/python2.7/site-packages/scipy (version 0.19.1)
units:  Angstrom and eV
cores:  16
Extra parameters: {'blacs': True}

Input parameters:
  basis: dzp
  gpts: [80 80 48]
  kpts: [1 1 1]
  maxiter: 99
  mixer: {backend: pulay,
          beta: 0.05,
          method: separate,
          nmaxold: 5,
          weight: 75}
  mode: lcao
  nbands: -50
  occupations: {name: fermi-dirac,
                width: 0.1}
  poissonsolver: {eps: 1e-07,
                  name: fd,
                  nn: 3,
                  relax: GS}
  xc: PBE

System changes: positions, numbers, cell, pbc, initial_charges, initial_magmoms

Initialize ...

C-setup:
  name: Carbon
  id: 4aa54d4b901d75f77cc0ea3eec22967b
  Z: 6
  valence: 4
  core: 2
  charge: 0.0
  file: /home/esb/DFT/gpaw-setups-0.8.7929/C.PBE.gz
  cutoffs: 0.64(comp), 1.14(filt), 1.14(core), lmax=2
  valence states:
                energy  radius
    2s(2.00)   -13.751   0.635
    2p(2.00)    -5.284   0.635
    *s          13.461   0.635
    *p          21.927   0.635
    *d           0.000   0.635

  LCAO basis set for C:
    Name: dzp
    File: /home/esb/DFT/gpaw-setups-0.8.7929/C.dzp.basis.gz
    Number of radial functions: 5
    Number of spherical harmonics: 13
      l=0, rc=5.5469 Bohr: 2s-sz confined orbital
      l=1, rc=6.6719 Bohr: 2p-sz confined orbital
      l=0, rc=3.0312 Bohr: 2s-dz split-valence wave
      l=1, rc=3.7500 Bohr: 2p-dz split-valence wave
      l=2, rc=6.6719 Bohr: d-type Gaussian polarization

Reference energy: -24663.074771

Spin-paired calculation

Occupation numbers:
  Fermi-Dirac: width=0.1000 eV

Convergence criteria:
  Maximum total energy change: 0.0005 eV / electron
  Maximum integral of absolute density change: 0.0001 electrons
  Maximum integral of absolute eigenstate change: 4e-08 eV^2
  Maximum number of iterations: 99

Symmetries present (total): 1

  ( 1  0  0)
  ( 0  1  0)
  ( 0  0  1)

1 k-point (Gamma)
1 k-point in the irreducible part of the Brillouin zone
       k-points in crystal coordinates                weights
   0:     0.00000000    0.00000000    0.00000000          1/1

Wave functions: LCAO
  Diagonalizer: Serial LAPACK
  Atomic Correction: dense with blas
  Datatype: float
  Eigensolver: None

LCAO using direct dense diagonalizer

Densities:
  Coarse grid: 80*80*48 grid
  Fine grid: 160*160*96 grid
  Total Charge: 0.000000

Density mixing:
  Method: separate
  Backend: pulay
  Linear mixing parameter: 0.05
  Mixing with 5 old densities
  Damping of long wave oscillations: 75

Hamiltonian:
  XC and Coulomb potentials evaluated on a 160*160*96 grid
  Using the PBE Exchange-Correlation functional
  Interpolation: tri-quintic (5. degree polynomial)
  Poisson solver: Gauss-Seidel solver with 6 multi-grid levels
    Coarsest grid: 5 x 5 x 3 points
    Stencil: 6*3+1=19 point O(h^6) finite-difference Laplacian
    Max iterations: 1000
    Tolerance: 1.000000e-07

Total number of cores used: 16
Domain decomposition: 2 x 4 x 2

Number of atoms: 24
Number of atomic orbitals: 312
Number of bands in calculation: 98
Bands to converge: occupied states only
Number of valence electrons: 96

... initialized

Initializing position-dependent things.

Density initialized from atomic densities
    /      |          C                           |
   /       |             C  C C                   |
 *         |    C       C C   C   C               |
 |         C C                  C                 |
 |         .C-C--C---C---C-----C---C--------------.
 |        /                C                     /
 |       /          C  C  C                     /

Positions:
   0 C      4.281351    7.887076    5.753039
   1 C     11.126748   10.098123    4.654058
   2 C      3.269590    7.142929    5.751008
   3 C      2.720832    5.913251    5.852476
   4 C     11.122840    8.719841    5.086678
   5 C      5.546227    4.150888    6.393188
   6 C     12.452915    6.214683    5.328184
   7 C      4.297203    4.124857    6.269582
   8 C      3.101192    4.720582    6.056295
   9 C      8.125382    3.193699    4.772432
  10 C      6.878563    3.785099    5.003931
  11 C      9.254909    3.733691    4.872528
  12 C      6.994755    5.226605    5.413361
  13 C      9.547810    5.049461    5.246283
  14 C      8.308609    5.846477    5.541365
  15 C     10.715932    5.805012    5.393940
  16 C      6.081774   10.034463    6.912614
  17 C      8.658455    9.887700    6.722931
  18 C      7.330424    9.452124    6.667602
  19 C      9.694564    9.229946    6.455859
  20 C      7.216732    8.018755    6.230304
  21 C      9.771382    7.891246    6.055786
  22 C      8.419114    7.244377    5.946798
  23 C     10.809828    7.008931    5.740239

Unit cell:
           periodic     x           y           z      points  spacing
  1. axis:    yes   16.000000    0.000000    0.000000    80     0.2000
  2. axis:    yes    0.000000   16.000000    0.000000    80     0.2000
  3. axis:    yes    0.000000    0.000000   10.000000    48     0.2083

Effective grid spacing dv^(1/3) = 0.2027

                     log10-error:    total        iterations:
           time      wfs    density  energy       fermi  poisson
iter:   1  10:32:44          +inf  -167.824098    3      6
iter:   2  10:32:44         -0.89  -166.271385    3      3
iter:   3  10:32:45         -0.93  -164.100723    3      3
iter:   4  10:32:45         -1.03  -163.556663    4      3
iter:   5  10:32:46         -1.09  -162.956920    34     4
iter:   6  10:32:47         -1.27  -162.537984    33     3
iter:   7  10:32:47         -1.53  -162.555756    4      3
iter:   8  10:32:48         -1.69  -162.526208    2      3
iter:   9  10:32:48         -1.79  -162.479581    3      3
iter:  10  10:32:49         -1.97  -162.466799    3      2
iter:  11  10:32:49         -2.10  -162.445528    3      3
iter:  12  10:32:50         -2.43  -162.445853    3      2
iter:  13  10:32:51         -2.62  -162.443890    3      2
iter:  14  10:32:51         -2.79  -162.441606    2      2
iter:  15  10:32:52         -2.98  -162.445489    2      1
iter:  16  10:32:52         -3.15  -162.443704    2      1
iter:  17  10:32:53         -3.30  -162.441506    2      1
iter:  18  10:32:53         -3.41  -162.440219    2      1
iter:  19  10:32:54         -3.64  -162.439024    2      1
iter:  20  10:32:54         -3.77  -162.439504    2      1
iter:  21  10:32:55         -3.88  -162.440403    2      1
iter:  22  10:32:55         -4.08  -162.440283    2      1

Converged after 22 iterations.

Dipole moment: (-0.161607, -0.750961, 0.073502) |e|*Ang

Energy contributions relative to reference atoms: (reference = -24663.074771)

Kinetic:        +90.533447
Potential:      -99.652003
External:        +0.000000
XC:            -156.025059
Entropy (-ST):   -0.311533
Local:           +2.859098
Free energy:   -162.596049
Extrapolated:  -162.440283

Fermi level: -4.70505

 Band  Eigenvalues  Occupancy
    0    -23.29305    2.00000
    1    -21.94147    2.00000
    2    -21.47007    2.00000
    3    -20.81489    2.00000
    4    -20.25779    2.00000
    5    -19.80831    2.00000
    6    -19.34493    2.00000
    7    -18.82171    2.00000
    8    -18.26325    2.00000
    9    -17.88258    2.00000
   10    -17.66010    2.00000
   11    -16.90831    2.00000
   12    -16.02337    2.00000
   13    -15.51913    2.00000
   14    -15.34267    2.00000
   15    -14.92098    2.00000
   16    -13.80722    2.00000
   17    -13.55820    2.00000
   18    -13.41761    2.00000
   19    -13.07214    2.00000
   20    -12.83289    2.00000
   21    -11.86167    2.00000
   22    -11.28395    2.00000
   23    -11.20485    2.00000
   24    -10.54136    2.00000
   25     -9.84060    2.00000
   26     -9.65913    2.00000
   27     -9.29236    2.00000
   28     -9.13500    2.00000
   29     -8.86566    2.00000
   30     -8.62058    2.00000
   31     -8.02694    2.00000
   32     -7.90531    2.00000
   33     -7.68185    2.00000
   34     -7.56849    2.00000
   35     -7.33691    2.00000
   36     -7.20281    2.00000
   37     -7.15067    2.00000
   38     -6.90643    2.00000
   39     -6.84501    2.00000
   40     -6.67814    2.00000
   41     -6.21685    2.00000
   42     -5.97094    1.99999
   43     -5.77768    1.99996
   44     -5.62649    1.99980
   45     -5.33117    1.99619
   46     -5.19763    1.98559
   47     -4.75069    1.22434
   48     -4.64514    0.70910
   49     -4.39076    0.08275
   50     -4.00768    0.00187
   51     -3.84967    0.00039
   52     -3.60217    0.00003
   53     -3.37085    0.00000
   54     -3.05325    0.00000
   55     -2.76055    0.00000
   56     -2.66640    0.00000
   57     -2.18904    0.00000
   58     -2.10151    0.00000
   59     -1.25694    0.00000
[...]
   83      8.41388    0.00000
   84      8.67865    0.00000
   85      8.80696    0.00000
   86      8.87958    0.00000
   87      9.01425    0.00000
   88      9.08627    0.00000
   89      9.17430    0.00000
   90      9.34288    0.00000
   91      9.39024    0.00000
   92      9.57032    0.00000
   93      9.63001    0.00000
   94      9.71239    0.00000
   95      9.78571    0.00000
   96      9.91244    0.00000
   97     10.02003    0.00000

Forces in eV/Ang:
  0 C     2.53138    2.34474    0.18899
  1 C     0.09392   -4.60318    1.62397
  2 C    -2.80976   -1.33188   -0.29097
  3 C     0.67772    1.13068    0.16984
  4 C    -0.29343    4.30070   -1.24704
  5 C     6.19208   -0.75001   -2.64252
  6 C    -5.46964   -0.52189    0.71089
  7 C    -3.97155    0.95793   -0.91496
  8 C     0.87981   -1.80502    0.49326
  9 C    -2.00718   -0.36103    0.59994
 10 C    -1.05712    3.38801    3.35605
 11 C     1.52619    0.22540   -0.67345
 12 C     0.26571   -3.50242   -0.33931
 13 C    -1.56401   -0.13399    0.13570
 14 C    -1.15389   -0.36217   -0.03832
 15 C     4.71252   -6.56192   -3.07235
 16 C     0.18893   -0.46472   -0.17423
 17 C    -1.35501    1.75484    0.24256
 18 C    -2.01189   -1.13625   -0.21671
 19 C     3.37887   -0.69292   -0.98783
 20 C     2.49675    0.08364    0.15069
 21 C    -2.59784   -1.18354    0.74109
 22 C    -2.31670    1.09152    0.33015
 23 C     3.71502    8.16406    1.84373

System changes: positions

[...]

Density initialized from wave functions
    /      |          C                           |
   /       |             C  C C                   |
 *         |    C       C C   C   C               |
 |         C C                  C                 |
 |         .C-C--C---C---C-----C---C--------------.
 |        /                C                     /
 |       /          C  C  C                     /

[...]

Density initialized from wave functions
    /      |          C                           |
   /       |             C  C C                   |
 *         |    C       C C   C   C               |
[...]
 |         | C                  C                 |
 |         .---C--C--C---C-----C-C----------------.
 |        /         C      C                     /
 |       /             C  C                     /

[...]

Density initialized from wave functions
   /       |               C                      |
  /        |     C   C  C     C   CC              |
 *         |   C       C     C                    |
 |         | C            C     C                 |
 |         .---C--C--C---C-------C----------------.
 |        /         C      C   C                 /
 |       /             C  C                     /

[...]

Density initialized from wave functions
   /       |               C                      |
  /        |     C   C  C     C   CC              |
 *         |   C       C     C                    |
 |         | C            C     C                 |
 |         .---C--C--C---C-------C----------------.
 |        /         C      C   C                 /
 |       /             C  C                     /

[...]

Density initialized from wave functions
   /       |               C                      |
  /        |     C      C    C    CC              |
 *         |   C     C C     C                    |
 |         | C            C     C                 |
 |         .---C--C--C---C-------C----------------.
 |        /         C      C   C                 /
 |       /             C  C                     /

[...]

Density initialized from wave functions
   /       |               C                      |
  /        |     C      C    C    CC              |
 *         |   C     C C     C                    |
 |         | C            C     C                 |
 |         .---C--C--C---C-------C----------------.
 |        /         C      C   C                 /
 |       /             C  C                     /

[...]

Density initialized from wave functions
   /       |               C                      |
  /        |     C      C    C    C               |
 *         |   C     C C     C                    |
 |         | C            C     C                 |
 |         .---C--C--C---C-------C----------------.
 |        /         C      C   C                 /
 |       /             C  C                     /

[...]

Density initialized from wave functions
   /       |               C                      |
  /        |     C      C    C    C               |
 *         |   C     C C     C                    |
 |         | CC           C     C                 |
 |         .---C--C--C---C-------C----------------.
 |        /         C      C   C                 /
 |       /             C  C                     /

[...]

Density initialized from wave functions
   /       |               C                      |
  /        |     C      C    C    C               |
 *         |   C     C C     C  C                 |
 |         | CC           C                       |
 |         .---C--C--C---C-------C----------------.
 |        /         C      C   C                 /
 |       /             C  C                     /

[...]

Density initialized from wave functions
   /       |               C                      |
  /        |     C      C    C    C               |
 *         |   C     C C     C  C                 |
 |         | CC           C                       |
 |         .---C--C--C---C-------C----------------.
 |        /         C      C   C                 /
 |       /             C  C                     /

[...]

Density initialized from wave functions
   /       |               C                      |
  /        |     C   C  C    C    C               |
 *         | C C       C     C  C                 |
 |         |  C           C                       |
 |         .---C--C--C---C-------C----------------.
 |        /         C      C   C                 /
 |       /             C  C                     /

[...]

Density initialized from wave functions
   /       |               C                      |
  /        |      C  C  C    C    C               |
 *         | C C       C     C  C                 |
 |         |  C           C                       |
 |         .---C--C---C--C-------C----------------.
 |        /         C      C   C                 /
 |       /             C  C                     /

[...]

Density initialized from wave functions
   /       |                C                     |
  /        |     C   C  C     C   C               |
 *         | C C       C     C  C                 |
 |         |  C           C                       |
 |         .---C--C---C--C-------C----------------.
 |        /         C      C   C                 /
 |       /             C  C                     /

[...]

Density initialized from wave functions
   /       |                C                     |
  /        |      C  C  C     C   C               |
 *         | C C       C     C  C                 |
 |         |  C           C                       |
 |         .---C--C--C---C-------C----------------.
 |        /         C      C  C                  /
 |       /             C  C                     /

[...]

Density initialized from wave functions
   /       |                C                     |
  /        |      C  C  C     C   C               |
 *         | C C       C     C  C                 |
 |         |  C           C                       |
 |         .---C--C--C---C----C--C----------------.
 |        /         C      C                     /
 |       /             C  C                     /

[...]

Density initialized from wave functions
   /       |                C                     |
  /        |      C  C  C     C   C               |
 *         | C C       C     C   C                |
 |         |  C           C                       |
 |         .---C--C--C---C----C--C----------------.
 |        /         C      C                     /
 |       /             C  C                     /

[...]

Density initialized from wave functions
   /       |                C                     |
  /        |      C  C  C     C  CC               |
 *         | C C        C    C   C                |
 |         |  C           C                       |
 |         .---C--C--C---C----C--C----------------.
 |        /         C      C                     /
 |       /             C  C                     /

[...]

Density initialized from wave functions
   /       |                C                     |
  /        |      C  C  C     C  C C              |
 *         |C  C        C    C   C                |
 |         |  C           C                       |
 |         .---C--C--C---C----C--C----------------.
 |        /         C      C                     /
 |       /             C  C                     /

[...]

Density initialized from wave functions
   /       |                C                     |
  /        |      C  C  C     C  C C              |
 *         |C  C        C    C   C                |
 |         | C            C                       |
 |         .---C--C--C---C----C--C----------------.
 |        /         C      C                     /
 |       /             C  C                     /

[...]

Density initialized from wave functions
   /       |                C                     |
  /        |      C  C  C     C   CC              |
 *         |C  C        C    C   C                |
 |         | C            C                       |
 |         .---C--C--C---C----C--C----------------.
 |        /         C      C                     /
 |       /             C  C                     /

[...]

Density initialized from wave functions
   /       |                C                     |
  /        |      C  C  C     C   CC              |
 *         |   C        C    C   C                |
 |         |CC            C                       |
 |         .---C--C--C---C----C--C----------------.
 |        /         C      C                     /
 |       /             C  C                     /

[...]

Density initialized from wave functions
   /       |                C                     |
  /        |      C  C  C     C   CC              |
 *         |   C        C    C   C                |
 |         |CC            C                       |
 |         .---C--C--C---C----C--C----------------.
 |        /         C      C                     /
 |       /             C  C                     /

[...]

Density initialized from wave functions
   /       |               C                      |
  /        |      C  C  C     C   CC              |
 *         |   C       C     C   C                |
 |         |CC            C                       |
 |         .--C---C--C---C----C--C----------------.
 |        /         C      C                     /
 |       /             C  C                     /

[...]

Density initialized from wave functions
   /       |               C                      |
  /        |     C   C  C     C   CC              |
 *         |   C       C     C   C                |
 |         |CC            C                       |
 |         .--C---C--C---C----C--C----------------.
 |        /         C      C                     /
 |       /             C  C                     /

[...]

Density initialized from wave functions
   /       |               C                      |
  /        |     C   C  C     C   CC              |
 *         |   C       C     C   C                |
 |         |CC            C                       |
 |         .--C---C--C---C-------C----------------.
 |        /         C      C  C                  /
 |       /             C  C                     /

[...]

Density initialized from wave functions
   /       |               C                      |
  /        |     C   C  C     C   CC              |
 *         |   C       C     C   C                |
 |         |CC            C                       |
 |         .--C---C--C---C-------C----------------.
 |        /         C      C   C                 /
 |       /            C   C                     /

[...]

Density initialized from wave functions
   /       |               C                      |
  /        |     C   C  C     C   C               |
 *         |   C       C     C   C C              |
 |         |CC            C                       |
 |         .--C---C--C---C-------C----------------.
 |        /         C      C   C                 /
 |       /            C   C                     /

[...]

System changes: positions

Initializing position-dependent things.

Density initialized from wave functions
   /       |               C                      |
  /        |     C   C  C     C   C               |
 *         |   C       C     C   C C              |
 |         |CC            C                       |
 |         .---C--C--C---C-------C----------------.
 |        /         C      C   C                 /
 |       /            C   C                     /

Positions:
   0 C      4.570670    8.502173    6.182864
   1 C     10.820391    9.920419    5.885106
   2 C      3.724816    7.536435    6.191495
   3 C      2.910392    6.459611    6.210320
   4 C     11.723372    9.031436    5.695473
   5 C      5.774657    4.229219    5.797351
   6 C     11.331189    6.474566    5.229003
   7 C      4.430653    4.323219    5.989652
   8 C      3.649002    5.355469    6.117733
   9 C      8.090595    2.823935    5.178072
  10 C      6.929183    3.487204    5.495273
  11 C      9.249318    3.330931    5.026481
  12 C      7.103495    4.919539    5.655099
  13 C      9.518170    4.709211    5.181383
  14 C      8.317435    5.613051    5.531839
  15 C     10.725953    5.381678    5.094025
  16 C      5.948737    8.551559    6.167155
  17 C      8.235173   10.159125    6.235927
  18 C      7.166192    9.274335    6.224704
  19 C      9.431383    9.498678    6.006470
  20 C      7.213985    7.863638    5.988943
  21 C      9.549541    8.013803    5.764525
  22 C      8.418218    7.107858    5.738220
  23 C     11.046144    7.783126    5.545079

Unit cell:
           periodic     x           y           z      points  spacing
  1. axis:    yes   16.000000    0.000000    0.000000    80     0.2000
  2. axis:    yes    0.000000   16.000000    0.000000    80     0.2000
  3. axis:    yes    0.000000    0.000000   10.000000    48     0.2083

Effective grid spacing dv^(1/3) = 0.2027

                     log10-error:    total        iterations:
           time      wfs    density  energy       fermi  poisson
iter:   1  10:51:35          +inf  -180.911476    3      5
iter:   2  10:51:35         -2.53  -180.904180    3      1
iter:   3  10:51:36         -2.74  -180.901296    2      1
iter:   4  10:51:36         -2.83  -180.900125    2      1
iter:   5  10:51:37         -2.95  -180.898467    3      2
iter:   6  10:51:37         -2.91  -180.918623    3      2
iter:   7  10:51:38         -2.47  -180.901278    3      2
iter:   8  10:51:39         -3.25  -180.899911    3      1
iter:   9  10:51:39         -3.68  -180.899899    2      1
iter:  10  10:51:40         -3.93  -180.899836    2      1
iter:  11  10:51:40         -4.03  -180.899560    2      1

Converged after 11 iterations.

Dipole moment: (0.546643, -0.457022, -0.108933) |e|*Ang

Energy contributions relative to reference atoms: (reference = -24663.074771)

Kinetic:       +107.537050
Potential:     -114.160610
External:        +0.000000
XC:            -177.131197
Entropy (-ST):   -0.293349
Local:           +3.001870
Free energy:   -181.046235
Extrapolated:  -180.899560

Fermi level: -4.35215

 Band  Eigenvalues  Occupancy
    0    -23.33398    2.00000
    1    -23.16404    2.00000
    2    -22.12307    2.00000
    3    -21.28315    2.00000
    4    -20.42273    2.00000
    5    -20.09934    2.00000
    6    -19.98033    2.00000
    7    -19.19596    2.00000
    8    -18.72696    2.00000
    9    -18.71273    2.00000
   10    -17.85777    2.00000
   11    -17.21907    2.00000
   12    -16.57709    2.00000
   13    -16.05373    2.00000
   14    -15.37165    2.00000
   15    -14.84982    2.00000
   16    -14.36549    2.00000
   17    -14.18536    2.00000
   18    -13.33855    2.00000
   19    -13.01562    2.00000
   20    -12.21066    2.00000
   21    -12.06684    2.00000
   22    -11.85694    2.00000
   23    -11.53366    2.00000
   24    -11.04944    2.00000
   25    -10.74544    2.00000
   26    -10.49112    2.00000
   27    -10.31845    2.00000
   28    -10.09100    2.00000
   29     -9.64922    2.00000
   30     -9.33880    2.00000
   31     -8.93353    2.00000
   32     -8.76003    2.00000
   33     -8.57946    2.00000
   34     -8.35818    2.00000
   35     -8.13455    2.00000
   36     -7.94527    2.00000
   37     -7.52993    2.00000
   38     -7.05498    2.00000
   39     -6.87028    2.00000
   40     -6.57701    2.00000
   41     -6.23484    2.00000
   42     -6.09207    2.00000
   43     -6.03569    2.00000
   44     -5.87999    2.00000
   45     -5.02936    1.99771
   46     -4.61881    1.87006
   47     -4.45682    1.48030
   48     -4.27859    0.64794
   49     -3.72790    0.00388
   50     -3.33822    0.00008
   51     -3.23692    0.00003
   52     -2.94466    0.00000
   53     -2.33558    0.00000
   54     -2.05525    0.00000
   55     -1.01533    0.00000
   56     -0.81679    0.00000
   57     -0.41601    0.00000
   58     -0.36390    0.00000
   59     -0.06504    0.00000
[...]
   83      8.78710    0.00000
   84      8.81488    0.00000
   85      9.04940    0.00000
   86      9.18955    0.00000
   87      9.23856    0.00000
   88      9.31316    0.00000
   89      9.38913    0.00000
   90      9.49982    0.00000
   91      9.50100    0.00000
   92      9.69944    0.00000
   93      9.94735    0.00000
   94     10.22146    0.00000
   95     10.24831    0.00000
   96     10.30068    0.00000
   97     10.45192    0.00000

Forces in eV/Ang:
  0 C     0.02465   -0.04376    0.02120
  1 C     0.04310    0.02268    0.04718
  2 C    -0.01764   -0.04358    0.05231
  3 C    -0.03110   -0.01666    0.00223
  4 C    -0.03703   -0.00695   -0.02166
  5 C    -0.00267    0.00238   -0.05104
  6 C     0.00338   -0.03165   -0.00146
  7 C    -0.00790    0.06121   -0.03226
  8 C     0.01533    0.03279    0.00455
  9 C     0.02209    0.03806    0.02485
 10 C    -0.00483    0.01596    0.02598
 11 C     0.02137   -0.00984   -0.03773
 12 C     0.00917   -0.00682    0.01195
 13 C    -0.01634   -0.03164    0.05149
 14 C    -0.01506    0.01338    0.02163
 15 C    -0.07579    0.01883    0.00522
 16 C     0.03058    0.00869   -0.04833
 17 C     0.00308    0.07004    0.04270
 18 C    -0.08120   -0.05341    0.02257
 19 C     0.00560    0.05953    0.01923
 20 C     0.04915   -0.00727   -0.04243
 21 C     0.02036   -0.00066   -0.07786
 22 C     0.02631    0.03962    0.01333
 23 C     0.02075   -0.02503   -0.03054