User:   esb@s65n72.grendel.cscaa.dk
Date:   Wed Nov  8 15:13:06 2017
Arch:   x86_64
Pid:    97690
Python: 2.7.13
gpaw:   /home/esb/DFT/gpaw_git/gpaw
_gpaw:  /home/esb/DFT/gpaw_git/build/bin.linux-x86_64-2.7/gpaw-python
ase:    /home/esb/DFT/ase_git/ase (version 3.15.0b1)
numpy:  /comm/swstack/core/python/2.7.13/lib/python2.7/site-packages/numpy (version 1.13.3)
scipy:  /comm/swstack/core/python/2.7.13/lib/python2.7/site-packages/scipy (version 0.19.1)
units:  Angstrom and eV
cores:  16
Extra parameters: {'blacs': True}

Input parameters:
  basis: dzp
  gpts: [80 80 48]
  kpts: [1 1 1]
  maxiter: 99
  mixer: {backend: pulay,
          beta: 0.05,
          method: separate,
          nmaxold: 5,
          weight: 75}
  mode: lcao
  nbands: -50
  occupations: {name: fermi-dirac,
                width: 0.1}
  poissonsolver: {eps: 1e-07,
                  name: fd,
                  nn: 3,
                  relax: GS}
  xc: PBE

System changes: positions, numbers, cell, pbc, initial_charges, initial_magmoms

Initialize ...

C-setup:
  name: Carbon
  id: 4aa54d4b901d75f77cc0ea3eec22967b
  Z: 6
  valence: 4
  core: 2
  charge: 0.0
  file: /home/esb/DFT/gpaw-setups-0.8.7929/C.PBE.gz
  cutoffs: 0.64(comp), 1.14(filt), 1.14(core), lmax=2
  valence states:
                energy  radius
    2s(2.00)   -13.751   0.635
    2p(2.00)    -5.284   0.635
    *s          13.461   0.635
    *p          21.927   0.635
    *d           0.000   0.635

  LCAO basis set for C:
    Name: dzp
    File: /home/esb/DFT/gpaw-setups-0.8.7929/C.dzp.basis.gz
    Number of radial functions: 5
    Number of spherical harmonics: 13
      l=0, rc=5.5469 Bohr: 2s-sz confined orbital
      l=1, rc=6.6719 Bohr: 2p-sz confined orbital
      l=0, rc=3.0312 Bohr: 2s-dz split-valence wave
      l=1, rc=3.7500 Bohr: 2p-dz split-valence wave
      l=2, rc=6.6719 Bohr: d-type Gaussian polarization

Reference energy: -24663.074771

Spin-paired calculation

Occupation numbers:
  Fermi-Dirac: width=0.1000 eV

Convergence criteria:
  Maximum total energy change: 0.0005 eV / electron
  Maximum integral of absolute density change: 0.0001 electrons
  Maximum integral of absolute eigenstate change: 4e-08 eV^2
  Maximum number of iterations: 99

Symmetries present (total): 1

  ( 1  0  0)
  ( 0  1  0)
  ( 0  0  1)

1 k-point (Gamma)
1 k-point in the irreducible part of the Brillouin zone
       k-points in crystal coordinates                weights
   0:     0.00000000    0.00000000    0.00000000          1/1

Wave functions: LCAO
  Diagonalizer: Serial LAPACK
  Atomic Correction: dense with blas
  Datatype: float
  Eigensolver: None

LCAO using direct dense diagonalizer

Densities:
  Coarse grid: 80*80*48 grid
  Fine grid: 160*160*96 grid
  Total Charge: 0.000000

Density mixing:
  Method: separate
  Backend: pulay
  Linear mixing parameter: 0.05
  Mixing with 5 old densities
  Damping of long wave oscillations: 75

Hamiltonian:
  XC and Coulomb potentials evaluated on a 160*160*96 grid
  Using the PBE Exchange-Correlation functional
  Interpolation: tri-quintic (5. degree polynomial)
  Poisson solver: Gauss-Seidel solver with 6 multi-grid levels
    Coarsest grid: 5 x 5 x 3 points
    Stencil: 6*3+1=19 point O(h^6) finite-difference Laplacian
    Max iterations: 1000
    Tolerance: 1.000000e-07

Total number of cores used: 16
Domain decomposition: 2 x 4 x 2

Number of atoms: 24
Number of atomic orbitals: 312
Number of bands in calculation: 98
Bands to converge: occupied states only
Number of valence electrons: 96

... initialized

Initializing position-dependent things.

Density initialized from atomic densities
  /        |           C  CC                      |
 *         |    C   CC  C        C                |
 |         |  C          C    C  C                |
 |         .-C-C---C-C----------C-C---------------.
 |        /    C C   C    C  C                   /
 |       /             C                        /

Positions:
   0 C     11.018861    5.898549    4.935852
   1 C     11.516983    7.100904    4.902350
   2 C     10.838546    8.281878    4.697688
   3 C     10.596033    9.708192    4.865049
   4 C      9.320646    4.053496    5.097806
   5 C     10.434850    4.724862    5.076700
   6 C      9.530624    8.761304    4.477195
   7 C      5.392185    8.824464    5.777172
   8 C      5.679253    3.437032    5.309392
   9 C      3.453317    7.613960    5.574594
  10 C      7.547506    9.927920    6.079185
  11 C      6.292227    9.906462    5.955954
  12 C      5.821230    6.144205    5.530180
  13 C      8.231229    3.193640    5.166810
  14 C      7.623718    7.619452    5.783774
  15 C      4.465677    5.535511    5.440128
  16 C      8.187501    6.278243    5.673598
  17 C      6.199631    7.574717    5.690599
  18 C      7.020895    3.892263    5.339407
  19 C      3.974626    8.810581    5.679516
  20 C      4.628810    4.129828    5.354420
  21 C      8.422937    8.818233    6.022144
  22 C      3.288245    6.325099    5.437312
  23 C      7.030295    5.348430    5.504043

Unit cell:
           periodic     x           y           z      points  spacing
  1. axis:    yes   16.000000    0.000000    0.000000    80     0.2000
  2. axis:    yes    0.000000   16.000000    0.000000    80     0.2000
  3. axis:    yes    0.000000    0.000000   10.000000    48     0.2083

Effective grid spacing dv^(1/3) = 0.2027

                     log10-error:    total        iterations:
           time      wfs    density  energy       fermi  poisson
iter:   1  15:13:08          +inf  -181.052458    3      6
iter:   2  15:13:09         -0.90  -180.299488    4      3
iter:   3  15:13:09         -0.93  -178.512402    33     4
iter:   4  15:13:10         -1.09  -178.020474    3      2
iter:   5  15:13:11         -1.14  -177.497259    32     4
iter:   6  15:13:11         -1.45  -177.451243    4      3
iter:   7  15:13:12         -1.62  -177.427715    3      3
iter:   8  15:13:13         -1.73  -177.395059    3      3
iter:   9  15:13:13         -1.84  -177.345584    4      3
iter:  10  15:13:14         -2.14  -177.338954    3      2
iter:  11  15:13:14         -2.36  -177.326266    3      2
iter:  12  15:13:15         -2.54  -177.327414    2      2
iter:  13  15:13:16         -2.61  -177.327415    3      2
iter:  14  15:13:16         -2.73  -177.330365    3      2
iter:  15  15:13:17         -3.04  -177.346031    3      1
iter:  16  15:13:17         -3.20  -177.336632    2      1
iter:  17  15:13:18         -3.37  -177.319710    3      1
iter:  18  15:13:19         -3.59  -177.329348    2      1
iter:  19  15:13:19         -3.75  -177.326689    2      1
iter:  20  15:13:20         -3.87  -177.324438    2      1
iter:  21  15:13:20         -4.02  -177.325068    2      1

Converged after 21 iterations.

Dipole moment: (0.015230, -0.074089, 0.045906) |e|*Ang

Energy contributions relative to reference atoms: (reference = -24663.074771)

Kinetic:       +102.651581
Potential:     -112.428725
External:        +0.000000
XC:            -170.399623
Entropy (-ST):   -0.284417
Local:           +2.993907
Free energy:   -177.467276
Extrapolated:  -177.325068

Fermi level: -4.69697

 Band  Eigenvalues  Occupancy
    0    -22.64013    2.00000
    1    -22.36616    2.00000
    2    -21.65999    2.00000
    3    -20.96476    2.00000
    4    -20.54499    2.00000
    5    -20.24363    2.00000
    6    -19.80134    2.00000
    7    -19.24077    2.00000
    8    -18.62878    2.00000
    9    -18.12338    2.00000
   10    -17.43346    2.00000
   11    -16.70063    2.00000
   12    -16.53171    2.00000
   13    -16.05992    2.00000
   14    -15.29471    2.00000
   15    -14.32019    2.00000
   16    -13.75970    2.00000
   17    -13.54224    2.00000
   18    -13.48105    2.00000
   19    -12.42574    2.00000
   20    -12.01149    2.00000
   21    -11.92920    2.00000
   22    -11.36243    2.00000
   23    -11.22773    2.00000
   24    -10.80661    2.00000
   25    -10.58693    2.00000
   26    -10.37781    2.00000
   27     -9.94862    2.00000
   28     -9.50116    2.00000
   29     -9.46682    2.00000
   30     -9.28939    2.00000
   31     -8.90612    2.00000
   32     -8.79754    2.00000
   33     -8.65995    2.00000
   34     -7.95645    2.00000
   35     -7.56441    2.00000
   36     -7.46141    2.00000
   37     -7.33285    2.00000
   38     -7.23122    2.00000
   39     -6.69223    2.00000
   40     -6.53130    2.00000
   41     -6.41504    2.00000
   42     -6.06408    2.00000
   43     -5.62275    1.99981
   44     -5.46838    1.99911
   45     -5.06751    1.95200
   46     -4.96195    1.86800
   47     -4.86480    1.68538
   48     -4.57683    0.46246
   49     -4.28874    0.03318
   50     -3.63993    0.00005
   51     -3.53903    0.00002
   52     -3.12824    0.00000
   53     -2.87800    0.00000
   54     -2.34182    0.00000
   55     -2.20092    0.00000
   56     -1.74341    0.00000
   57     -1.58760    0.00000
   58     -0.82710    0.00000
   59      0.01539    0.00000
[...]
   83      8.51360    0.00000
   84      8.74118    0.00000
   85      8.78683    0.00000
   86      8.91277    0.00000
   87      9.05086    0.00000
   88      9.22825    0.00000
   89      9.23822    0.00000
   90      9.40985    0.00000
   91      9.68531    0.00000
   92      9.77898    0.00000
   93      9.83169    0.00000
   94     10.05298    0.00000
   95     10.15151    0.00000
   96     10.24375    0.00000
   97     10.30893    0.00000

Forces in eV/Ang:
  0 C     1.10075   -0.52053    0.01488
  1 C    -1.25799    0.15395   -0.26011
  2 C     2.88290   -0.62996    0.21310
  3 C    -0.80339   -1.70781   -1.39711
  4 C    -2.57089   -3.30429    0.27459
  5 C     0.36212    1.38921   -0.09935
  6 C    -0.81605    2.80535    3.97547
  7 C    -0.06084   -0.54393   -0.12352
  8 C    -0.58894    0.11899    0.12321
  9 C     0.20383   -0.10621   -0.18942
 10 C     0.27942   -0.36661    0.02388
 11 C    -0.02568    0.53002    0.49000
 12 C    -0.68324   -0.06241    0.17555
 13 C     2.85176    2.79001   -0.10606
 14 C     1.44883   -0.07954    0.85292
 15 C     0.29551    0.49359   -0.10761
 16 C    -2.60641   -1.79132   -0.47175
 17 C    -0.53413    0.36795    0.65095
 18 C     0.43691   -0.52077   -0.26798
 19 C    -0.05569    0.16693    0.00855
 20 C     0.14405   -0.54021   -0.06325
 21 C    -0.99815   -0.47379   -4.11623
 22 C    -0.16450    0.02772    0.15527
 23 C     1.19586    1.79506    0.27659

System changes: positions

[...]

Density initialized from wave functions
  /        |           C  CC                      |
 *         |    C   CC  C        C                |
 |         |  C          C    C  C                |
 |         .-C-C---C--C---------CC----------------.
 |        /    C C   C    C  C                   /
 |       /             C                        /

[...]

Density initialized from wave functions
  /        |           C  CC                      |
 *         |    C   CC  C        C                |
 |         |  C          C    C  C                |
 |         .-C-C---C--C---------CC----------------.
 |        /    C C   C    C  C                   /
 |       /             C                        /

[...]

Density initialized from wave functions
  /        |           C  C                       |
 *         |    C   CC  C  C     C                |
 |         |  C          C    C  C                |
 |         .-C-C---C--C---------CC----------------.
 |        /    C C   C    C  C                   /
 |       /             C                        /

[...]

Density initialized from wave functions
  /        |           C  C                       |
 *         |    C   CC  C  C     C                |
 |         |  C          C    C  C                |
 |         .-C-C---C-C----------CC----------------.
 |        /    C C   C    C  C                   /
 |       /             C                        /

[...]

Density initialized from wave functions
  /        |           C  C                       |
 *         |    C   CC  C  C     C                |
 |         |  C    C     C    C  C                |
 |         .-C-C-----C----------CC----------------.
 |        /    C C   C    C  C                   /
 |       /             C                        /

[...]

Density initialized from wave functions
  /        |           C  C                       |
 *         |    C   CC  C  C     C                |
 |         |  C    C     C    C  C                |
 |         .-C-C-----C----------CC----------------.
 |        /    C C   C    C  C                   /
 |       /             C                        /

[...]

Density initialized from wave functions
  /        |           C  C                       |
 *         |    C   CC  C  C  C  C                |
 |         |  C    C     C       C                |
 |         .-C-C-----C----------CC----------------.
 |        /    C C   C    C  C                   /
 |       /             C                        /

[...]

Density initialized from wave functions
  /        |           C  C                       |
 *         |    C   CC  C  C  C  C                |
 |         |  C    C     C       C                |
 |         .-C-C-----C----------CC----------------.
 |        /    C C   C    C  C                   /
 |       /             C                        /

[...]

Density initialized from wave functions
  /        |        C  C  C                       |
 *         |    C    C  C  C  C  C                |
 |         | CC    C     C       C                |
 |         .---C-----C----------CC----------------.
 |        /    C C   C    C  C                   /
 |       /             C                        /

[...]

Density initialized from wave functions
  /        |        C  C  C                       |
 *         |    C    C  C  C  C  C                |
 |         | CC    C     C       C                |
 |         .---C-----C----------CC----------------.
 |        /    C C   C    C  C                   /
 |       /             C                        /

[...]

Density initialized from wave functions
  /        |        C C   C                       |
 *         |    C    C  C  C  C  C                |
 |         |  C    C     C       C                |
 |         .-C-C-----C----------CC----------------.
 |        /    C C   C    C  C                   /
 |       /             C                        /

[...]

Density initialized from wave functions
  /        |        C C   C                       |
 *         |    C    C  C  C  C  C                |
 |         |  C    C     C       C                |
 |         .-C-C-----C----------CC----------------.
 |        /    C C   C    C  C                   /
 |       /             C                        /

[...]

Density initialized from wave functions
  /        |        C C   C                       |
 *         |    C    C  C  C  C  C                |
 |         |  C    C     C       C                |
 |         .-C-C-----C-----------C----------------.
 |        /    C     C    C  C  C                /
 |       /       C     C                        /

[...]

Density initialized from wave functions
  /        |        C C  C                        |
 *         |    C    C  C  C  C  C                |
 |         |  C    C     C       C                |
 |         .-C-C-----C-----------C----------------.
 |        /    C     C    C  C  C                /
 |       /       C     C                        /

[...]

Density initialized from wave functions
  /        |        C C  C                        |
 *         |    C    C  C  C  C  C                |
 |         |  C    C             C                |
 |         .-C-C-----C---C-------C----------------.
 |        /    C     C    C  C  C                /
 |       /       C     C                        /

[...]

Density initialized from wave functions
  /        |        C C  C                        |
 *         |    C    C  C  C  C  C                |
 |         |  C    C             C                |
 |         .-C-C------C--C-------C----------------.
 |        /    C     C    C  C  C                /
 |       /       C     C                        /

[...]

Density initialized from wave functions
  /        |        C C  C                        |
 *         |    C    C  C  C  C  C                |
 |         |  C    C             C                |
 |         .-C-C------C--C-------C----------------.
 |        /    C     C    C  C  C                /
 |       /       C     C                        /

[...]

Density initialized from wave functions
  /        |        C C  C                        |
 *         |    C    C     C  C  C                |
 |         |  C    C    C        C                |
 |         .-C-C------C--C-------C----------------.
 |        /    C     C    C  C  C                /
 |       /       C     C                        /

[...]

Density initialized from wave functions
  /        |        C C  C                        |
 *         |    C    C     C  C  C                |
 |         |  C    C    C        C                |
 |         .-C-C------C--C-------C----------------.
 |        /    C     C    C C   C                /
 |       /       C     C                        /

[...]

Density initialized from wave functions
  /        |          C  C                        |
 *         |    C   CC     C  C  C                |
 |         |  C    C    C        C                |
 |         .-C-C------C--C-------C----------------.
 |        /    C     C    C C   C                /
 |       /       C     C                        /

[...]

Density initialized from wave functions
  /        |          C  C                        |
 *         |    C   CC     C  C   C               |
 |         |  C    C     C       C                |
 |         .-C-C------C--C-------C----------------.
 |        /    C    C     C C   C                /
 |       /       C     C                        /

[...]

Density initialized from wave functions
  /        |          C  C                        |
 *         |    C   CC     C  C   C               |
 |         |  C    C     C       C                |
 |         .-C-C------C--C--C----C----------------.
 |        /    C    C     C     C                /
 |       /       C     C                        /

[...]

Density initialized from wave functions
  /        |          C  C                        |
 *         |    C   CC     C   C  C               |
 |         |  C          C       C                |
 |         .-C-C---C--C--C--C--C-C----------------.
 |        /    C    C     C                      /
 |       /       C     C                        /

[...]

Density initialized from wave functions
  /        |          C   C                       |
 *         |    C   CC     C   C  C               |
 |         |  C          C       C                |
 |         .-C-C---C--C--C--C--C-C----------------.
 |        /    C    C     C                      /
 |       /       C     C                        /

[...]

Density initialized from wave functions
  /        |          C   C                       |
 *         |    C   C      C   C  C               |
 |         |  C      C   C       C                |
 |         .-C-C---C--C--C--C--C-C----------------.
 |        /    C    C     C                      /
 |       /       C     C                        /

[...]

Density initialized from wave functions
  /        |          C   C                       |
 *         |    C   C      C   C  C               |
 |         |  C      C   C       C                |
 |         .-C-C---C--C--C--C--C-C----------------.
 |        /    C    C     C                      /
 |       /       C     C                        /

[...]

Density initialized from wave functions
  /        |          C   C                       |
 *         |    C   C      C   C  C               |
 |         | CC      C   C       C                |
 |         .---C---C--C--C--C--C-C----------------.
 |        /    C    C     C                      /
 |       /       C     C                        /

[...]

Density initialized from wave functions
  /        |           C  C                       |
 *         |    C   C      C   C  C               |
 |         | CC      C   C       C                |
 |         .---C---C-C---C--C--C-C----------------.
 |        /    C    C     C                      /
 |       /       C     C                        /

[...]

Density initialized from wave functions
  /        |           C  C                       |
 *         |    C   C      C   C  C               |
 |         | CC      C   C       C                |
 |         .---C---C-C---C-C---C-C----------------.
 |        /    C    C     C                      /
 |       /       C     C                        /

[...]

Density initialized from wave functions
  /        |           C  C                       |
 *         |    C   C      C   C  C               |
 |         | CC      C   C       C                |
 |         .---C---C-C---C-C---C-C----------------.
 |        /    C    C     C                      /
 |       /       C     C                        /

[...]

Density initialized from wave functions
  /        |           C  C                       |
 *         |  C C   C      C   C  C               |
 |         | C       C   C       C                |
 |         .---C---C-C---C-C---C-C----------------.
 |        /    C    C     C                      /
 |       /       C     C                        /

[...]

System changes: positions

Initializing position-dependent things.

Density initialized from wave functions
  /        |           C  C                       |
 *         |  C C   C      C   C  C               |
 |         | C       C   C       C                |
 |         .---C---C-C---C-C---C-C----------------.
 |        /    C    C     C                      /
 |       /       C     C                        /

Positions:
   0 C     10.747157    6.005169    5.043671
   1 C     11.269447    7.134263    4.957308
   2 C     11.113106    8.505769    4.934269
   3 C     10.978126    9.956465    4.854680
   4 C      9.289009    3.933811    5.174407
   5 C      9.501709    5.328032    5.187972
   6 C      9.873213    9.080310    5.151590
   7 C      5.495636    8.689150    5.818119
   8 C      5.610078    3.318896    5.305737
   9 C      3.537909    7.528178    5.687544
  10 C      7.622854    9.807095    5.802140
  11 C      6.375922    9.789677    5.940044
  12 C      5.833599    6.079579    5.484298
  13 C      8.244528    3.229307    5.229574
  14 C      7.778894    7.476540    5.450777
  15 C      4.474201    5.498887    5.461761
  16 C      8.217251    6.019402    5.321390
  17 C      6.313855    7.469667    5.597377
  18 C      6.950910    3.769821    5.309245
  19 C      4.071908    8.709465    5.847802
  20 C      4.616837    4.088007    5.355297
  21 C      8.496992    8.748068    5.468537
  22 C      3.259175    6.251518    5.560335
  23 C      7.010492    5.237664    5.381104

Unit cell:
           periodic     x           y           z      points  spacing
  1. axis:    yes   16.000000    0.000000    0.000000    80     0.2000
  2. axis:    yes    0.000000   16.000000    0.000000    80     0.2000
  3. axis:    yes    0.000000    0.000000   10.000000    48     0.2083

Effective grid spacing dv^(1/3) = 0.2027

                     log10-error:    total        iterations:
           time      wfs    density  energy       fermi  poisson
iter:   1  15:22:34          +inf  -184.643440    3      5
iter:   2  15:22:35         -2.98  -184.642472    2      1
iter:   3  15:22:35         -3.05  -184.640728    2      1
iter:   4  15:22:36         -3.22  -184.640379    2      1
iter:   5  15:22:36         -3.40  -184.639352    2      1
iter:   6  15:22:37         -3.46  -184.639854    2      1
iter:   7  15:22:37         -3.79  -184.639997    2      1
iter:   8  15:22:38         -3.69  -184.639588    2      1
iter:   9  15:22:39         -4.20  -184.639675    2      1

Converged after 9 iterations.

Dipole moment: (0.161611, -0.483676, 0.053545) |e|*Ang

Energy contributions relative to reference atoms: (reference = -24663.074771)

Kinetic:       +115.977733
Potential:     -124.307629
External:        +0.000000
XC:            -179.217765
Entropy (-ST):   -0.148582
Local:           +2.982276
Free energy:   -184.713966
Extrapolated:  -184.639675

Fermi level: -4.45124

 Band  Eigenvalues  Occupancy
    0    -22.99536    2.00000
    1    -22.75638    2.00000
    2    -21.83796    2.00000
    3    -21.37551    2.00000
    4    -20.54362    2.00000
    5    -20.41648    2.00000
    6    -19.84324    2.00000
    7    -19.40891    2.00000
    8    -18.57805    2.00000
    9    -18.30084    2.00000
   10    -17.78832    2.00000
   11    -17.18038    2.00000
   12    -16.55708    2.00000
   13    -16.08289    2.00000
   14    -15.43943    2.00000
   15    -14.96932    2.00000
   16    -14.24896    2.00000
   17    -14.03955    2.00000
   18    -13.22112    2.00000
   19    -12.96948    2.00000
   20    -12.67908    2.00000
   21    -12.01584    2.00000
   22    -11.98565    2.00000
   23    -10.99082    2.00000
   24    -10.93267    2.00000
   25    -10.77720    2.00000
   26    -10.72186    2.00000
   27    -10.40980    2.00000
   28    -10.02395    2.00000
   29     -9.68820    2.00000
   30     -9.61486    2.00000
   31     -9.48669    2.00000
   32     -9.07077    2.00000
   33     -8.57430    2.00000
   34     -8.47292    2.00000
   35     -8.16036    2.00000
   36     -7.38398    2.00000
   37     -7.25500    2.00000
   38     -7.11109    2.00000
   39     -6.97328    2.00000
   40     -6.61922    2.00000
   41     -6.55855    2.00000
   42     -6.44679    2.00000
   43     -6.32755    2.00000
   44     -5.93817    2.00000
   45     -5.71149    1.99999
   46     -4.74771    1.90190
   47     -4.73559    1.88996
   48     -4.23595    0.20811
   49     -3.27368    0.00002
   50     -3.25850    0.00001
   51     -3.07512    0.00000
   52     -2.88263    0.00000
   53     -2.84216    0.00000
   54     -1.74901    0.00000
   55     -1.58133    0.00000
   56     -1.22110    0.00000
   57     -0.98040    0.00000
   58     -0.32014    0.00000
   59     -0.01833    0.00000
[...]
   83      8.78032    0.00000
   84      8.82386    0.00000
   85      9.04316    0.00000
   86      9.31151    0.00000
   87      9.40466    0.00000
   88      9.44640    0.00000
   89      9.46786    0.00000
   90      9.62211    0.00000
   91      9.74387    0.00000
   92      9.87750    0.00000
   93     10.11310    0.00000
   94     10.19607    0.00000
   95     10.26267    0.00000
   96     10.32956    0.00000
   97     10.58194    0.00000

Forces in eV/Ang:
  0 C    -0.04421    0.00303    0.03453
  1 C    -0.03845   -0.04888    0.02111
  2 C     0.03648   -0.03578   -0.00431
  3 C    -0.04097   -0.05927    0.06556
  4 C     0.00663    0.06149    0.01380
  5 C     0.02190    0.00057   -0.03819
  6 C     0.01559   -0.01877    0.00024
  7 C    -0.00174    0.04540   -0.05217
  8 C    -0.00719   -0.04242    0.00771
  9 C    -0.02903   -0.02910   -0.01088
 10 C     0.02891    0.04220   -0.04658
 11 C     0.01107    0.05590    0.04135
 12 C     0.02061   -0.01037    0.03035
 13 C     0.02651   -0.02572   -0.03977
 14 C     0.04582    0.03465    0.00955
 15 C     0.01950   -0.01779    0.02918
 16 C    -0.01057    0.01678    0.04308
 17 C     0.03145    0.04523   -0.03379
 18 C     0.02578   -0.06641   -0.05835
 19 C    -0.03117    0.03475    0.02608
 20 C    -0.00890   -0.06232    0.02695
 21 C     0.01025    0.03571   -0.02887
 22 C    -0.03003    0.01382   -0.00627
 23 C    -0.00147   -0.04174   -0.06876