User:   esb@s65n32.grendel.cscaa.dk
Date:   Thu Nov  9 10:02:33 2017
Arch:   x86_64
Pid:    22443
Python: 2.7.13
gpaw:   /home/esb/DFT/gpaw_git/gpaw
_gpaw:  /home/esb/DFT/gpaw_git/build/bin.linux-x86_64-2.7/gpaw-python
ase:    /home/esb/DFT/ase_git/ase (version 3.15.0b1)
numpy:  /comm/swstack/core/python/2.7.13/lib/python2.7/site-packages/numpy (version 1.13.3)
scipy:  /comm/swstack/core/python/2.7.13/lib/python2.7/site-packages/scipy (version 0.19.1)
units:  Angstrom and eV
cores:  16
Extra parameters: {'blacs': True}

Input parameters:
  basis: dzp
  gpts: [80 80 48]
  kpts: [1 1 1]
  maxiter: 99
  mixer: {backend: pulay,
          beta: 0.05,
          method: separate,
          nmaxold: 5,
          weight: 75}
  mode: lcao
  nbands: -50
  occupations: {name: fermi-dirac,
                width: 0.1}
  poissonsolver: {eps: 1e-07,
                  name: fd,
                  nn: 3,
                  relax: GS}
  xc: PBE

System changes: positions, numbers, cell, pbc, initial_charges, initial_magmoms

Initialize ...

C-setup:
  name: Carbon
  id: 4aa54d4b901d75f77cc0ea3eec22967b
  Z: 6
  valence: 4
  core: 2
  charge: 0.0
  file: /home/esb/DFT/gpaw-setups-0.8.7929/C.PBE.gz
  cutoffs: 0.64(comp), 1.14(filt), 1.14(core), lmax=2
  valence states:
                energy  radius
    2s(2.00)   -13.751   0.635
    2p(2.00)    -5.284   0.635
    *s          13.461   0.635
    *p          21.927   0.635
    *d           0.000   0.635

  LCAO basis set for C:
    Name: dzp
    File: /home/esb/DFT/gpaw-setups-0.8.7929/C.dzp.basis.gz
    Number of radial functions: 5
    Number of spherical harmonics: 13
      l=0, rc=5.5469 Bohr: 2s-sz confined orbital
      l=1, rc=6.6719 Bohr: 2p-sz confined orbital
      l=0, rc=3.0312 Bohr: 2s-dz split-valence wave
      l=1, rc=3.7500 Bohr: 2p-dz split-valence wave
      l=2, rc=6.6719 Bohr: d-type Gaussian polarization

Reference energy: -24663.074771

Spin-paired calculation

Occupation numbers:
  Fermi-Dirac: width=0.1000 eV

Convergence criteria:
  Maximum total energy change: 0.0005 eV / electron
  Maximum integral of absolute density change: 0.0001 electrons
  Maximum integral of absolute eigenstate change: 4e-08 eV^2
  Maximum number of iterations: 99

Symmetries present (total): 1

  ( 1  0  0)
  ( 0  1  0)
  ( 0  0  1)

1 k-point (Gamma)
1 k-point in the irreducible part of the Brillouin zone
       k-points in crystal coordinates                weights
   0:     0.00000000    0.00000000    0.00000000          1/1

Wave functions: LCAO
  Diagonalizer: Serial LAPACK
  Atomic Correction: dense with blas
  Datatype: float
  Eigensolver: None

LCAO using direct dense diagonalizer

Densities:
  Coarse grid: 80*80*48 grid
  Fine grid: 160*160*96 grid
  Total Charge: 0.000000

Density mixing:
  Method: separate
  Backend: pulay
  Linear mixing parameter: 0.05
  Mixing with 5 old densities
  Damping of long wave oscillations: 75

Hamiltonian:
  XC and Coulomb potentials evaluated on a 160*160*96 grid
  Using the PBE Exchange-Correlation functional
  Interpolation: tri-quintic (5. degree polynomial)
  Poisson solver: Gauss-Seidel solver with 6 multi-grid levels
    Coarsest grid: 5 x 5 x 3 points
    Stencil: 6*3+1=19 point O(h^6) finite-difference Laplacian
    Max iterations: 1000
    Tolerance: 1.000000e-07

Total number of cores used: 16
Domain decomposition: 2 x 4 x 2

Number of atoms: 24
Number of atomic orbitals: 312
Number of bands in calculation: 98
Bands to converge: occupied states only
Number of valence electrons: 96

... initialized

Initializing position-dependent things.

Density initialized from atomic densities
  /        |    C   C C  C                        |
 *         |  C            C  CC C                |
 |         | C       C   C        C               |
 |         .--C------C---C--C--C------------------.
 |        /      C C C    C                      /
 |       /             C                        /

Positions:
   0 C      9.756382    7.924533    5.608263
   1 C     10.502907    6.882596    6.201961
   2 C     10.773867    6.150322    5.188351
   3 C     11.782285    6.925386    5.174675
   4 C     10.958559    9.162022    4.984830
   5 C      9.367469    4.132462    5.116581
   6 C      9.519101    5.543678    5.209460
   7 C      9.684321    9.179426    5.015138
   8 C      7.474601    9.965105    5.679214
   9 C      6.241915    9.843237    5.865144
  10 C      8.349364    3.398632    5.171257
  11 C      7.701780    7.586696    5.400398
  12 C      8.198879    6.195252    5.294327
  13 C      6.237274    7.531132    5.555899
  14 C      7.023028    3.875364    5.245263
  15 C      8.368230    8.896932    5.361862
  16 C      7.020796    5.340016    5.298345
  17 C      3.738868    9.753215    5.559174
  18 C      3.254739    8.578535    5.619586
  19 C      4.956079   10.317818    5.368125
  20 C      3.184679    7.247643    5.431690
  21 C      3.894658    6.206526    5.259086
  22 C      5.024650    5.647637    4.664863
  23 C      5.905748    6.451393    3.771839

Unit cell:
           periodic     x           y           z      points  spacing
  1. axis:    yes   16.000000    0.000000    0.000000    80     0.2000
  2. axis:    yes    0.000000   16.000000    0.000000    80     0.2000
  3. axis:    yes    0.000000    0.000000   10.000000    48     0.2083

Effective grid spacing dv^(1/3) = 0.2027

                     log10-error:    total        iterations:
           time      wfs    density  energy       fermi  poisson
iter:   1  10:02:35          +inf  -165.589310    2      6
iter:   2  10:02:35         -0.87  -164.158493    3      3
iter:   3  10:02:36         -0.93  -162.405258    4      3
iter:   4  10:02:36         -1.02  -161.067980    34     3
iter:   5  10:02:37         -1.20  -160.784201    34     3
iter:   6  10:02:38         -1.38  -160.634839    4      3
iter:   7  10:02:38         -1.54  -160.594506    3      3
iter:   8  10:02:39         -1.77  -160.570877    3      2
iter:   9  10:02:39         -1.85  -160.545027    3      2
iter:  10  10:02:40         -1.95  -160.521406    3      2
iter:  11  10:02:40         -2.18  -160.516477    3      2
iter:  12  10:02:41         -2.42  -160.511322    2      2
iter:  13  10:02:41         -2.51  -160.513164    2      2
iter:  14  10:02:42         -2.57  -160.515952    3      2
iter:  15  10:02:42         -2.81  -160.514802    3      2
iter:  16  10:02:43         -3.16  -160.509630    2      1
iter:  17  10:02:44         -3.24  -160.505662    3      1
iter:  18  10:02:44         -3.42  -160.512131    2      1
iter:  19  10:02:45         -3.54  -160.514120    2      1
iter:  20  10:02:45         -3.67  -160.509401    2      1
iter:  21  10:02:46         -3.85  -160.511340    2      1
iter:  22  10:02:46         -3.92  -160.510442    2      1
iter:  23  10:02:47         -4.02  -160.510476    2      1

Converged after 23 iterations.

Dipole moment: (-0.756317, -0.103692, 0.161575) |e|*Ang

Energy contributions relative to reference atoms: (reference = -24663.074771)

Kinetic:       +137.918205
Potential:     -131.719374
External:        +0.000000
XC:            -169.423764
Entropy (-ST):   -0.399019
Local:           +2.913966
Free energy:   -160.709985
Extrapolated:  -160.510476

Fermi level: -4.40972

 Band  Eigenvalues  Occupancy
    0    -25.53153    2.00000
    1    -24.30143    2.00000
    2    -22.12636    2.00000
    3    -21.10067    2.00000
    4    -20.79253    2.00000
    5    -20.27106    2.00000
    6    -19.64223    2.00000
    7    -19.40441    2.00000
    8    -18.84910    2.00000
    9    -18.13294    2.00000
   10    -17.41645    2.00000
   11    -17.30217    2.00000
   12    -16.80307    2.00000
   13    -16.01712    2.00000
   14    -15.50978    2.00000
   15    -14.73938    2.00000
   16    -14.31602    2.00000
   17    -14.21022    2.00000
   18    -13.52955    2.00000
   19    -13.20295    2.00000
   20    -12.51144    2.00000
   21    -12.14740    2.00000
   22    -12.05855    2.00000
   23    -11.34047    2.00000
   24    -11.18150    2.00000
   25    -10.16960    2.00000
   26     -9.78554    2.00000
   27     -9.66811    2.00000
   28     -9.46714    2.00000
   29     -9.14068    2.00000
   30     -8.83545    2.00000
   31     -8.75903    2.00000
   32     -8.32468    2.00000
   33     -8.21278    2.00000
   34     -8.03800    2.00000
   35     -7.68177    2.00000
   36     -7.63219    2.00000
   37     -7.38524    2.00000
   38     -6.94996    2.00000
   39     -6.71311    2.00000
   40     -6.46739    2.00000
   41     -6.03668    2.00000
   42     -5.67417    1.99999
   43     -5.66059    1.99999
   44     -5.16398    1.99894
   45     -4.94785    1.99084
   46     -4.60061    1.74178
   47     -4.48367    1.35377
   48     -4.35895    0.75145
   49     -4.16716    0.16247
   50     -3.58685    0.00053
   51     -3.49641    0.00022
   52     -3.18183    0.00001
   53     -3.07064    0.00000
   54     -2.74325    0.00000
   55     -2.44985    0.00000
   56     -2.39693    0.00000
   57     -1.58062    0.00000
   58     -1.45371    0.00000
   59     -1.14851    0.00000
[...]
   83      8.23300    0.00000
   84      8.27443    0.00000
   85      8.38885    0.00000
   86      8.79483    0.00000
   87      8.94247    0.00000
   88      8.95983    0.00000
   89      9.05765    0.00000
   90      9.17471    0.00000
   91      9.40233    0.00000
   92      9.48590    0.00000
   93      9.65734    0.00000
   94      9.74801    0.00000
   95      9.82575    0.00000
   96      9.96009    0.00000
   97     10.15129    0.00000

Forces in eV/Ang:
  0 C     3.16991   -1.08127    4.91916
  1 C    -2.39282    9.77580    7.91598
  2 C    -0.88807   -9.74410   -7.90920
  3 C     6.14622    2.49270   -0.34532
  4 C     5.33160    0.90298   -0.51873
  5 C     1.78210    0.60456    0.21866
  6 C    -2.32619   -3.76932   -1.98981
  7 C    -2.56295    0.85484   -2.19405
  8 C     2.97569   -0.19364    0.07426
  9 C    -6.27854    1.65859   -1.22531
 10 C    -2.61936    0.93810    0.46130
 11 C    -1.41837   -0.98733   -0.79164
 12 C    -1.38529   -0.10899   -0.22748
 13 C     1.65604    1.03854   -0.95720
 14 C     0.55739    2.03861   -0.13308
 15 C    -3.85336    0.34988    0.84983
 16 C     0.19423   -3.04228   -1.45638
 17 C     2.62400    2.04245    0.15454
 18 C    -1.17281   -3.43921   -0.77961
 19 C     0.43624   -1.33293    1.74261
 20 C    -0.98953    2.40330    1.03092
 21 C     2.65753   -1.75989   -1.40363
 22 C    -0.57640    2.51318   -1.17777
 23 C    -1.05587   -2.14297    3.82539

System changes: positions

[...]

Density initialized from wave functions
  /        |    C   C C  C                        |
 *         |  C            C  CC C                |
 |         | C       C   C        C               |
 |         .--C------C---C--C--C------------------.
 |        /      C C C    C                      /
 |       /             C                        /

[...]

Density initialized from wave functions
  /        |    C  C  C  C                        |
 *         |  C            C  CC  C               |
 |         | C       C  C         C               |
 |         .--C------C---C--C--C------------------.
[...]
 *         |                  C   C               |
 |         |C          C   C      C               |
 |         .-C--C--C--C--C--C--C------------------.
 |        /          C    C                      /
 |       /          C  C                        /

[...]

Density initialized from wave functions
   /       |    C  C            C                 |
  /        | C        C          C                |
 *         |C                 C   C               |
 |         |           C   C      C               |
 |         .-C--C--C--C--C--C--C------------------.
 |        /          C    C                      /
 |       /          C  C                        /

[...]

Density initialized from wave functions
   /       |    C  C            C                 |
  /        | C        C          C                |
 *         |C                 C   C               |
 |         |           C   C      C               |
 |         .-C--C--C--C--C--C--C------------------.
 |        /          C    C                      /
 |       /          C  C                        /

[...]

Density initialized from wave functions
   /       |    C  C            C                 |
  /        | C        C          C                |
 *         |C          C      C   C               |
 |         |               C      C               |
 |         .-C--C--C--C--C--C--C------------------.
 |        /          C    C                      /
 |       /          C  C                        /

[...]

Density initialized from wave functions
   /       |    C  C             C                |
  /        | C        C          C                |
 *         |C          C      C   C               |
 |         |               C      C               |
 |         .-C--C--C--C--C--C--C------------------.
 |        /          C    C                      /
 |       /          C  C                        /

[...]

Density initialized from wave functions
   /       |    C  C             C                |
  /        | C       C        C  C                |
 *         |C          C          C               |
 |         |               C     C                |
 |         .-C--C---C-C--C--C--C------------------.
 |        /          C    C                      /
 |       /          C  C                        /

[...]

Density initialized from wave functions
   /       |    C  C             C                |
  /        | C       C        C  C                |
 *         |C          C   C      C               |
 |         |                     C                |
 |         .-C--C---C-C--C--C--C------------------.
 |        /          C    C                      /
 |       /          C  C                        /

[...]

Density initialized from wave functions
   /       |    C                C                |
  /        | C     C  C       C  C                |
 *         |C          C   C      C               |
 |         |                     C                |
 |         .--C-C---C-C--CC-C--C------------------.
 |        /          C    C                      /
 |       /          C  C                        /

[...]

Density initialized from wave functions
   /       |    C                C                |
  /        | C     C  C       C  C                |
 *         |C          C   C      C               |
 |         |                     C                |
 |         .--C-C---C-C--C-C---C------------------.
 |        /          C    C                      /
 |       /          C  C                        /

[...]

Density initialized from wave functions
   /       |    C                C                |
  /        | C     C  C       C  C                |
 *         |C          C   C      C               |
 |         |                     C                |
 |         .-C--C---C-C--C-C---C------------------.
 |        /          C    C                      /
 |       /          C  C                        /

[...]

Density initialized from wave functions
   /       |    C                C                |
  /        | C     C  C       C   C               |
 *         |C          C   C      C               |
 |         |                     C                |
 |         .-C--C---C-C--CCC---C------------------.
 |        /          C    C                      /
 |       /          C  C                        /

[...]

Density initialized from wave functions
   /       |    C                C                |
  /        | C     C  C       C   C               |
 *         |C          C   C      C               |
 |         |                     C                |
 |         .-C--C---C-C--CCC---C------------------.
 |        /          C    C                      /
 |       /          C  C                        /

[...]

Density initialized from wave functions
   /       |    C                C                |
  /        | C     C  C       C   C               |
 *         |C          C   C      C               |
 |         |                     C                |
 |         .--C-C---C-C--CCC---C------------------.
 |        /          C    C                      /
 |       /          C  C                        /

[...]

Density initialized from wave functions
   /       |    C                C                |
  /        | C     C  C       C   C               |
 *         |C          C   C      C               |
 |         |                     C                |
 |         .-C--C---C-C--C-C---C------------------.
 |        /          C    C                      /
 |       /          C  C                        /

[...]

Density initialized from wave functions
   /       |    C                C                |
  /        | C     C  C       C   C               |
 *         |C          C   C      C               |
 |         |             C       C                |
 |         .-C--C---C-C--C-C---C------------------.
 |        /          C    C                      /
 |       /          C  C                        /

[...]

Density initialized from wave functions
   /       |    C                C                |
  /        | C     C  C       C   C               |
 *         |C          C   C      C               |
 |         |          C  C       C                |
 |         .-C--C---C----C-C---C------------------.
 |        /          C    C                      /
 |       /          C  C                        /

[...]

Density initialized from wave functions
   /       |    C                C                |
  /        | C     C  C       C   C               |
 *         |C          C   C      C               |
 |         | C        C  C       C                |
 |         .----C---C----C-C---C------------------.
 |        /          C    C                      /
 |       /          C  C                        /

[...]

Density initialized from wave functions
   /       |    C                C                |
  /        | C     C C        C   C               |
 *         |C          C   C      C               |
 |         | C        C  C       C                |
 |         .----C--C-----C-C---C------------------.
 |        /          C    C                      /
 |       /          C  C                        /

[...]

Density initialized from wave functions
   /       |    C                C                |
  /        | C     C C        C   C               |
 *         |C          C   C      C               |
 |         | C        C  C       C                |
 |         .----C--C-----C-C---C------------------.
 |        /          C    C                      /
 |       /          C  C                        /

[...]

Density initialized from wave functions
   /       |    C  C             C                |
  /        | C       C        C   C               |
 *         |C          C   C      C               |
 |         | C        C  C       C                |
 |         .----C--C-----C-C---C------------------.
 |        /          C    C                      /
 |       /          C  C                        /

[...]

Density initialized from wave functions
   /       |    C  C             C                |
  /        | C       C        C   C               |
 *         |C          C   C      C               |
 |         | C        C  C       C                |
 |         .----C--C-----C-C---C------------------.
 |        /          C    C                      /
 |       /          C  C                        /

[...]

Density initialized from wave functions
   /       |    C  C             C                |
  /        | C       C        C   C               |
 *         |C          C   C      C               |
 |         | C        C  C       C                |
 |         .----C--C-----C-----C------------------.
 |        /          C    CC                     /
 |       /          C  C                        /

[...]

Density initialized from wave functions
   /       |    C  C             C                |
  /        | C       C        C   C               |
 *         |C          C   C      C               |
 |         | C        C  C       C                |
 |         .----C--C-----C-----C------------------.
 |        /          C    CC                     /
 |       /          C  C                        /

[...]

Density initialized from wave functions
   /       |    C  C             C                |
  /        | C       C        C   C               |
 *         |C          C   C      C               |
 |         | C        C  C       C                |
 |         .----C--C-----C-----C------------------.
 |        /          C     C                     /
 |       /          C  C  C                     /

[...]

Density initialized from wave functions
   /       |   C   C             C                |
  /        | C       C        C   C               |
 *         |C          C   C      C               |
 |         | C        C  C       C                |
 |         .----C--C-----C-----C------------------.
 |        /         CC      C                    /
 |       /             C  C                     /

[...]

Density initialized from wave functions
   /       |   C   C             C                |
  /        | C       C        C   C               |
 *         |C          C   C      C               |
 |         | C        C  C       C                |
 |         .----C--C-----C-----C------------------.
 |        /         CC      C                    /
 |       /             C  C                     /

[...]

System changes: positions

Initializing position-dependent things.

Density initialized from wave functions
   /       |   C   C             C                |
  /        | C       C        C   C               |
 *         |C          C   C      C               |
 |         | C        C  C       C                |
 |         .----C--C-----C-----C------------------.
 |        /          C      C                    /
 |       /          C  C  C                     /

Positions:
   0 C     10.924983    9.583195    5.566326
   1 C     11.488699    8.418328    5.478877
   2 C     10.721127    6.021599    5.125076
   3 C     11.347805    7.106017    5.310168
   4 C     10.245334   10.834145    5.647999
   5 C      9.365402    3.846510    4.928996
   6 C      9.542181    5.276789    5.013189
   7 C      9.375215    9.788065    5.457523
   8 C      6.775592    9.142301    5.389340
   9 C      5.813460   10.054829    5.687124
  10 C      8.085363    3.596956    4.939934
  11 C      8.086541    7.498832    5.132218
  12 C      8.314814    6.101170    5.038309
  13 C      6.631418    7.720923    5.177405
  14 C      6.837665    4.055964    4.964471
  15 C      8.306078    8.918050    5.313529
  16 C      6.966450    5.457200    5.021648
  17 C      3.330472   10.106657    6.076121
  18 C      2.430586    9.157365    5.895387
  19 C      4.590607   10.414242    5.890251
  20 C      2.543378    7.878158    5.721057
  21 C      3.324515    6.863662    5.356801
  22 C      4.522968    6.459664    5.215783
  23 C      5.907528    6.505302    5.114493

Unit cell:
           periodic     x           y           z      points  spacing
  1. axis:    yes   16.000000    0.000000    0.000000    80     0.2000
  2. axis:    yes    0.000000   16.000000    0.000000    80     0.2000
  3. axis:    yes    0.000000    0.000000   10.000000    48     0.2083

Effective grid spacing dv^(1/3) = 0.2027

                     log10-error:    total        iterations:
           time      wfs    density  energy       fermi  poisson
iter:   1  10:20:54          +inf  -182.445937    2      5
iter:   2  10:20:54         -2.30  -182.456280    2      2
iter:   3  10:20:55         -2.87  -182.452749    2      1
iter:   4  10:20:55         -3.03  -182.448591    2      1
iter:   5  10:20:56         -2.98  -182.462012    2      1
iter:   6  10:20:56         -2.72  -182.451151    2      1
iter:   7  10:20:57         -3.51  -182.451545    2      1
iter:   8  10:20:57         -3.73  -182.451139    2      1
iter:   9  10:20:58         -3.90  -182.451467    2      1
iter:  10  10:20:58         -4.08  -182.451678    2      1

Converged after 10 iterations.

Dipole moment: (-0.611381, 0.416695, 0.067315) |e|*Ang

Energy contributions relative to reference atoms: (reference = -24663.074771)

Kinetic:       +107.645899
Potential:     -116.138580
External:        +0.000000
XC:            -176.874142
Entropy (-ST):   -0.223280
Local:           +3.026785
Free energy:   -182.563318
Extrapolated:  -182.451678

Fermi level: -4.26940

 Band  Eigenvalues  Occupancy
    0    -22.96805    2.00000
    1    -22.50835    2.00000
    2    -21.41703    2.00000
    3    -21.09718    2.00000
    4    -20.50327    2.00000
    5    -19.99069    2.00000
    6    -19.67220    2.00000
    7    -19.33700    2.00000
    8    -18.83258    2.00000
    9    -17.87699    2.00000
   10    -17.75430    2.00000
   11    -17.63343    2.00000
   12    -16.83473    2.00000
   13    -16.28349    2.00000
   14    -15.60441    2.00000
   15    -15.12398    2.00000
   16    -14.40462    2.00000
   17    -14.14105    2.00000
   18    -13.76391    2.00000
   19    -13.32007    2.00000
   20    -12.82999    2.00000
   21    -11.71619    2.00000
   22    -11.25254    2.00000
   23    -11.06719    2.00000
   24    -10.47528    2.00000
   25    -10.22379    2.00000
   26    -10.11290    2.00000
   27     -9.78248    2.00000
   28     -9.65595    2.00000
   29     -9.56523    2.00000
   30     -9.40345    2.00000
   31     -9.30867    2.00000
   32     -9.09405    2.00000
   33     -8.67507    2.00000
   34     -8.47256    2.00000
   35     -7.89789    2.00000
   36     -7.87317    2.00000
   37     -7.67343    2.00000
   38     -7.47740    2.00000
   39     -6.93564    2.00000
   40     -6.57781    2.00000
   41     -6.44428    2.00000
   42     -6.26397    2.00000
   43     -5.40704    1.99998
   44     -5.36758    1.99997
   45     -5.20660    1.99983
   46     -4.86691    1.99493
   47     -4.38671    1.52743
   48     -4.15350    0.47769
   49     -3.28488    0.00011
   50     -3.24667    0.00007
   51     -2.65876    0.00000
   52     -2.53697    0.00000
   53     -1.77992    0.00000
   54     -1.73439    0.00000
   55     -1.58779    0.00000
   56     -1.22095    0.00000
   57     -1.02104    0.00000
   58     -0.65001    0.00000
   59     -0.22884    0.00000
[...]
   83      8.99757    0.00000
   84      9.05458    0.00000
   85      9.10274    0.00000
   86      9.11950    0.00000
   87      9.19366    0.00000
   88      9.38352    0.00000
   89      9.48234    0.00000
   90      9.70368    0.00000
   91      9.73655    0.00000
   92     10.03712    0.00000
   93     10.05827    0.00000
   94     10.11362    0.00000
   95     10.20716    0.00000
   96     10.36036    0.00000
   97     10.47515    0.00000

Forces in eV/Ang:
  0 C     0.03150    0.00870   -0.03928
  1 C    -0.00159   -0.05845   -0.02868
  2 C    -0.00615    0.00893    0.05430
  3 C     0.00301   -0.04811   -0.04166
  4 C    -0.03228    0.01935   -0.01079
  5 C     0.01199    0.01675    0.01648
  6 C     0.03339    0.03240    0.01931
  7 C     0.01433    0.01027    0.05891
  8 C     0.03355    0.04581    0.05292
  9 C     0.03743    0.00771    0.01469
 10 C     0.05585   -0.03815   -0.05513
 11 C    -0.00858   -0.02541    0.05430
 12 C     0.01209    0.00436    0.02388
 13 C    -0.00371   -0.09536   -0.01389
 14 C     0.02508    0.01809   -0.02780
 15 C     0.01550   -0.02002    0.00656
 16 C    -0.01459    0.03190   -0.02465
 17 C    -0.03594    0.01428   -0.01840
 18 C     0.00245    0.03461   -0.01345
 19 C    -0.02042    0.03382   -0.04245
 20 C    -0.04137   -0.02541   -0.01665
 21 C     0.00038   -0.00592    0.04238
 22 C     0.02541    0.00569    0.03271
 23 C    -0.01160   -0.03455    0.02498