User:   esb@s65n33.grendel.cscaa.dk
Date:   Thu Nov  9 11:13:08 2017
Arch:   x86_64
Pid:    75779
Python: 2.7.13
gpaw:   /home/esb/DFT/gpaw_git/gpaw
_gpaw:  /home/esb/DFT/gpaw_git/build/bin.linux-x86_64-2.7/gpaw-python
ase:    /home/esb/DFT/ase_git/ase (version 3.15.0b1)
numpy:  /comm/swstack/core/python/2.7.13/lib/python2.7/site-packages/numpy (version 1.13.3)
scipy:  /comm/swstack/core/python/2.7.13/lib/python2.7/site-packages/scipy (version 0.19.1)
units:  Angstrom and eV
cores:  16
Extra parameters: {'blacs': True}

Input parameters:
  basis: dzp
  gpts: [80 80 48]
  kpts: [1 1 1]
  maxiter: 99
  mixer: {backend: pulay,
          beta: 0.05,
          method: separate,
          nmaxold: 5,
          weight: 75}
  mode: lcao
  nbands: -50
  occupations: {name: fermi-dirac,
                width: 0.1}
  poissonsolver: {eps: 1e-07,
                  name: fd,
                  nn: 3,
                  relax: GS}
  xc: PBE

System changes: positions, numbers, cell, pbc, initial_charges, initial_magmoms

Initialize ...

C-setup:
  name: Carbon
  id: 4aa54d4b901d75f77cc0ea3eec22967b
  Z: 6
  valence: 4
  core: 2
  charge: 0.0
  file: /home/esb/DFT/gpaw-setups-0.8.7929/C.PBE.gz
  cutoffs: 0.64(comp), 1.14(filt), 1.14(core), lmax=2
  valence states:
                energy  radius
    2s(2.00)   -13.751   0.635
    2p(2.00)    -5.284   0.635
    *s          13.461   0.635
    *p          21.927   0.635
    *d           0.000   0.635

  LCAO basis set for C:
    Name: dzp
    File: /home/esb/DFT/gpaw-setups-0.8.7929/C.dzp.basis.gz
    Number of radial functions: 5
    Number of spherical harmonics: 13
      l=0, rc=5.5469 Bohr: 2s-sz confined orbital
      l=1, rc=6.6719 Bohr: 2p-sz confined orbital
      l=0, rc=3.0312 Bohr: 2s-dz split-valence wave
      l=1, rc=3.7500 Bohr: 2p-dz split-valence wave
      l=2, rc=6.6719 Bohr: d-type Gaussian polarization

Reference energy: -24663.074771

Spin-paired calculation

Occupation numbers:
  Fermi-Dirac: width=0.1000 eV

Convergence criteria:
  Maximum total energy change: 0.0005 eV / electron
  Maximum integral of absolute density change: 0.0001 electrons
  Maximum integral of absolute eigenstate change: 4e-08 eV^2
  Maximum number of iterations: 99

Symmetries present (total): 1

  ( 1  0  0)
  ( 0  1  0)
  ( 0  0  1)

1 k-point (Gamma)
1 k-point in the irreducible part of the Brillouin zone
       k-points in crystal coordinates                weights
   0:     0.00000000    0.00000000    0.00000000          1/1

Wave functions: LCAO
  Diagonalizer: Serial LAPACK
  Atomic Correction: dense with blas
  Datatype: float
  Eigensolver: None

LCAO using direct dense diagonalizer

Densities:
  Coarse grid: 80*80*48 grid
  Fine grid: 160*160*96 grid
  Total Charge: 0.000000

Density mixing:
  Method: separate
  Backend: pulay
  Linear mixing parameter: 0.05
  Mixing with 5 old densities
  Damping of long wave oscillations: 75

Hamiltonian:
  XC and Coulomb potentials evaluated on a 160*160*96 grid
  Using the PBE Exchange-Correlation functional
  Interpolation: tri-quintic (5. degree polynomial)
  Poisson solver: Gauss-Seidel solver with 6 multi-grid levels
    Coarsest grid: 5 x 5 x 3 points
    Stencil: 6*3+1=19 point O(h^6) finite-difference Laplacian
    Max iterations: 1000
    Tolerance: 1.000000e-07

Total number of cores used: 16
Domain decomposition: 2 x 4 x 2

Number of atoms: 24
Number of atomic orbitals: 312
Number of bands in calculation: 98
Bands to converge: occupied states only
Number of valence electrons: 96

... initialized

Initializing position-dependent things.

Density initialized from atomic densities
  /       C|                               C  C   |
 *         |  CC                    C   C         |
 |         |      C  C     C  C   C               |
 |         .--CC--C--C----------------------------.
 |        /   C       CC                         /
 |       /      C     C                         /
 |      /             C                        /
 |     /          C                           /

Positions:
   0 C      8.056090    1.899608    4.625320
   1 C      7.144349    5.803821    4.487939
   2 C      6.361011    1.826953    4.381580
   3 C      4.608842    3.479230    5.519144
   4 C      7.742349    3.284970    4.556233
   5 C      5.475356    2.547808    5.380250
   6 C      7.606997    4.626565    4.444737
   7 C      4.277668    4.765506    5.438223
   8 C      6.475197    7.006545    4.592228
   9 C      5.062943    7.136226    4.972492
  10 C      4.278956    6.028984    5.283401
  11 C      4.733790    8.568184    4.941612
  12 C      9.499476    9.196423    4.361138
  13 C      5.904991    9.281721    4.540395
  14 C      8.327668    8.733507    4.318860
  15 C      1.161844    9.349797    5.915689
  16 C     13.300221   10.241110    4.514336
  17 C      3.472503    9.088549    5.173458
  18 C     11.162442   10.065125    3.946611
  19 C      6.942840    7.773865    3.755753
  20 C     14.489020   10.277494    5.146169
  21 C     15.796336   10.186026    5.302523
  22 C     11.954845    9.956724    4.720559
  23 C      2.581657    9.979074    4.531961

Unit cell:
           periodic     x           y           z      points  spacing
  1. axis:    yes   16.000000    0.000000    0.000000    80     0.2000
  2. axis:    yes    0.000000   16.000000    0.000000    80     0.2000
  3. axis:    yes    0.000000    0.000000   10.000000    48     0.2083

Effective grid spacing dv^(1/3) = 0.2027

                     log10-error:    total        iterations:
           time      wfs    density  energy       fermi  poisson
iter:   1  11:13:09          +inf  -166.477490    3      6
iter:   2  11:13:10         -0.90  -165.244413    3      3
iter:   3  11:13:10         -0.94  -163.376893    3      3
iter:   4  11:13:11         -1.03  -162.253830    4      3
iter:   5  11:13:11         -1.18  -161.801014    33     3
iter:   6  11:13:12         -1.44  -161.679413    4      3
iter:   7  11:13:13         -1.67  -161.654433    3      2
iter:   8  11:13:13         -1.74  -161.647107    3      3
iter:   9  11:13:14         -1.87  -161.626580    3      2
iter:  10  11:13:14         -2.06  -161.618683    3      2
iter:  11  11:13:15         -2.25  -161.610873    3      2
iter:  12  11:13:15         -2.60  -161.607484    3      2
iter:  13  11:13:16         -2.71  -161.606798    3      2
iter:  14  11:13:16         -2.85  -161.607985    2      1
iter:  15  11:13:17         -2.90  -161.604240    2      2
iter:  16  11:13:17         -3.18  -161.604159    2      1
iter:  17  11:13:18         -3.29  -161.603647    2      1
iter:  18  11:13:18         -3.48  -161.601580    2      1
iter:  19  11:13:18         -3.57  -161.599095    2      1
iter:  20  11:13:19         -3.73  -161.601224    2      1
iter:  21  11:13:19         -3.90  -161.603084    2      1
iter:  22  11:13:20         -4.10  -161.603421    2      1

Converged after 22 iterations.

Dipole moment: (16.177539, -0.435066, 0.265559) |e|*Ang

Energy contributions relative to reference atoms: (reference = -24663.074771)

Kinetic:        +87.015665
Potential:     -100.290817
External:        +0.000000
XC:            -151.014471
Entropy (-ST):   -0.393776
Local:           +2.883090
Free energy:   -161.800309
Extrapolated:  -161.603421

Fermi level: -4.86840

 Band  Eigenvalues  Occupancy
    0    -23.03204    2.00000
    1    -21.12737    2.00000
    2    -20.93857    2.00000
    3    -20.87824    2.00000
    4    -20.25985    2.00000
    5    -19.51561    2.00000
    6    -19.49060    2.00000
    7    -18.94848    2.00000
    8    -17.99192    2.00000
    9    -17.77224    2.00000
   10    -17.45493    2.00000
   11    -17.08334    2.00000
   12    -16.30336    2.00000
   13    -15.77521    2.00000
   14    -15.18936    2.00000
   15    -14.34097    2.00000
   16    -14.28037    2.00000
   17    -14.14253    2.00000
   18    -13.26798    2.00000
   19    -12.94942    2.00000
   20    -11.78708    2.00000
   21    -11.63905    2.00000
   22    -10.28496    2.00000
   23    -10.07205    2.00000
   24     -9.89297    2.00000
   25     -9.55097    2.00000
   26     -9.24030    2.00000
   27     -9.22451    2.00000
   28     -9.04131    2.00000
   29     -9.02539    2.00000
   30     -8.75487    2.00000
   31     -8.54224    2.00000
   32     -8.18516    2.00000
   33     -7.92239    2.00000
   34     -7.77398    2.00000
   35     -7.61490    2.00000
   36     -7.53271    2.00000
   37     -7.23098    2.00000
   38     -7.02028    2.00000
   39     -6.70733    2.00000
   40     -6.39375    2.00000
   41     -6.27199    2.00000
   42     -6.09020    1.99999
   43     -5.93033    1.99995
   44     -5.78389    1.99979
   45     -5.44098    1.99350
   46     -5.05595    1.73417
   47     -4.91881    1.24683
   48     -4.85491    0.93264
   49     -4.55868    0.08645
   50     -4.29847    0.00667
   51     -3.48597    0.00000
   52     -3.45844    0.00000
   53     -3.04505    0.00000
   54     -2.94479    0.00000
   55     -2.75050    0.00000
   56     -1.99711    0.00000
   57     -1.73720    0.00000
   58     -1.67901    0.00000
   59     -0.93047    0.00000
[...]
   83      7.90453    0.00000
   84      8.30733    0.00000
   85      8.52041    0.00000
   86      8.70481    0.00000
   87      8.76919    0.00000
   88      8.85284    0.00000
   89      9.05452    0.00000
   90      9.40491    0.00000
   91      9.44887    0.00000
   92      9.52095    0.00000
   93      9.62944    0.00000
   94      9.67325    0.00000
   95      9.77938    0.00000
   96      9.82368    0.00000
   97      9.96679    0.00000

Forces in eV/Ang:
  0 C    -3.64591    3.36923   -1.12279
  1 C     0.49387   -2.52973    1.35422
  2 C     0.91809    2.28337    4.36934
  3 C    -0.37689    0.45626   -0.30297
  4 C     1.12642   -3.29069   -0.23438
  5 C     2.06228   -2.49648   -3.31999
  6 C    -0.28116   -0.08586    0.25720
  7 C     0.31830   -0.16953    0.41448
  8 C    -4.79668   -8.95808    5.46704
  9 C    -1.39843    0.35646    0.81642
 10 C     0.23990    0.33750    0.14115
 11 C     1.43804   -2.31554    0.19667
 12 C     3.07774    2.07501   -1.64271
 13 C     0.45688   -0.40085   -1.18059
 14 C    -1.90512   -2.52786   -2.34930
 15 C    -3.49071    3.86216   -3.85750
 16 C     1.48709   -0.60553    3.84911
 17 C    -2.90476    4.33171   -3.64331
 18 C   -22.75015   -1.45713  -12.59629
 19 C     7.18692   14.94642   -4.00974
 20 C    -0.51670   -0.19817   -1.58750
 21 C     3.86439   -2.86633    2.14670
 22 C    18.64999   -0.27203   12.03667
 23 C     0.64768   -3.90762    4.86403

System changes: positions

[...]

Density initialized from wave functions
  /       C|                               C  C   |
 *         |  CC                    C   C         |
 |         |      C  C     C  C   C               |
 |         .--CC--C--C----------------------------.
 |        /   C       CC                         /
 |       /      C     C                         /
 |      /             C                        /
 |     /          C                           /

[...]

Density initialized from wave functions
  /       C|                               C  C   |
 *         |  CC                    C   C         |
[...]
 |         .--CC--C--C----------------------------.
 |        /   C       CC                         /
 |       /      C     C                         /
 |      /             C                        /
 |     /          C                           /

[...]

Density initialized from wave functions
  /       C|                               C  C   |
 *         | C C                     C  C         |
 |         |      C  C     C  C   C               |
 |         .--CC--C--C----------------------------.
 |        /   C       CC                         /
 |       /      C     C                         /
 |      /             C                        /
 |     /          C                           /

[...]

Density initialized from wave functions
  /       C|                               C  C   |
 *         | C C                     C  C         |
 |         |      C  C     C  C   C               |
 |         .--CC--C--C-C--------------------------.
 |        /   C       C                          /
 |       /      C     C                         /
 |      /             C                        /
 |     /          C                           /

[...]

Density initialized from wave functions
  /       C|                               C  C   |
 *         | C C                     C  C         |
 |         |      C  C     C  C   C               |
 |         .--CC--C--C-C--------------------------.
 |        /   C       C                          /
 |       /      C     C                         /
 |      /         C   C                        /

[...]

Density initialized from wave functions
  /       C|                               C  C   |
 *         | C C                     C  C         |
 |         |      C  C     C  C   C               |
 |         .--CC--C--C-C--------------------------.
 |        /   C       C                          /
 |       /      C     C                         /
 |      /         C   C                        /

[...]

Density initialized from wave functions
  /       C|                               C  C   |
 *         | C C                     C  C         |
 |         |      C  C        C   C               |
 |         .--CC--C--C-C---C----------------------.
 |        /   C       C                          /
 |       /      C     C                         /
 |      /         C   C                        /

[...]

Density initialized from wave functions
  /       C|                               C  C   |
 *         | C C                     C  C         |
 |         |      C  C        C   C               |
 |         .--CC--C--C-C---C----------------------.
 |        /   C       C                          /
 |       /      C     C                         /
 |      /         C  CC                        /

[...]

Density initialized from wave functions
  /       C|                                  C   |
 *         | C C                     C  C  C      |
 |         |      C  C        C  C                |
 |         .--CC--C--C-C---C----------------------.
 |        /   C       C                          /
 |       /      C     C                         /
 |      /         C  CC                        /

[...]

Density initialized from wave functions
  /       C|                                  C   |
 *         | C C                    C   C  C      |
 |         |      C  C        C  C                |
 |         .--CC--C--C-C---C----------------------.
 |        /   C       C                          /
 |       /     C       C                        /
 |      /         C  CC                        /

[...]

Density initialized from wave functions
  /       C|                               C  C   |
 *         | C C                    C   C         |
 |         |      C  C        C  C                |
 |         .--CC--C--C-C---C----------------------.
 |        /   C       C                          /
 |       /     C       C                        /
 |      /         C  CC                        /

[...]

Density initialized from wave functions
  /       C|                               C  C   |
 *         | C C                    C   C         |
 |         |      C  C        C  C                |
 |         .---C--C--C-C---C----------------------.
 |        /   C       C                          /
 |       /     C       C                        /
 |      /         C  CC                        /

[...]

Density initialized from wave functions
  /       C|                               C  C   |
 *         | C C                    C   C         |
 |         |      C  C        C  C                |
 |         .---C--C--C-C---C----------------------.
 |        /   C       C                          /
 |       /     C       C                        /
 |      /         C  CC                        /

[...]

Density initialized from wave functions
  /        |                               C  C   |
 *        C| C C                    C   C         |
 |         |      C  C        C  C                |
 |         .---C--C--C-C---C----------------------.
 |        /   C       C                          /
 |       /     C       C                        /
 |      /         C  CC                        /

[...]

Density initialized from wave functions
  /        |                                  C   |
 *        C| C C                    C   C  C      |
 |         |      C  C        C  C                |
 |         .---C--C--C-C---C----------------------.
 |        /   C       C                          /
 |       /     C       C                        /
 |      /         C  CC                        /

[...]

Density initialized from wave functions
  /        |                                  C   |
 *        C| C C                    C   C  C      |
 |         |      C  C        C  C                |
 |         .---C--C--C-C---C----------------------.
 |        /   C       C                          /
 |       /     C       C                        /
 |      /         C  CC                        /

[...]

Density initialized from wave functions
  /        |                                  C   |
 *        C| C C                    C   C  C      |
 |         |      C  C        C  C                |
 |         .----C-C--C-C---C----------------------.
 |        /   C       C                          /
 |       /     C       C                        /
 |      /         C  CC                        /

[...]

Density initialized from wave functions
  /        |                                  C   |
 *        C| C C                    C   C  C      |
 |         |      C  C        C  C                |
 |         .----C-C--C-C---C----------------------.
 |        /   C       C                          /
 |       /     C       C                        /
 |      /         C  CC                        /

[...]

Density initialized from wave functions
  /        |                                  C   |
 *        C| C C                    C   C  C      |
 |         |      C  C        C  C                |
 |         .----C-C--C-C---C----------------------.
 |        /   C       C                          /
 |       /     C      CC                        /
 |      /         C  C                         /

[...]

Density initialized from wave functions
  /        |                                  C   |
 *        C| C C                    C   C  C      |
 |         |      C  C        C  C                |
 |         .----C-C--C-C---C----------------------.
 |        /   C       C                          /
 |       /     C      CC                        /
 |      /         C  C                         /

[...]

Density initialized from wave functions
  /        |                                  C   |
 *        C| C C                    C   C  C      |
 |         |      C  C     C  C  C                |
 |         .----C-C--C-C--------------------------.
 |        /   C       C                          /
 |       /     C       C                        /
 |      /         C  C                         /

[...]

Density initialized from wave functions
  /        |                                  C   |
 *        C|C  C                    C   C  C      |
 |         |      C  C     C  C  C                |
 |         .----C-C--C-C--------------------------.
 |        /   C       C                          /
 |       /     C       C                        /
 |      /         C  C                         /

[...]

Density initialized from wave functions
  /        |                                  C   |
 *        C|C  C                    C   C  C      |
 |         |      C  C     C  C  C                |
 |         .----C-C--C-C--------------------------.
 |        /   C       C                          /
 |       /     C       C                        /
 |      /         C  C                         /

[...]

Density initialized from wave functions
 *        C|C  C                    C   C  C  C   |
 |         |      C  C C   C  C  C                |
 |         .----C-C--C----------------------------.
 |        /   C       C                          /
 |       /     C       C                        /
 |      /         C  C                         /

[...]

Density initialized from wave functions
 *        C|C  C                    C   C  C  C   |
 |         |      C  C C   C  C  C                |
 |         .----C-C--C----------------------------.
 |        /   C        C                         /
 |       /     C       C                        /
 |      /         C  C                         /

[...]

Density initialized from wave functions
 *        C|C  C                    C   C  C  C   |
 |         |      C  C C   C  C  C                |
 |         .----C-C--C----------------------------.
 |        /   C        C                         /
 |       /     C       C                        /
 |      /         C  C C                       /

[...]

Density initialized from wave functions
 *        C|C  C                    C   C  C  C   |
 |         |      C  C C   C  C  C                |
 |         .----C-C--C----------------------------.
 |        /   C        C                         /
 |       /     C       C                        /
 |      /         C  C C                       /

[...]

Density initialized from wave functions
 *        C|C  C                    C   C  C  C   |
 |         |      C  C C   C  C  C                |
 |         .---C--C--C----------------------------.
 |        /   C        C                         /
 |       /     C       C                        /
 |      /         C  C C                       /

[...]

System changes: positions

Initializing position-dependent things.

Density initialized from wave functions
 *        C|C  C                    C   C  C  C   |
 |         |      C  C C   C  C  C                |
 |         .---C--C--C----------------------------.
 |        /   C        C                         /
 |       /   C C       C                        /
 |      /        C  C  C                       /

Positions:
   0 C      7.326253    2.287908    4.711268
   1 C      7.395477    5.740498    4.436360
   2 C      6.266204    1.565548    5.038311
   3 C      4.214690    3.144905    5.337802
   4 C      8.152708    3.253540    4.429890
   5 C      5.136922    2.240345    5.233474
   6 C      7.891966    4.567827    4.378322
   7 C      4.187190    4.473572    5.215507
   8 C      6.602530    6.847390    4.579408
   9 C      5.161497    6.854795    4.894499
  10 C      4.415156    5.721384    5.084039
  11 C      4.736463    8.283314    4.961586
  12 C      9.521432    9.130441    4.337372
  13 C      5.892099    9.065230    4.743615
  14 C      8.346147    8.689265    4.372808
  15 C      1.050936    9.712789    5.163518
  16 C     13.275953   10.142570    4.716503
  17 C      3.437843    8.730295    5.114046
  18 C     10.777288    9.554412    4.413457
  19 C      7.036527    8.277911    4.515330
  20 C     14.530943   10.199512    4.904154
  21 C     15.834976   10.055833    5.068163
  22 C     11.988173    9.906723    4.533752
  23 C      2.293020    9.242548    5.189941

Unit cell:
           periodic     x           y           z      points  spacing
  1. axis:    yes   16.000000    0.000000    0.000000    80     0.2000
  2. axis:    yes    0.000000   16.000000    0.000000    80     0.2000
  3. axis:    yes    0.000000    0.000000   10.000000    48     0.2083

Effective grid spacing dv^(1/3) = 0.2027

                     log10-error:    total        iterations:
           time      wfs    density  energy       fermi  poisson
iter:   1  11:24:22          +inf  -185.401040    2      4
iter:   2  11:24:23         -3.03  -185.399105    2      1
iter:   3  11:24:23         -3.15  -185.396561    2      1
iter:   4  11:24:23         -3.37  -185.396318    2      1
iter:   5  11:24:24         -3.45  -185.396916    2      1
iter:   6  11:24:24         -3.61  -185.395191    2      1
iter:   7  11:24:25         -3.48  -185.396162    2      1
iter:   8  11:24:25         -4.03  -185.396733    1      1

Converged after 8 iterations.

Dipole moment: (13.298894, -0.836213, 0.004819) |e|*Ang

Energy contributions relative to reference atoms: (reference = -24663.074771)

Kinetic:       +110.094547
Potential:     -122.867665
External:        +0.000000
XC:            -175.608351
Entropy (-ST):   -0.215353
Local:           +3.092412
Free energy:   -185.504410
Extrapolated:  -185.396733

Fermi level: -4.60618

 Band  Eigenvalues  Occupancy
    0    -22.19935    2.00000
    1    -21.29320    2.00000
    2    -20.45412    2.00000
    3    -20.16869    2.00000
    4    -20.01933    2.00000
    5    -19.93660    2.00000
    6    -19.42025    2.00000
    7    -19.29218    2.00000
    8    -18.72790    2.00000
    9    -18.67642    2.00000
   10    -17.84047    2.00000
   11    -17.80795    2.00000
   12    -16.95246    2.00000
   13    -16.55612    2.00000
   14    -15.83058    2.00000
   15    -15.82650    2.00000
   16    -14.76000    2.00000
   17    -14.41133    2.00000
   18    -14.16206    2.00000
   19    -13.88484    2.00000
   20    -13.02592    2.00000
   21    -12.87930    2.00000
   22    -12.80500    2.00000
   23    -11.27392    2.00000
   24    -11.10221    2.00000
   25    -10.71459    2.00000
   26    -10.10150    2.00000
   27     -9.61530    2.00000
   28     -9.53668    2.00000
   29     -8.99414    2.00000
   30     -8.96899    2.00000
   31     -8.93493    2.00000
   32     -8.62826    2.00000
   33     -8.51858    2.00000
   34     -8.35912    2.00000
   35     -8.13786    2.00000
   36     -7.65064    2.00000
   37     -7.44622    2.00000
   38     -7.37940    2.00000
   39     -7.29946    2.00000
   40     -6.65690    2.00000
   41     -6.25803    2.00000
   42     -6.13367    2.00000
   43     -5.92047    2.00000
   44     -5.23139    1.99615
   45     -5.11222    1.98739
   46     -4.94217    1.93285
   47     -4.78812    1.72099
   48     -4.45541    0.36257
   49     -3.50932    0.00003
   50     -3.19813    0.00000
   51     -2.74311    0.00000
   52     -1.94609    0.00000
   53     -1.74634    0.00000
   54     -1.67723    0.00000
   55     -1.27558    0.00000
   56     -1.00454    0.00000
   57     -0.41798    0.00000
   58     -0.19288    0.00000
   59      0.48935    0.00000
[...]
   83      8.65192    0.00000
   84      8.81727    0.00000
   85      8.87143    0.00000
   86      9.08804    0.00000
   87      9.10457    0.00000
   88      9.13668    0.00000
   89      9.36024    0.00000
   90      9.46976    0.00000
   91      9.57391    0.00000
   92      9.74976    0.00000
   93      9.84052    0.00000
   94      9.86991    0.00000
   95      9.91806    0.00000
   96      9.94722    0.00000
   97     10.11309    0.00000

Forces in eV/Ang:
  0 C     0.07793    0.00432   -0.02182
  1 C    -0.01577    0.07601    0.03451
  2 C    -0.08027   -0.04326    0.03047
  3 C    -0.05877    0.01545    0.02436
  4 C    -0.03129    0.08635    0.02077
  5 C    -0.02952   -0.04982   -0.05938
  6 C    -0.02202   -0.02139    0.04579
  7 C     0.02145   -0.01047    0.02136
  8 C     0.04711    0.04477    0.01962
  9 C     0.00633   -0.01038   -0.02895
 10 C     0.02243    0.00455   -0.03087
 11 C     0.03170   -0.01661   -0.01382
 12 C    -0.01758   -0.02444    0.01908
 13 C    -0.01647   -0.01544   -0.05654
 14 C     0.01963    0.02341    0.02373
 15 C     0.02340   -0.00678    0.01813
 16 C     0.01505    0.01720    0.02072
 17 C     0.00083   -0.00473    0.04353
 18 C    -0.00469    0.03207   -0.05404
 19 C     0.02961   -0.00641   -0.01242
 20 C    -0.01806    0.00734   -0.03281
 21 C    -0.00874   -0.07219   -0.00543
 22 C     0.03645    0.04316    0.03202
 23 C     0.00827   -0.01346   -0.00841