User:   esb@s65n33.grendel.cscaa.dk
Date:   Thu Nov  9 11:53:30 2017
Arch:   x86_64
Pid:    76748
Python: 2.7.13
gpaw:   /home/esb/DFT/gpaw_git/gpaw
_gpaw:  /home/esb/DFT/gpaw_git/build/bin.linux-x86_64-2.7/gpaw-python
ase:    /home/esb/DFT/ase_git/ase (version 3.15.0b1)
numpy:  /comm/swstack/core/python/2.7.13/lib/python2.7/site-packages/numpy (version 1.13.3)
scipy:  /comm/swstack/core/python/2.7.13/lib/python2.7/site-packages/scipy (version 0.19.1)
units:  Angstrom and eV
cores:  16
Extra parameters: {'blacs': True}

Input parameters:
  basis: dzp
  gpts: [80 80 48]
  kpts: [1 1 1]
  maxiter: 99
  mixer: {backend: pulay,
          beta: 0.05,
          method: separate,
          nmaxold: 5,
          weight: 75}
  mode: lcao
  nbands: -50
  occupations: {name: fermi-dirac,
                width: 0.1}
  poissonsolver: {eps: 1e-07,
                  name: fd,
                  nn: 3,
                  relax: GS}
  xc: PBE

System changes: positions, numbers, cell, pbc, initial_charges, initial_magmoms

Initialize ...

C-setup:
  name: Carbon
  id: 4aa54d4b901d75f77cc0ea3eec22967b
  Z: 6
  valence: 4
  core: 2
  charge: 0.0
  file: /home/esb/DFT/gpaw-setups-0.8.7929/C.PBE.gz
  cutoffs: 0.64(comp), 1.14(filt), 1.14(core), lmax=2
  valence states:
                energy  radius
    2s(2.00)   -13.751   0.635
    2p(2.00)    -5.284   0.635
    *s          13.461   0.635
    *p          21.927   0.635
    *d           0.000   0.635

  LCAO basis set for C:
    Name: dzp
    File: /home/esb/DFT/gpaw-setups-0.8.7929/C.dzp.basis.gz
    Number of radial functions: 5
    Number of spherical harmonics: 13
      l=0, rc=5.5469 Bohr: 2s-sz confined orbital
      l=1, rc=6.6719 Bohr: 2p-sz confined orbital
      l=0, rc=3.0312 Bohr: 2s-dz split-valence wave
      l=1, rc=3.7500 Bohr: 2p-dz split-valence wave
      l=2, rc=6.6719 Bohr: d-type Gaussian polarization

Reference energy: -24663.074771

Spin-paired calculation

Occupation numbers:
  Fermi-Dirac: width=0.1000 eV

Convergence criteria:
  Maximum total energy change: 0.0005 eV / electron
  Maximum integral of absolute density change: 0.0001 electrons
  Maximum integral of absolute eigenstate change: 4e-08 eV^2
  Maximum number of iterations: 99

Symmetries present (total): 1

  ( 1  0  0)
  ( 0  1  0)
  ( 0  0  1)

1 k-point (Gamma)
1 k-point in the irreducible part of the Brillouin zone
       k-points in crystal coordinates                weights
   0:     0.00000000    0.00000000    0.00000000          1/1

Wave functions: LCAO
  Diagonalizer: Serial LAPACK
  Atomic Correction: dense with blas
  Datatype: float
  Eigensolver: None

LCAO using direct dense diagonalizer

Densities:
  Coarse grid: 80*80*48 grid
  Fine grid: 160*160*96 grid
  Total Charge: 0.000000

Density mixing:
  Method: separate
  Backend: pulay
  Linear mixing parameter: 0.05
  Mixing with 5 old densities
  Damping of long wave oscillations: 75

Hamiltonian:
  XC and Coulomb potentials evaluated on a 160*160*96 grid
  Using the PBE Exchange-Correlation functional
  Interpolation: tri-quintic (5. degree polynomial)
  Poisson solver: Gauss-Seidel solver with 6 multi-grid levels
    Coarsest grid: 5 x 5 x 3 points
    Stencil: 6*3+1=19 point O(h^6) finite-difference Laplacian
    Max iterations: 1000
    Tolerance: 1.000000e-07

Total number of cores used: 16
Domain decomposition: 2 x 4 x 2

Number of atoms: 24
Number of atomic orbitals: 312
Number of bands in calculation: 98
Bands to converge: occupied states only
Number of valence electrons: 96

... initialized

Initializing position-dependent things.

Density initialized from atomic densities
   /       |             C                        |
  /        |               C                      |
 *         |C  C        C     CC                  |
 |         |      C  C CC   C                     |
 |         .---C--C--C-------C--------------------.
 |        /   C     C  C  C                      /
 |       /   C   C                              /

Positions:
   0 C      6.596772    6.889116    4.560813
   1 C      5.843616    9.089112    4.636005
   2 C      7.008391    8.319667    4.449669
   3 C      4.164821    3.160794    5.347074
   4 C      4.181425    4.491032    5.232785
   5 C      5.158149    6.874135    4.874404
   6 C      4.431249    5.732812    5.084271
   7 C      4.706913    8.296417    4.905043
   8 C      3.405676    8.733112    5.077421
   9 C      2.263067    9.246492    5.179399
  10 C      7.474550    9.855573    6.157935
  11 C      9.743989    8.378239    6.052891
  12 C      7.536920    7.523351    5.862838
  13 C      9.369287    6.023665    5.717151
  14 C      8.023810    6.192012    5.751022
  15 C      6.143599    7.460102    5.647753
  16 C     10.269665    7.170217    5.932189
  17 C      8.333084    8.728866    6.027784
  18 C      6.913151    5.270855    5.515602
  19 C      5.607596    3.415962    5.249252
  20 C      6.956709    3.831346    5.385978
  21 C      8.304040    3.323138    5.459763
  22 C     10.259485    4.900505    5.692558
  23 C      9.498199    3.715117    5.581164

Unit cell:
           periodic     x           y           z      points  spacing
  1. axis:    yes   16.000000    0.000000    0.000000    80     0.2000
  2. axis:    yes    0.000000   16.000000    0.000000    80     0.2000
  3. axis:    yes    0.000000    0.000000   10.000000    48     0.2083

Effective grid spacing dv^(1/3) = 0.2027

                     log10-error:    total        iterations:
           time      wfs    density  energy       fermi  poisson
iter:   1  11:53:32          +inf  -167.380292    2      6
iter:   2  11:53:33         -0.88  -165.796389    3      3
iter:   3  11:53:34         -0.92  -163.659322    4      3
iter:   4  11:53:34         -1.01  -163.221021    3      2
iter:   5  11:53:35         -1.05  -164.093402    34     4
iter:   6  11:53:36         -1.10  -164.135206    2      1
iter:   7  11:53:36         -1.09  -163.989404    3      2
iter:   8  11:53:37         -1.08  -162.629487    31     3
iter:   9  11:53:38         -1.14  -162.078038    34     3
iter:  10  11:53:38         -1.38  -162.110300    2      3
iter:  11  11:53:39         -1.47  -162.036978    4      3
iter:  12  11:53:40         -1.61  -162.062078    4      3
iter:  13  11:53:40         -1.64  -161.871036    4      3
iter:  14  11:53:41         -1.98  -161.867167    3      2
iter:  15  11:53:42         -2.03  -161.850379    3      2
iter:  16  11:53:42         -2.23  -161.844791    3      2
iter:  17  11:53:43         -2.39  -161.844011    3      2
iter:  18  11:53:44         -2.47  -161.843680    3      2
iter:  19  11:53:44         -2.66  -161.841154    3      2
iter:  20  11:53:45         -3.01  -161.846207    3      1
iter:  21  11:53:46         -3.09  -161.843932    2      1
iter:  22  11:53:46         -3.27  -161.840964    2      1
iter:  23  11:53:47         -3.50  -161.840083    2      1
iter:  24  11:53:47         -3.62  -161.836191    2      1
iter:  25  11:53:48         -3.73  -161.834595    2      1
iter:  26  11:53:49         -3.91  -161.837894    2      1
iter:  27  11:53:49         -4.10  -161.837777    2      1

Converged after 27 iterations.

Dipole moment: (1.004411, -0.911244, -0.072214) |e|*Ang

Energy contributions relative to reference atoms: (reference = -24663.074771)

Kinetic:       +160.860798
Potential:     -145.271748
External:        +0.000000
XC:            -180.195382
Entropy (-ST):   -0.320803
Local:           +2.928955
Free energy:   -161.998178
Extrapolated:  -161.837777

Fermi level: -4.71736

 Band  Eigenvalues  Occupancy
    0    -29.64067    2.00000
    1    -24.30871    2.00000
    2    -22.92887    2.00000
    3    -22.21048    2.00000
    4    -21.89945    2.00000
    5    -21.25936    2.00000
    6    -20.39826    2.00000
    7    -20.04644    2.00000
    8    -19.32797    2.00000
    9    -18.54050    2.00000
   10    -18.07431    2.00000
   11    -17.74219    2.00000
   12    -17.13069    2.00000
   13    -16.61160    2.00000
   14    -16.04140    2.00000
   15    -15.61867    2.00000
   16    -15.37022    2.00000
   17    -15.02547    2.00000
   18    -14.28032    2.00000
   19    -13.96341    2.00000
   20    -13.53276    2.00000
   21    -12.97178    2.00000
   22    -12.70060    2.00000
   23    -12.50491    2.00000
   24    -12.21044    2.00000
   25    -11.41243    2.00000
   26    -10.80309    2.00000
   27    -10.44595    2.00000
   28    -10.38690    2.00000
   29     -9.84122    2.00000
   30     -9.59014    2.00000
   31     -9.41868    2.00000
   32     -9.23169    2.00000
   33     -8.93027    2.00000
   34     -8.47287    2.00000
   35     -7.96311    2.00000
   36     -7.66566    2.00000
   37     -7.34851    2.00000
   38     -7.23211    2.00000
   39     -6.72739    2.00000
   40     -6.17348    2.00000
   41     -6.02389    2.00000
   42     -5.73878    1.99993
   43     -5.49818    1.99919
   44     -5.37002    1.99708
   45     -5.05473    1.93374
   46     -5.01177    1.89997
   47     -4.83478    1.52779
   48     -4.63636    0.61577
   49     -4.23258    0.01557
   50     -4.19048    0.01025
   51     -3.92175    0.00070
   52     -3.58351    0.00002
   53     -3.46194    0.00001
   54     -3.08413    0.00000
   55     -2.95043    0.00000
   56     -2.18103    0.00000
   57     -1.86614    0.00000
   58     -1.51068    0.00000
   59     -0.76284    0.00000
[...]
   83      7.46551    0.00000
   84      7.94781    0.00000
   85      8.22974    0.00000
   86      8.52965    0.00000
   87      8.60960    0.00000
   88      8.79533    0.00000
   89      8.81499    0.00000
   90      9.05585    0.00000
   91      9.15114    0.00000
   92      9.19203    0.00000
   93      9.23890    0.00000
   94      9.40017    0.00000
   95      9.47694    0.00000
   96      9.74147    0.00000
   97      9.92173    0.00000

Forces in eV/Ang:
  0 C     0.31768   -8.00081  -11.02138
  1 C     2.02571    1.73360    2.02705
  2 C     0.33439   -0.65053   -3.84859
  3 C     4.14244   -3.40672    0.14608
  4 C     1.41965    3.43800   -0.63981
  5 C    -6.46632   -1.09181   -1.86595
  6 C    -1.22325   -0.83429    0.53229
  7 C    -4.23436    1.03702   -2.34299
  8 C     2.62316   -1.10421    0.16349
  9 C    -2.27742    0.94953    0.15152
 10 C     0.49932    1.35091    0.14149
 11 C    -0.20818   -2.17853    0.27327
 12 C     2.63808    0.60923    3.37203
 13 C     7.57882   -0.87835    0.79146
 14 C    -1.23555   -2.44086    0.91499
 15 C     0.13369    6.33703   10.80095
 16 C    -3.11138    3.99362    0.02994
 17 C     1.64371    1.53805    1.64569
 18 C     3.02269    1.84936   -0.88900
 19 C    -4.24488   -1.57203    0.38603
 20 C    -0.46279    0.72360   -0.26308
 21 C    -1.60926   -0.80780   -0.22687
 22 C    -1.24698   -2.43634   -0.42125
 23 C    -0.07676    1.80208    0.18910

System changes: positions

[...]

Density initialized from wave functions
   /       |             C                        |
  /        |               C                      |
 *         |C  C        C     C                   |
 |         |      C  C CC   C                     |
 |         .---C--C--C-------C--------------------.
 |        /   C     C  C  C                      /
[...]
 |         .---C--C---CC-----C--------------------.
 |        /   C     CC C  C                      /
 |       /   C   C                              /

[...]

Density initialized from wave functions
   /       |              C                       |
  /        |               C  C                   |
 *         |C  C     C  C     C                   |
 |         |     C   C   C  C                     |
 |         .---C-C----CC-----C--------------------.
 |        /   C     CC C  C                      /
 |       /   C   C                              /

[...]

Density initialized from wave functions
   /       |              C                       |
  /        |               C  C                   |
 *         |C  C     C  C     C                   |
 |         |     C       C  C                     |
 |         .---C-C----CC-----C--------------------.
 |        /   C     CC C  C                      /
 |       /   C   C                              /

[...]

Density initialized from wave functions
   /       |              C                       |
  /        |               C  C                   |
 *         |C  C     C  C     C                   |
 |         |     C       C  C                     |
 |         .---C-C----CC-----C--------------------.
 |        /   C     CC C  C                      /
 |       /   C   C                              /

[...]

Density initialized from wave functions
   /       |              C                       |
  /        |               C  C                   |
 *         |C  C     C   C    C                   |
 |         |     C       C  C                     |
 |         .---C-C----CC-----C--------------------.
 |        /   C  C  CC C  C                      /
 |       /   C                                  /

[...]

Density initialized from wave functions
   /       |              C                       |
  /        |               C  C                   |
 *         |C  C     C   C    C                   |
 |         |     C       C  C                     |
 |         .---C-C----CC-----C--------------------.
 |        /   C  C  C  C  C                      /
 |       /   C                                  /

[...]

Density initialized from wave functions
   /       |             C                        |
  /        |               C  C                   |
 *         |C  C     C   C     C                  |
 |         |     C       C  C                     |
 |         .---C-C----CC-----C--------------------.
 |        /   C  C  C  C  C                      /
 |       /   C                                  /

[...]

Density initialized from wave functions
  /        |             C C  C                   |
 *         |C  C     C   C     C                  |
 |         |     C       C  C                     |
 |         .---C-C----CC-----C--------------------.
 |        /   C  C  C     C                      /
 |       /   C         C                        /

[...]

Density initialized from wave functions
  /        |             C C  C                   |
 *         |C  C     C   C     C                  |
 |         |     C       C  C                     |
 |         .---C-C-----C-----C--------------------.
 |        /   C  C  C C   C                      /
 |       /    C        C                        /

[...]

Density initialized from wave functions
  /        |             C C  C                   |
 *         |C  C     C   C     C                  |
 |         |     C       C  C                     |
 |         .--C--C-----C-----C--------------------.
 |        /   C  C  C C   C                      /
 |       /    C        C                        /

[...]

Density initialized from wave functions
  /        |             C C  C                   |
 *         |C  C     C   C     C                  |
 |         |     C       C  C                     |
 |         .--C--C-----C-----C--------------------.
 |        /   C  C  C C   C                      /
 |       /    C        C                        /

[...]

Density initialized from wave functions
  /        |             C C  C                   |
 *         |C  C     C   C     C                  |
 |         |     C       C  C                     |
 |         .--C--C--C--C-----C--------------------.
 |        /   C  C   CC   C                      /
 |       /    C        C                        /

[...]

Density initialized from wave functions
  /        |             C C  C                   |
 *         |C  C     C   C     C                  |
 |         |     C       C   C                    |
 |         .--C--C--C--C-----C--------------------.
 |        /   C  C   CC   C                      /
 |       /    C        C                        /

[...]

Density initialized from wave functions
  /        |             C C  C                   |
 *         |C        C   C     C                  |
 |         |   C C       C   C                    |
 |         .--C--C--C--C-----C--------------------.
 |        /   C  C   CC   C                      /
 |       /    C        C                        /

[...]

Density initialized from wave functions
  /        |             C C  C                   |
 *         |C        C   C     C                  |
 |         |   C C       C   C                    |
 |         .--C--C--C--C-----C--------------------.
 |        /   C  C   CC   C                      /
 |       /    C        C                        /

[...]

Density initialized from wave functions
  /        |             C C  C                   |
 *         |C        C   C     C                  |
 |         |   C C       C   C                    |
 |         .--C--C--C-CC-----C--------------------.
 |        /   C  C   C    C                      /
 |       /    C        C                        /

[...]

Density initialized from wave functions
  /        |             C C  C                   |
 *         |C        C   C     C                  |
 |         |   C C           C                    |
 |         .--C--C--C-CC-C---C--------------------.
 |        /   C  C   C    C                      /
 |       /    C        C                        /

[...]

Density initialized from wave functions
  /        |             C C  C                   |
 *         |C        C         C                  |
 |         |   C C       C   C                    |
 |         .--C--C--C-CC-C---C--------------------.
 |        /   C  C   C    C                      /
 |       /    C        C                        /

[...]

Density initialized from wave functions
  /        |             C C  C                   |
 *         |C        CC        C                  |
 |         |   C C       C   C                    |
 |         .-----C--C-CC-C---C--------------------.
 |        /   C  C   C    C                      /
 |       /    C        C                        /

[...]

Density initialized from wave functions
  /        |             C C  C                   |
 *         |C        CC        C                  |
 |         |   C C       C   C                    |
 |         .-----C--C-CC-C---C--------------------.
 |        /   C  C   C    C                      /
 |       /    C        C                        /

[...]

Density initialized from wave functions
  /        |             C C  C                   |
 *         |C  C     CC        C                  |
 |         |     C       C   C                    |
 |         .-----C--C-CC-C---C--------------------.
 |        /   C  C   C    C                      /
 |       /    C        C                        /

[...]

Density initialized from wave functions
  /        |             C C  C                   |
 *         |C  C     CC        C                  |
 |         |     C       C   C                    |
 |         .-----C--C-CC-C---C--------------------.
 |        /   C  C   C    C                      /
 |       /    C        C                        /

[...]

Density initialized from wave functions
  /        |             C C  C                   |
 *         |C  C     CC        C                  |
 |         |     C       C   C                    |
 |         .-----C--C-C--C---C--------------------.
 |        /   C  C   C    C                      /
 |       /    C        C                        /

[...]

Density initialized from wave functions
  /        |             C C  C                   |
 *         |C  C     CC        C                  |
 |         |     C       C   C                    |
 |         .-----C--C-C--C---C--------------------.
 |        /   C      C C  C                      /
 |       /    C  C                              /

[...]

Density initialized from wave functions
  /        |             C C  C                   |
 *         | C C     CC        C                  |
 |         |     C       C   C                    |
 |         .-----C--C-C--C---C--------------------.
 |        /   C      C C  C                      /
 |       /    C  C                              /

[...]

Density initialized from wave functions
  /        |             C C  C                   |
 *         | C C     CC        C                  |
 |         |     C       C   C                    |
 |         .-----C--C-C--C---C--------------------.
 |        /   C      C C  C                      /
 |       /    C  C                              /

[...]

Density initialized from wave functions
  /        |             C C  C                   |
 *         | C C     CC        C                  |
 |         |     C       C   C                    |
 |         .-----C--C-C--C---C--------------------.
 |        /   C      CCC  C                      /
 |       /    C  C                              /

[...]

Density initialized from wave functions
  /        |             C C  C                   |
 *         | C C     CC        C                  |
 |         |     C       C   C                    |
 |         .-----C--C-C--C---C--------------------.
 |        /   C      CCC  C                      /
 |       /    C  C                              /

[...]

Density initialized from wave functions
  /        |             C C  C                   |
 *         | C C     CC        C                  |
 |         |     C       C   C                    |
 |         .--C--C--C-C--C---C--------------------.
 |        /   C      CCC  C                      /
 |       /    C  C                              /

[...]

System changes: positions

Initializing position-dependent things.

Density initialized from wave functions
  /        |             C C  C                   |
 *         | C C     CC        C                  |
 |         |     C       C   C                    |
 |         .--C--C--C-C--C---C--------------------.
 |        /   C      CCC  C                      /
 |       /    C  C                              /

Positions:
   0 C      6.138063    6.530578    4.953500
   1 C      6.070716    8.791223    5.351024
   2 C      6.755886    7.792556    4.422651
   3 C      4.464342    2.903170    5.034922
   4 C      4.258676    4.337793    4.988344
   5 C      4.670121    6.815059    5.006073
   6 C      3.980151    5.614803    5.002496
   7 C      4.556127    8.294800    5.203628
   8 C      3.400930    9.018820    5.208327
   9 C      2.309364    9.714497    5.042856
  10 C      7.213218    9.784608    5.741849
  11 C      9.665685    8.539531    6.204061
  12 C      7.973643    7.666558    5.225804
  13 C      9.727751    6.075863    5.905409
  14 C      8.432567    6.271166    5.293159
  15 C      6.644669    7.521479    6.014757
  16 C     10.228118    7.392264    6.294368
  17 C      8.400464    9.019907    5.727359
  18 C      7.211525    5.482797    5.045586
  19 C      5.632780    3.583673    5.068304
  20 C      7.002440    4.061561    5.180336
  21 C      8.078426    3.204351    5.533003
  22 C     10.143542    4.709953    6.091507
  23 C      9.210315    3.837831    5.800106

Unit cell:
           periodic     x           y           z      points  spacing
  1. axis:    yes   16.000000    0.000000    0.000000    80     0.2000
  2. axis:    yes    0.000000   16.000000    0.000000    80     0.2000
  3. axis:    yes    0.000000    0.000000   10.000000    48     0.2083

Effective grid spacing dv^(1/3) = 0.2027

                     log10-error:    total        iterations:
           time      wfs    density  energy       fermi  poisson
iter:   1  12:03:10          +inf  -177.253800    2      5
iter:   2  12:03:11         -2.90  -177.252832    2      1
iter:   3  12:03:11         -3.05  -177.252588    2      1
iter:   4  12:03:12         -3.14  -177.252603    2      1
iter:   5  12:03:12         -3.29  -177.252940    2      1
iter:   6  12:03:13         -3.51  -177.253761    2      1
iter:   7  12:03:14         -3.26  -177.252423    2      1
iter:   8  12:03:14         -3.68  -177.252124    2      1
iter:   9  12:03:15         -3.88  -177.252454    2      1
iter:  10  12:03:15         -3.87  -177.252274    2      1
iter:  11  12:03:16         -4.20  -177.252063    2      1

Converged after 11 iterations.

Dipole moment: (0.773339, -0.678322, -0.169510) |e|*Ang

Energy contributions relative to reference atoms: (reference = -24663.074771)

Kinetic:       +114.636714
Potential:     -118.398549
External:        +0.000000
XC:            -176.253747
Entropy (-ST):   -0.304568
Local:           +2.915804
Free energy:   -177.404347
Extrapolated:  -177.252063

Fermi level: -4.86667

 Band  Eigenvalues  Occupancy
    0    -26.65481    2.00000
    1    -23.48509    2.00000
    2    -22.61276    2.00000
    3    -22.03263    2.00000
    4    -21.19744    2.00000
    5    -20.89174    2.00000
    6    -20.29339    2.00000
    7    -19.53100    2.00000
    8    -18.84450    2.00000
    9    -18.29095    2.00000
   10    -17.86165    2.00000
   11    -17.22811    2.00000
   12    -16.98631    2.00000
   13    -16.24144    2.00000
   14    -15.37727    2.00000
   15    -15.02466    2.00000
   16    -14.76065    2.00000
   17    -14.51700    2.00000
   18    -13.85300    2.00000
   19    -13.32593    2.00000
   20    -12.77860    2.00000
   21    -12.48027    2.00000
   22    -11.92391    2.00000
   23    -11.42494    2.00000
   24    -11.24697    2.00000
   25    -11.03405    2.00000
   26    -10.90881    2.00000
   27    -10.69308    2.00000
   28    -10.49601    2.00000
   29    -10.14731    2.00000
   30    -10.04155    2.00000
   31     -9.62593    2.00000
   32     -9.59490    2.00000
   33     -9.22141    2.00000
   34     -8.93975    2.00000
   35     -7.82476    2.00000
   36     -7.65536    2.00000
   37     -7.55589    2.00000
   38     -7.43038    2.00000
   39     -7.28680    2.00000
   40     -6.71640    2.00000
   41     -6.53899    2.00000
   42     -6.32500    2.00000
   43     -5.59861    1.99868
   44     -5.57193    1.99827
   45     -5.32474    1.97971
   46     -5.24174    1.95408
   47     -4.91705    1.24671
   48     -4.83058    0.82148
   49     -4.09742    0.00091
   50     -3.92665    0.00017
   51     -3.38839    0.00000
   52     -2.87018    0.00000
   53     -2.44721    0.00000
   54     -2.09341    0.00000
   55     -1.83701    0.00000
   56     -1.37739    0.00000
   57     -1.18078    0.00000
   58     -0.05650    0.00000
   59      0.43208    0.00000
[...]
   83      7.87379    0.00000
   84      8.02001    0.00000
   85      8.26847    0.00000
   86      8.44370    0.00000
   87      8.47997    0.00000
   88      8.79824    0.00000
   89      8.87034    0.00000
   90      8.98924    0.00000
   91      9.09681    0.00000
   92      9.17052    0.00000
   93      9.20807    0.00000
   94      9.53527    0.00000
   95      9.68093    0.00000
   96      9.78106    0.00000
   97      9.90041    0.00000

Forces in eV/Ang:
  0 C     0.01159   -0.04091   -0.06305
  1 C    -0.00548    0.00632    0.00551
  2 C    -0.04284   -0.03769   -0.02171
  3 C    -0.03249    0.03969   -0.00988
  4 C    -0.02411    0.02941    0.01441
  5 C     0.02314   -0.01799   -0.00421
  6 C    -0.01855   -0.00171    0.01445
  7 C    -0.00681    0.00571   -0.01240
  8 C     0.01036    0.03241    0.00872
  9 C    -0.01283    0.00734    0.04192
 10 C    -0.02881   -0.02422    0.01176
 11 C    -0.01071    0.02012    0.02053
 12 C    -0.00940    0.04186    0.01427
 13 C     0.00381    0.01154   -0.00284
 14 C     0.01591    0.04781   -0.01385
 15 C     0.06313    0.00824   -0.03662
 16 C     0.02236   -0.01116    0.01219
 17 C     0.01004    0.01045    0.02931
 18 C     0.01134   -0.00453    0.03924
 19 C     0.03205   -0.03668   -0.00886
 20 C    -0.00979   -0.02832    0.00075
 21 C     0.00448   -0.01591    0.01880
 22 C     0.02344   -0.00448    0.01861
 23 C     0.00136   -0.00269   -0.00899