User:   esb@s65n22.grendel.cscaa.dk
Date:   Thu Nov  9 09:19:02 2017
Arch:   x86_64
Pid:    66896
Python: 2.7.13
gpaw:   /home/esb/DFT/gpaw_git/gpaw
_gpaw:  /home/esb/DFT/gpaw_git/build/bin.linux-x86_64-2.7/gpaw-python
ase:    /home/esb/DFT/ase_git/ase (version 3.15.0b1)
numpy:  /comm/swstack/core/python/2.7.13/lib/python2.7/site-packages/numpy (version 1.13.3)
scipy:  /comm/swstack/core/python/2.7.13/lib/python2.7/site-packages/scipy (version 0.19.1)
units:  Angstrom and eV
cores:  16
Extra parameters: {'blacs': True}

Input parameters:
  basis: dzp
  gpts: [80 80 48]
  kpts: [1 1 1]
  maxiter: 99
  mixer: {backend: pulay,
          beta: 0.05,
          method: separate,
          nmaxold: 5,
          weight: 75}
  mode: lcao
  nbands: -50
  occupations: {name: fermi-dirac,
                width: 0.1}
  poissonsolver: {eps: 1e-07,
                  name: fd,
                  nn: 3,
                  relax: GS}
  xc: PBE

System changes: positions, numbers, cell, pbc, initial_charges, initial_magmoms

Initialize ...

C-setup:
  name: Carbon
  id: 4aa54d4b901d75f77cc0ea3eec22967b
  Z: 6
  valence: 4
  core: 2
  charge: 0.0
  file: /home/esb/DFT/gpaw-setups-0.8.7929/C.PBE.gz
  cutoffs: 0.64(comp), 1.14(filt), 1.14(core), lmax=2
  valence states:
                energy  radius
    2s(2.00)   -13.751   0.635
    2p(2.00)    -5.284   0.635
    *s          13.461   0.635
    *p          21.927   0.635
    *d           0.000   0.635

  LCAO basis set for C:
    Name: dzp
    File: /home/esb/DFT/gpaw-setups-0.8.7929/C.dzp.basis.gz
    Number of radial functions: 5
    Number of spherical harmonics: 13
      l=0, rc=5.5469 Bohr: 2s-sz confined orbital
      l=1, rc=6.6719 Bohr: 2p-sz confined orbital
      l=0, rc=3.0312 Bohr: 2s-dz split-valence wave
      l=1, rc=3.7500 Bohr: 2p-dz split-valence wave
      l=2, rc=6.6719 Bohr: d-type Gaussian polarization

Reference energy: -24663.074771

Spin-paired calculation

Occupation numbers:
  Fermi-Dirac: width=0.1000 eV

Convergence criteria:
  Maximum total energy change: 0.0005 eV / electron
  Maximum integral of absolute density change: 0.0001 electrons
  Maximum integral of absolute eigenstate change: 4e-08 eV^2
  Maximum number of iterations: 99

Symmetries present (total): 1

  ( 1  0  0)
  ( 0  1  0)
  ( 0  0  1)

1 k-point (Gamma)
1 k-point in the irreducible part of the Brillouin zone
       k-points in crystal coordinates                weights
   0:     0.00000000    0.00000000    0.00000000          1/1

Wave functions: LCAO
  Diagonalizer: Serial LAPACK
  Atomic Correction: dense with blas
  Datatype: float
  Eigensolver: None

LCAO using direct dense diagonalizer

Densities:
  Coarse grid: 80*80*48 grid
  Fine grid: 160*160*96 grid
  Total Charge: 0.000000

Density mixing:
  Method: separate
  Backend: pulay
  Linear mixing parameter: 0.05
  Mixing with 5 old densities
  Damping of long wave oscillations: 75

Hamiltonian:
  XC and Coulomb potentials evaluated on a 160*160*96 grid
  Using the PBE Exchange-Correlation functional
  Interpolation: tri-quintic (5. degree polynomial)
  Poisson solver: Gauss-Seidel solver with 6 multi-grid levels
    Coarsest grid: 5 x 5 x 3 points
    Stencil: 6*3+1=19 point O(h^6) finite-difference Laplacian
    Max iterations: 1000
    Tolerance: 1.000000e-07

Total number of cores used: 16
Domain decomposition: 2 x 4 x 2

Number of atoms: 24
Number of atomic orbitals: 312
Number of bands in calculation: 98
Bands to converge: occupied states only
Number of valence electrons: 96

... initialized

Initializing position-dependent things.

Density initialized from atomic densities
   /       |      C  C                            |
  /        |     C     C  CC  C                   |
 *         |                   C                  |
 |         |    CC   C      C    C                |
 |         .-C-C-----C--C-----C-------------------.
 |        /     C  C  CC  C   C                  /

Positions:
   0 C      7.547506    9.927920    6.079185
   1 C     10.726437    5.232759    5.649679
   2 C      9.804456    8.588518    6.205694
   3 C      9.566873    6.171946    5.751354
   4 C     10.382163    7.408801    6.006993
   5 C      8.422937    8.818233    6.022144
   6 C      3.288245    6.325099    5.437312
   7 C     11.454974    6.415528    5.935323
   8 C     10.697761    3.903902    5.296983
   9 C      5.188180   11.327063    5.594650
  10 C      6.580736    6.952233    5.125670
  11 C      3.612157    9.312026    4.607643
  12 C      4.595847    5.718686    4.542000
  13 C      7.177607    4.925782    5.176048
  14 C      6.310891   10.703046    5.639657
  15 C      7.946914    3.766529    5.195508
  16 C      7.881631    6.259424    5.325370
  17 C      9.240496    3.908575    5.237569
  18 C      3.905498   11.834828    5.423931
  19 C      5.929668    5.633895    4.937803
  20 C      3.662129   10.546018    4.960730
  21 C      4.457848    8.192534    4.651800
  22 C      5.961055    8.199529    5.034877
  23 C      4.058217    6.864453    4.413628

Unit cell:
           periodic     x           y           z      points  spacing
  1. axis:    yes   16.000000    0.000000    0.000000    80     0.2000
  2. axis:    yes    0.000000   16.000000    0.000000    80     0.2000
  3. axis:    yes    0.000000    0.000000   10.000000    48     0.2083

Effective grid spacing dv^(1/3) = 0.2027

                     log10-error:    total        iterations:
           time      wfs    density  energy       fermi  poisson
iter:   1  09:19:04          +inf  -174.887795    3      6
iter:   2  09:19:04         -0.90  -173.938711    3      3
iter:   3  09:19:05         -0.94  -172.364190    4      3
iter:   4  09:19:05         -1.08  -171.925612    4      3
iter:   5  09:19:06         -1.19  -171.556997    32     3
iter:   6  09:19:07         -1.37  -171.549460    33     3
iter:   7  09:19:07         -1.59  -171.508873    2      3
iter:   8  09:19:08         -1.67  -171.451497    3      3
iter:   9  09:19:08         -1.87  -171.434031    3      2
iter:  10  09:19:09         -1.96  -171.418830    3      2
iter:  11  09:19:09         -2.05  -171.400894    4      2
iter:  12  09:19:10         -2.39  -171.390061    3      2
iter:  13  09:19:10         -2.53  -171.387807    3      2
iter:  14  09:19:11         -2.66  -171.395386    3      1
iter:  15  09:19:11         -2.72  -171.387361    3      2
iter:  16  09:19:12         -2.91  -171.397053    2      1
iter:  17  09:19:12         -3.05  -171.386875    3      2
iter:  18  09:19:13         -3.33  -171.386397    2      1
iter:  19  09:19:13         -3.46  -171.389039    2      1
iter:  20  09:19:14         -3.57  -171.390765    2      1
iter:  21  09:19:14         -3.77  -171.385436    2      1
iter:  22  09:19:15         -3.91  -171.385265    2      1
iter:  23  09:19:15         -4.02  -171.385237    2      1

Converged after 23 iterations.

Dipole moment: (0.309943, 0.193374, -0.159801) |e|*Ang

Energy contributions relative to reference atoms: (reference = -24663.074771)

Kinetic:        +95.284391
Potential:     -104.024051
External:        +0.000000
XC:            -165.402579
Entropy (-ST):   -0.312422
Local:           +2.913214
Free energy:   -171.541448
Extrapolated:  -171.385237

Fermi level: -4.85416

 Band  Eigenvalues  Occupancy
    0    -23.70727    2.00000
    1    -23.38057    2.00000
    2    -22.36622    2.00000
    3    -21.84369    2.00000
    4    -20.72029    2.00000
    5    -19.98990    2.00000
    6    -19.89193    2.00000
    7    -19.37258    2.00000
    8    -18.75151    2.00000
    9    -18.05709    2.00000
   10    -17.62833    2.00000
   11    -17.43858    2.00000
   12    -16.62717    2.00000
   13    -15.60327    2.00000
   14    -15.26659    2.00000
   15    -14.84310    2.00000
   16    -13.71480    2.00000
   17    -13.41229    2.00000
   18    -13.30125    2.00000
   19    -12.66869    2.00000
   20    -12.12127    2.00000
   21    -12.00624    2.00000
   22    -11.39507    2.00000
   23    -11.22662    2.00000
   24    -11.09689    2.00000
   25    -10.54417    2.00000
   26    -10.30115    2.00000
   27    -10.07403    2.00000
   28     -9.85926    2.00000
   29     -9.58148    2.00000
   30     -9.50518    2.00000
   31     -9.17879    2.00000
   32     -8.69346    2.00000
   33     -8.59724    2.00000
   34     -8.38388    2.00000
   35     -8.04562    2.00000
   36     -7.68336    2.00000
   37     -7.30706    2.00000
   38     -7.23630    2.00000
   39     -6.70376    2.00000
   40     -6.42191    2.00000
   41     -6.19825    2.00000
   42     -5.81899    1.99987
   43     -5.56700    1.99840
   44     -5.51883    1.99741
   45     -5.37968    1.98961
   46     -5.12803    1.87855
   47     -4.93669    1.39072
   48     -4.80166    0.74338
   49     -4.11663    0.00125
   50     -4.06646    0.00076
   51     -3.80019    0.00005
   52     -3.18237    0.00000
   53     -2.75649    0.00000
   54     -2.36887    0.00000
   55     -1.86227    0.00000
   56     -1.81822    0.00000
   57     -1.35483    0.00000
   58     -0.97624    0.00000
   59     -0.89119    0.00000
[...]
   83      8.25554    0.00000
   84      8.30328    0.00000
   85      8.52192    0.00000
   86      8.66564    0.00000
   87      8.75447    0.00000
   88      8.82794    0.00000
   89      9.06314    0.00000
   90      9.13515    0.00000
   91      9.19124    0.00000
   92      9.27158    0.00000
   93      9.54607    0.00000
   94      9.68704    0.00000
   95      9.82056    0.00000
   96      9.86067    0.00000
   97      9.97860    0.00000

Forces in eV/Ang:
  0 C    -3.15318   -0.33017   -2.39240
  1 C    -1.25160    1.27005    0.27550
  2 C    -3.48621    0.81526   -0.40346
  3 C    -4.30864    1.73455   -1.01254
  4 C     0.88404   -2.32958    0.23983
  5 C     0.84222    4.98678    0.93694
  6 C    -0.31632   -2.51294   -0.40024
  7 C     0.92051    1.91442   -0.08355
  8 C    -3.49596   -1.08380   -0.31160
  9 C    -0.76104    0.69691   -0.02992
 10 C     0.72283    2.44513    0.31000
 11 C     0.30402   -0.94130    0.14921
 12 C     1.50085   -6.06524    2.56394
 13 C     0.87213    1.53251    0.03894
 14 C     6.37527   -3.90826    2.32223
 15 C     0.10178   -0.14678   -0.44677
 16 C     3.26860   -1.55910    0.95052
 17 C     2.91785   -3.09085   -0.04806
 18 C     0.22414   -0.22297   -0.14851
 19 C     0.62123   -1.21390   -0.38491
 20 C     0.29291    0.30519    0.17872
 21 C     3.02686    3.52611   -0.13688
 22 C    -2.49764   -1.51130   -0.79741
 23 C    -3.64422    5.68280   -1.33403

System changes: positions

[...]

Density initialized from wave functions
   /       |      C  C                            |
  /        |     C     C  CC  C                   |
 *         |                   C                  |
 |         |    CC   C      C    C                |
 |         .-C-C--------C-----C-------------------.
 |        /     C  C  CC  C  C                   /

[...]

Density initialized from wave functions
   /       |      C  C                            |
  /        |     C     C C C  C                   |
 *         |                   C                  |
 |         |    CC   C      C    C                |
 |         .-C-C--------C-----C-------------------.
 |        /     C  C  CC  C  C                   /

[...]

Density initialized from wave functions
   /       |      C  C                            |
  /        |     C     C C C  C                   |
 *         |                   C                  |
 |         |    CC   C      C    C                |
 |         .-C-C--------C-----C-------------------.
 |        /     C  C  CC  C  C                   /

[...]

Density initialized from wave functions
   /       |      C  C C                          |
  /        |     C       C C  C                   |
 *         |                   C                  |
 |         |    CC  C C     C    C                |
 |         .-C-C--------C-----C-------------------.
 |        /     C  C  CC  C  C                   /

[...]

Density initialized from wave functions
   /       |      C  C C                          |
  /        |     C       C C  C                   |
 *         |                   C                  |
 |         |    CC  C C     C    C                |
 |         .-C-C--------C-----C-------------------.
 |        /     C  C  CC  C  C                   /

[...]

Density initialized from wave functions
   /       |      C  C C                          |
  /        |     C       C  C C                   |
 *         |                   C                  |
 |         |    CC   CC     C    C                |
 |         .-C-C--------C-----C-------------------.
 |        /     C  C  C   C  C                   /
 |       /             C                        /

[...]

Density initialized from wave functions
   /       |      C  C C                          |
  /        |     C       C  C C                   |
 *         |                   C                  |
 |         |    CC   CC     C    C                |
 |         .-C-C--------C-----C-------------------.
 |        /     C  C  C   C  C                   /
 |       /             C                        /

[...]

Density initialized from wave functions
   /       |      C  C C                          |
  /        |     C       C  C C                   |
 *         |                   C                  |
 |         |    CC   CC     C    C                |
 |         .-C-C--------C-----C-------------------.
 |        /     C  C  C      C                   /
 |       /             C  C                     /

[...]

Density initialized from wave functions
   /       |      C  C C                          |
  /        |     C       C  C C                   |
 *         |                   C                  |
 |         |    CC   CC     C    C                |
 |         .-C-C--------C-----C-------------------.
 |        /     C  C  C      C                   /
 |       /             C  C                     /

[...]

Density initialized from wave functions
   /       |      C  C C                          |
  /        |     C       C  C C                   |
 *         |                   C                  |
 |         |    CC   C      C    C                |
 |         .-C-C------C-C-----C-------------------.
 |        /     C  C  C      C                   /
 |       /             C  C                     /

[...]

Density initialized from wave functions
   /       |      C  C  C                         |
  /        |     C       C  C C                   |
 *         |                  C                   |
 |         |    CC   C      C    C                |
 |         .-C-C------C-C-----C-------------------.
 |        /     C  C  C      C                   /
 |       /             C  C                     /

[...]

Density initialized from wave functions
   /       |      C  C  C                         |
  /        |     C       C  C C                   |
 *         |                  C                   |
 |         |    CC   C      C    C                |
 |         .C--C------C-C-----C-------------------.
 |        /     C  C  C      C                   /
 |       /             C  C                     /

[...]

Density initialized from wave functions
   /       |      C  C  C                         |
  /        |     C       C  C C                   |
 *         |                  C                   |
 |         |    CC   C      C    C                |
 |         .C--C------C-C-----C-------------------.
 |        /     C  C  C      C                   /
 |       /             C  C                     /

[...]

Density initialized from wave functions
   /       |      C  C  C                         |
  /        |     C       C  C C                   |
 *         |                  C                   |
 |         |    C C  C      C    C                |
 |         .C--C------C-C-----C-------------------.
 |        /     C  C  C      C                   /
 |       /            C   C                     /

[...]

Density initialized from wave functions
   /       |      C  C  C                         |
  /        |     C       C  C C                   |
 *         |                  C                   |
 |         |    C C  C      C    C                |
 |         .C--C------C-C-----C-------------------.
 |        /     C  C  C      C                   /
 |       /            C  C                      /

[...]

Density initialized from wave functions
   /       |      C  C  C                         |
  /        |            C   C C                   |
 *         |     C            C                   |
 |         |    C C  C      C    C                |
 |         .C--C------C-C-----C-------------------.
 |        /     C  C  C      C                   /
 |       /            C  C                      /

[...]

Density initialized from wave functions
   /       |      C  C  C                         |
  /        |            C   C C                   |
 *         |     C            C                   |
 |         |    C C  CC     C    C                |
 |         .C--C--------C-----C-------------------.
 |        /     C  C  C      C                   /
 |       /            C  C                      /

[...]

Density initialized from wave functions
   /       |      C  C  C                         |
  /        |            C  C  C                   |
 *         |     C            C                   |
 |         |    C C  CC     C    C                |
 |         .C--C--------C-----C-------------------.
 |        /     C  C  C      C                   /
 |       /            C  C                      /

[...]

Density initialized from wave functions
   /       |      C  C  C                         |
  /        |            C  C  C                   |
 *         |     C            C                   |
 |         |     CC  CC     C    C                |
 |         .C--C--------C-----C-------------------.
 |        /     C  C  C      C                   /
 |       /            C  C                      /

[...]

Density initialized from wave functions
   /       |      C  C  C                         |
  /        |            C  C  C                   |
 *         |     C            C                   |
 |         |     CC  CC     C    C                |
 |         .C--C--------C-----C-------------------.
 |        /     C  C  C      C                   /
 |       /            C  C                      /

[...]

Density initialized from wave functions
   /       |      C  C  C                         |
  /        |            C  C  C                   |
 *         |     C            C                   |
 |         |     CC  CC     C    C                |
 |         .-C-C--------C-----C-------------------.
 |        /     C  C  C      C                   /
 |       /            C   C                     /

[...]

Density initialized from wave functions
   /       |      C  C  C                         |
  /        |            C  C  C                   |
 *         |     C            C                   |
 |         |     CC  CC     C    C                |
 |         .-C-C--------C-----C-------------------.
 |        /     C  C  C      C                   /
 |       /            C   C                     /

[...]

Density initialized from wave functions
   /       |      C  C  C                         |
  /        |            C  C  C                   |
 *         |     C            C                   |
 |         |    C C  CC     C    C                |
 |         .-C-C--------C-----C-------------------.
 |        /     C  C  C      C                   /
 |       /            C   C                     /

[...]

Density initialized from wave functions
   /       |       C C C                          |
  /        |     C      C  C  C                   |
 *         |                  C                   |
 |         |    C C  CC     C    C                |
 |         .-C-C--------C-----C-------------------.
 |        /     C  C  C      C                   /
 |       /            C   C                     /

[...]

Density initialized from wave functions
   /       |       C C C                          |
  /        |     C      C  C  C                   |
 *         |                  C                   |
 |         |    C C  CC     C    C                |
 |         .-C-C--------C-----C-------------------.
 |        /     C  C  C      C                   /
 |       /            C   C                     /

[...]

System changes: positions

Initializing position-dependent things.

Density initialized from wave functions
   /       |       C C C                          |
  /        |            C  C  C                   |
 *         |     C            C                   |
 |         |    C C  CC     C    C                |
 |         .-C-C--------C-----C-------------------.
 |        /     C  C  C      C                   /
 |       /             C  C                     /

Positions:
   0 C      6.972928    9.434861    5.686650
   1 C     10.525131    5.401241    5.719420
   2 C      9.498079    8.721323    6.032765
   3 C      9.346281    6.352899    5.635152
   4 C     10.156773    7.510551    5.981256
   5 C      8.325393    9.174334    5.901269
   6 C      3.241761    5.792516    5.039885
   7 C     11.297841    6.627497    5.949974
   8 C     10.385400    4.057002    5.514810
   9 C      5.361140   11.366001    5.763500
  10 C      6.739732    6.916435    5.219948
  11 C      3.925624    9.362542    4.569150
  12 C      4.671509    5.666317    4.844856
  13 C      7.308634    4.889144    4.976643
  14 C      6.453435   10.702787    5.950262
  15 C      7.911820    3.626529    4.939020
  16 C      8.038165    6.149038    5.313743
  17 C      9.194978    3.586580    5.173353
  18 C      4.190644   11.914607    5.290437
  19 C      6.067391    5.642150    4.914339
  20 C      3.931345   10.610685    4.864402
  21 C      4.702280    8.231302    4.888430
  22 C      6.144366    8.201451    5.251266
  23 C      4.055003    6.948842    4.852703

Unit cell:
           periodic     x           y           z      points  spacing
  1. axis:    yes   16.000000    0.000000    0.000000    80     0.2000
  2. axis:    yes    0.000000   16.000000    0.000000    80     0.2000
  3. axis:    yes    0.000000    0.000000   10.000000    48     0.2083

Effective grid spacing dv^(1/3) = 0.2027

                     log10-error:    total        iterations:
           time      wfs    density  energy       fermi  poisson
iter:   1  09:25:33          +inf  -180.719813    3      4
iter:   2  09:25:34         -2.67  -180.721600    3      1
iter:   3  09:25:34         -3.32  -180.723448    2      1
iter:   4  09:25:35         -3.45  -180.722872    2      1
iter:   5  09:25:35         -3.49  -180.724649    2      1
iter:   6  09:25:36         -3.18  -180.723489    2      1
iter:   7  09:25:36         -3.82  -180.722155    2      1
iter:   8  09:25:37         -3.37  -180.723026    2      1
iter:   9  09:25:37         -4.22  -180.723347    2      1

Converged after 9 iterations.

Dipole moment: (0.525554, -0.428840, -0.061534) |e|*Ang

Energy contributions relative to reference atoms: (reference = -24663.074771)

Kinetic:       +111.279289
Potential:     -118.409471
External:        +0.000000
XC:            -176.482630
Entropy (-ST):   -0.167741
Local:           +2.973335
Free energy:   -180.807218
Extrapolated:  -180.723347

Fermi level: -4.71084

 Band  Eigenvalues  Occupancy
    0    -23.41338    2.00000
    1    -23.04848    2.00000
    2    -22.19747    2.00000
    3    -21.70894    2.00000
    4    -20.97561    2.00000
    5    -20.51151    2.00000
    6    -20.12864    2.00000
    7    -19.32100    2.00000
    8    -18.60218    2.00000
    9    -18.21840    2.00000
   10    -17.89184    2.00000
   11    -17.48840    2.00000
   12    -16.67729    2.00000
   13    -16.33812    2.00000
   14    -15.56702    2.00000
   15    -15.25718    2.00000
   16    -13.98532    2.00000
   17    -13.45887    2.00000
   18    -13.33863    2.00000
   19    -12.87834    2.00000
   20    -12.10837    2.00000
   21    -11.88028    2.00000
   22    -11.33972    2.00000
   23    -11.03621    2.00000
   24    -10.96731    2.00000
   25    -10.88119    2.00000
   26    -10.72355    2.00000
   27    -10.25477    2.00000
   28    -10.10491    2.00000
   29     -9.55490    2.00000
   30     -9.38887    2.00000
   31     -9.22282    2.00000
   32     -9.02860    2.00000
   33     -8.93095    2.00000
   34     -8.77731    2.00000
   35     -8.54879    2.00000
   36     -8.18134    2.00000
   37     -7.86158    2.00000
   38     -7.75113    2.00000
   39     -7.21170    2.00000
   40     -6.65207    2.00000
   41     -6.01272    2.00000
   42     -5.56088    1.99959
   43     -5.42324    1.99839
   44     -5.29163    1.99401
   45     -5.22374    1.98822
   46     -5.04754    1.93331
   47     -4.96599    1.85534
   48     -4.50555    0.22752
   49     -4.07398    0.00342
   50     -3.78594    0.00019
   51     -2.79196    0.00000
   52     -2.23420    0.00000
   53     -1.94041    0.00000
   54     -1.81270    0.00000
   55     -1.76308    0.00000
   56     -1.40492    0.00000
   57     -0.76328    0.00000
   58     -0.13455    0.00000
   59      0.59083    0.00000
[...]
   83      8.48452    0.00000
   84      8.74291    0.00000
   85      8.83119    0.00000
   86      8.91266    0.00000
   87      9.19538    0.00000
   88      9.33432    0.00000
   89      9.35859    0.00000
   90      9.42115    0.00000
   91      9.54668    0.00000
   92      9.77406    0.00000
   93      9.78437    0.00000
   94      9.91885    0.00000
   95      9.96860    0.00000
   96     10.17317    0.00000
   97     10.27009    0.00000

Forces in eV/Ang:
  0 C    -0.03117   -0.04684    0.03397
  1 C     0.01230    0.01535   -0.00505
  2 C    -0.00222    0.01353    0.00808
  3 C    -0.02106    0.01154    0.01184
  4 C    -0.02975   -0.03660   -0.00736
  5 C     0.04562    0.01058    0.01432
  6 C     0.00896    0.01283    0.05358
  7 C    -0.03363    0.02150    0.00818
  8 C     0.02224   -0.00075   -0.00738
  9 C    -0.00395    0.01620   -0.02392
 10 C     0.01817    0.00370    0.01630
 11 C    -0.01359   -0.00827   -0.01596
 12 C     0.00156   -0.07064   -0.06298
 13 C    -0.00520    0.03646   -0.04816
 14 C    -0.00200   -0.00794    0.00211
 15 C    -0.02047    0.02646    0.02171
 16 C     0.00718    0.00452   -0.02545
 17 C     0.00181    0.01006   -0.00649
 18 C     0.02496   -0.03319   -0.05605
 19 C     0.00551    0.03717    0.00841
 20 C     0.01221   -0.00995    0.01745
 21 C    -0.00073    0.00880    0.02184
 22 C    -0.01214   -0.03005    0.01845
 23 C     0.01719    0.01177    0.03509