User:   esb@s65n33.grendel.cscaa.dk
Date:   Wed Nov  8 14:13:02 2017
Arch:   x86_64
Pid:    66378
Python: 2.7.13
gpaw:   /home/esb/DFT/gpaw_git/gpaw
_gpaw:  /home/esb/DFT/gpaw_git/build/bin.linux-x86_64-2.7/gpaw-python
ase:    /home/esb/DFT/ase_git/ase (version 3.15.0b1)
numpy:  /comm/swstack/core/python/2.7.13/lib/python2.7/site-packages/numpy (version 1.13.3)
scipy:  /comm/swstack/core/python/2.7.13/lib/python2.7/site-packages/scipy (version 0.19.1)
units:  Angstrom and eV
cores:  16
Extra parameters: {'blacs': True}

Input parameters:
  basis: dzp
  gpts: [80 80 48]
  kpts: [1 1 1]
  maxiter: 99
  mixer: {backend: pulay,
          beta: 0.05,
          method: separate,
          nmaxold: 5,
          weight: 75}
  mode: lcao
  nbands: -50
  occupations: {name: fermi-dirac,
                width: 0.1}
  poissonsolver: {eps: 1e-07,
                  name: fd,
                  nn: 3,
                  relax: GS}
  xc: PBE

System changes: positions, numbers, cell, pbc, initial_charges, initial_magmoms

Initialize ...

C-setup:
  name: Carbon
  id: 4aa54d4b901d75f77cc0ea3eec22967b
  Z: 6
  valence: 4
  core: 2
  charge: 0.0
  file: /home/esb/DFT/gpaw-setups-0.8.7929/C.PBE.gz
  cutoffs: 0.64(comp), 1.14(filt), 1.14(core), lmax=2
  valence states:
                energy  radius
    2s(2.00)   -13.751   0.635
    2p(2.00)    -5.284   0.635
    *s          13.461   0.635
    *p          21.927   0.635
    *d           0.000   0.635

  LCAO basis set for C:
    Name: dzp
    File: /home/esb/DFT/gpaw-setups-0.8.7929/C.dzp.basis.gz
    Number of radial functions: 5
    Number of spherical harmonics: 13
      l=0, rc=5.5469 Bohr: 2s-sz confined orbital
      l=1, rc=6.6719 Bohr: 2p-sz confined orbital
      l=0, rc=3.0312 Bohr: 2s-dz split-valence wave
      l=1, rc=3.7500 Bohr: 2p-dz split-valence wave
      l=2, rc=6.6719 Bohr: d-type Gaussian polarization

Reference energy: -24663.074771

Spin-paired calculation

Occupation numbers:
  Fermi-Dirac: width=0.1000 eV

Convergence criteria:
  Maximum total energy change: 0.0005 eV / electron
  Maximum integral of absolute density change: 0.0001 electrons
  Maximum integral of absolute eigenstate change: 4e-08 eV^2
  Maximum number of iterations: 99

Symmetries present (total): 1

  ( 1  0  0)
  ( 0  1  0)
  ( 0  0  1)

1 k-point (Gamma)
1 k-point in the irreducible part of the Brillouin zone
       k-points in crystal coordinates                weights
   0:     0.00000000    0.00000000    0.00000000          1/1

Wave functions: LCAO
  Diagonalizer: Serial LAPACK
  Atomic Correction: dense with blas
  Datatype: float
  Eigensolver: None

LCAO using direct dense diagonalizer

Densities:
  Coarse grid: 80*80*48 grid
  Fine grid: 160*160*96 grid
  Total Charge: 0.000000

Density mixing:
  Method: separate
  Backend: pulay
  Linear mixing parameter: 0.05
  Mixing with 5 old densities
  Damping of long wave oscillations: 75

Hamiltonian:
  XC and Coulomb potentials evaluated on a 160*160*96 grid
  Using the PBE Exchange-Correlation functional
  Interpolation: tri-quintic (5. degree polynomial)
  Poisson solver: Gauss-Seidel solver with 6 multi-grid levels
    Coarsest grid: 5 x 5 x 3 points
    Stencil: 6*3+1=19 point O(h^6) finite-difference Laplacian
    Max iterations: 1000
    Tolerance: 1.000000e-07

Total number of cores used: 16
Domain decomposition: 2 x 4 x 2

Number of atoms: 24
Number of atomic orbitals: 312
Number of bands in calculation: 98
Bands to converge: occupied states only
Number of valence electrons: 96

... initialized

Initializing position-dependent things.

Density initialized from atomic densities
  /        |           C     C                    |
 *         |        C C    C   C                  |
 |         |     C       C   CC                   |
 |         .--C-C--C-C-CCC-C----------------------.
 |        /     C  C C          C                /
 |       /                C                     /

Positions:
   0 C      9.661889    8.099863    4.795207
   1 C     11.275380    5.247242    4.871092
   2 C      9.182788    3.705363    5.011976
   3 C      4.386471    7.422897    4.606218
   4 C      8.155008    6.683305    5.280965
   5 C      6.369203    3.395081    5.498328
   6 C      6.275148   11.377062    4.574123
   7 C      7.006800    4.616282    5.429049
   8 C      6.267807    8.771390    5.358460
   9 C      8.307400    8.446070    5.582265
  10 C      5.353729    8.115877    4.405249
  11 C      9.317811    5.988772    4.899506
  12 C      7.932326    7.966721    4.528421
  13 C      7.160406    7.009480    4.968395
  14 C      4.611633    5.701088    4.421261
  15 C      4.462432    8.521781    4.894892
  16 C     10.022662    9.022550    5.249564
  17 C      5.272462   10.414977    4.773327
  18 C      6.583234    6.061153    5.417368
  19 C      4.964201    6.113823    5.624751
  20 C      8.685722   10.981610    5.224972
  21 C      7.882290    5.468589    5.099394
  22 C      3.599547    6.595168    4.770942
  23 C      9.860032    7.037092    5.694623

Unit cell:
           periodic     x           y           z      points  spacing
  1. axis:    yes   16.000000    0.000000    0.000000    80     0.2000
  2. axis:    yes    0.000000   16.000000    0.000000    80     0.2000
  3. axis:    yes    0.000000    0.000000   10.000000    48     0.2083

Effective grid spacing dv^(1/3) = 0.2027

                     log10-error:    total        iterations:
           time      wfs    density  energy       fermi  poisson
iter:   1  14:13:04          +inf  -114.302721    3      6
iter:   2  14:13:04         -0.77  -107.366340    3      3
iter:   3  14:13:05         -0.87  -104.145582    4      3
iter:   4  14:13:06         -0.97  -102.969221    3      3
iter:   5  14:13:06         -1.02  -101.616557    3      3
iter:   6  14:13:07         -1.11  -100.877848    4      3
iter:   7  14:13:07         -1.26  -100.688086    4      3
iter:   8  14:13:08         -1.33  -100.458933    4      3
iter:   9  14:13:09         -1.57  -100.427125    3      3
iter:  10  14:13:09         -1.68  -100.392529    3      3
iter:  11  14:13:10         -1.83  -100.371933    3      2
iter:  12  14:13:11         -1.92  -100.353827    3      2
iter:  13  14:13:11         -2.12  -100.342895    3      2
iter:  14  14:13:12         -2.21  -100.338922    3      2
iter:  15  14:13:12         -2.44  -100.336367    3      2
iter:  16  14:13:13         -2.61  -100.338443    2      2
iter:  17  14:13:14         -2.73  -100.339002    2      2
iter:  18  14:13:14         -2.80  -100.338731    2      1
iter:  19  14:13:15         -2.86  -100.342113    2      1
iter:  20  14:13:15         -2.96  -100.339075    2      2
iter:  21  14:13:16         -3.14  -100.339574    2      1
iter:  22  14:13:17         -3.28  -100.339587    2      1
iter:  23  14:13:17         -3.37  -100.339328    2      1
iter:  24  14:13:18         -3.59  -100.339257    2      1
iter:  25  14:13:18         -3.70  -100.340069    2      1
iter:  26  14:13:19         -3.83  -100.339589    2      1
iter:  27  14:13:19         -3.90  -100.340173    2      1
iter:  28  14:13:20         -4.13  -100.339659    2      1

Converged after 28 iterations.

Dipole moment: (0.460138, -0.082686, -0.275582) |e|*Ang

Energy contributions relative to reference atoms: (reference = -24663.074771)

Kinetic:       +374.217112
Potential:     -283.057678
External:        +0.000000
XC:            -194.173667
Entropy (-ST):   -0.446195
Local:           +2.897671
Free energy:   -100.562757
Extrapolated:  -100.339659

Fermi level: -4.83913

 Band  Eigenvalues  Occupancy
    0    -31.76068    2.00000
    1    -29.34203    2.00000
    2    -27.54022    2.00000
    3    -25.47420    2.00000
    4    -24.99708    2.00000
    5    -23.67663    2.00000
    6    -21.45630    2.00000
    7    -20.10735    2.00000
    8    -19.22638    2.00000
    9    -18.16284    2.00000
   10    -17.96329    2.00000
   11    -17.15406    2.00000
   12    -17.03724    2.00000
   13    -16.43675    2.00000
   14    -15.94334    2.00000
   15    -15.20675    2.00000
   16    -14.94404    2.00000
   17    -14.58630    2.00000
   18    -14.11174    2.00000
   19    -13.58192    2.00000
   20    -13.36613    2.00000
   21    -12.63989    2.00000
   22    -12.21438    2.00000
   23    -11.69271    2.00000
   24    -11.49585    2.00000
   25    -11.04855    2.00000
   26    -10.38114    2.00000
   27    -10.06548    2.00000
   28     -9.94924    2.00000
   29     -9.71227    2.00000
   30     -8.87546    2.00000
   31     -8.46110    2.00000
   32     -8.26890    2.00000
   33     -7.76460    2.00000
   34     -7.60064    2.00000
   35     -7.05360    2.00000
   36     -7.00640    2.00000
   37     -6.96893    2.00000
   38     -6.67621    2.00000
   39     -6.33143    2.00000
   40     -5.94692    1.99997
   41     -5.81351    1.99988
   42     -5.74888    1.99978
   43     -5.51871    1.99777
   44     -5.35703    1.98880
   45     -5.14031    1.90621
   46     -5.01408    1.70378
   47     -4.94128    1.47053
   48     -4.79538    0.78469
   49     -4.55326    0.10847
   50     -4.38676    0.02146
   51     -4.35029    0.01496
   52     -4.16632    0.00239
   53     -4.08710    0.00108
   54     -3.93524    0.00024
   55     -3.40377    0.00000
   56     -2.98094    0.00000
   57     -2.93307    0.00000
   58     -2.64752    0.00000
   59     -2.53379    0.00000
[...]
   83      7.24186    0.00000
   84      7.40993    0.00000
   85      7.88684    0.00000
   86      8.07219    0.00000
   87      8.27465    0.00000
   88      8.45017    0.00000
   89      8.70370    0.00000
   90      8.88734    0.00000
   91      8.98674    0.00000
   92      9.20535    0.00000
   93      9.25326    0.00000
   94      9.51270    0.00000
   95      9.61464    0.00000
   96      9.70516    0.00000
   97      9.89584    0.00000

Forces in eV/Ang:
  0 C    -4.02457  -20.65015  -12.41812
  1 C    -3.83842    0.21542    0.26452
  2 C     2.07074    2.70124   -0.09352
  3 C    -2.84503  -10.55796   -4.67914
  4 C    33.37565   -4.08561   13.57880
  5 C     0.12957    1.19834   -0.09859
  6 C    -2.08377   -3.32340    0.74794
  7 C    -6.22057   -5.82391    2.04392
  8 C    -0.61298    2.79194   -1.04450
  9 C     4.57191   10.62786   12.91578
 10 C    32.86190   -0.44634  -14.94138
 11 C     4.12592   -6.38600   -2.80603
 12 C    -3.18515    2.58809  -16.53777
 13 C   -28.58868   16.47814  -12.27680
 14 C    -1.23152   -8.64017   -4.07774
 15 C   -19.29116   37.98194   16.83996
 16 C     8.09412   28.61221   10.64706
 17 C     3.46719    1.27138    1.04451
 18 C   -20.87864   -6.52739    5.95400
 19 C     2.72081   -2.40872    5.08108
 20 C     0.10261   -2.14855    0.16459
 21 C    13.32545  -13.99259   -3.21697
 22 C   -14.79759  -16.55344    0.90140
 23 C     2.69591   -2.83272    2.04363

System changes: positions

[...]

Density initialized from wave functions
  /        |           C     C                    |
 *         |        C C    C   C                  |
 |         |     C       C   CC                   |
 |         .--C-C--C-C-CCC-C----------------------.
 |        /     C  C C          C                /
[...]

[...]

Density initialized from wave functions
  /        |        C C      C                    |
 *         |     C    C   C    C                  |
 |         |    C      C  C  C                    |
 |         .--C-C---CC---C---C--------------------.
 |        /  C    C         C  C                 /

[...]

Density initialized from wave functions
  /        |        C C      C                    |
 *         |     C    C   C    C                  |
 |         |    C   C  C  C  C                    |
 |         .--C-C---CC---C---C--------------------.
 |        /  C    C         C  C                 /

[...]

Density initialized from wave functions
  /        |        C C      C                    |
 *         |    C     C   C    C                  |
 |         |    C   C  C  C  C                    |
 |         .--C-C---CC---C---C--------------------.
 |        /  C    C         C  C                 /

[...]

Density initialized from wave functions
  /        |       C  C      C                    |
 *         |    C     C   C    C                  |
 |         |    C   C  C  C  C                    |
 |         .--C-C---CC---C---C--------------------.
 |        /  C    C         C  C                 /
 |       /                     C                /

[...]

Density initialized from wave functions
  /        |       C  C      C                    |
 *         |    C     C   C    C                  |
 |         |    C   C  C  C  C                    |
 |         .--C--C--CC---C---C--------------------.
 |        /  C    C         C  C                 /
 |       /                     C                /

[...]

Density initialized from wave functions
  /        |       C  C      C                    |
 *         |    C     C   C    C                  |
 |         |    C   C  C  C  C                    |
 |         .---C-C--CC---C---C--------------------.
 |        /  C    C         C  C                 /
 |       /                     C                /

[...]

Density initialized from wave functions
  /        |       C  C      C                    |
 *         |    C     C   C    C                  |
 |         |     C  C  C  C  C                    |
 |         .---C-C--CC---C---C--------------------.
 |        /  C     C        C  C                 /
 |       /                     C                /

[...]

Density initialized from wave functions
  /        |       C  C      C                    |
 *         |    C     C   C    C                  |
 |         |     C  C  C  C  C                    |
 |         .---C-C--CC---CC--C--------------------.
 |        /  C     C        C  C                 /

[...]

Density initialized from wave functions
  /        |      C   C      C                    |
 *         |    C      C  C    C                  |
 |         |     C  C  C C   C                    |
 |         .---C-C--CC---CC--C--------------------.
 |        /  C     C        C  C                 /

[...]

Density initialized from wave functions
  /        |      C  C       C                    |
 *         |    C      C  C    C                  |
 |         |     C  C  C C   C                    |
 |         .---C-C--C----CC--C--------------------.
 |        /  C     C C      C  C                 /

[...]

Density initialized from wave functions
  /        |      C  C       C                    |
 *         |   C       C  C    C                  |
 |         |     C  C  C C   C                    |
 |         .---C-C--C----CC--C--------------------.
 |        /  C     C C      C  C                 /

[...]

Density initialized from wave functions
  /        |      C  C       C                    |
 *         |   C       C  C    C                  |
 |         |     C  C  C C   C                    |
 |         .----CC--C-----C--C--------------------.
 |        /   C    C C   C  C  C                 /

[...]

Density initialized from wave functions
  /        |      C  C       C                    |
 *         |   C       C  C    C                  |
 |         |     C  C  C  C  C                    |
 |         .----CC--C-----C--C-C------------------.
 |        /   C    C C   C  C  C                 /

[...]

Density initialized from wave functions
  /        |      C  C                            |
 *         |   C       C  C  C C                  |
 |         |     C  C     C  C                    |
 |         .----CC--C--C--C--C-C------------------.
 |        /   C    C C   C  C  C                 /

[...]

Density initialized from wave functions
  /        |      C  C                            |
 *         |   C       C  C  C C                  |
 |         |     C  C     C  C                    |
 |         .----CC--C--C--C--C-C------------------.
 |        /   C    C C   C C   C                 /

[...]

Density initialized from wave functions
  /        |      C  C                            |
 *         |   C       C  C  C C                  |
 |         |     C  C     C  C                    |
 |         .----CC--C---C-C--C-C------------------.
 |        /   C    C C   C C   C                 /

[...]

Density initialized from wave functions
  /        |      C  C                            |
 *         |   C       C  C  C C                  |
 |         |     C  C   C C  C                    |
 |         .---C-C--C-----C--C-C------------------.
 |        /   C    C C   C C   C                 /

[...]

Density initialized from wave functions
  /        |      C  C                            |
 *         |   C       C  C  C C                  |
 |         |    C   C   C C  C                    |
 |         .---C-C--C-----C---CC------------------.
 |        /   C    C C   C C   C                 /

[...]

Density initialized from wave functions
  /        |      C  C                            |
 *         |   C       C  C  C C                  |
 |         |    C   C   C C  C                    |
 |         .---C-C--C-----C---CC------------------.
 |        /   C    C C   C C   C                 /

[...]

Density initialized from wave functions
  /        |      C  C                            |
 *         |   C       C  C  C C                  |
 |         |    C   C     C  C                    |
 |         .---C-C--C---C-C---CC------------------.
 |        /   C    C C   C C   C                 /

[...]

Density initialized from wave functions
  /        |      C  C                            |
 *         |   C       C  C  C C                  |
 |         |    C   C     C   C                   |
 |         .---C-C--C---C-C---CC------------------.
 |        /   C    C C   C C   C                 /

[...]

Density initialized from wave functions
  /        |      C  C                            |
 *         |   C      C   C  C C                  |
 |         |    C   C     C   C                   |
 |         .--CC-C--C---C-C---CC------------------.
 |        /        C C   C C   C                 /

[...]

Density initialized from wave functions
  /        |      C  C                            |
 *         |   C      C   C  C C                  |
 |         |    C   C     C   C                   |
 |         .--CC-C--C---C-C---CC------------------.
 |        /        C C   C C   C                 /

[...]

Density initialized from wave functions
  /        |      C  C                            |
 *         |   C      C   C  C C                  |
 |         |    C   C     C   C                   |
 |         .--CC-C---C--C-C---CC------------------.
 |        /        C C   C C   C                 /

[...]

Density initialized from wave functions
  /        |      C  C                            |
 *         |   C      C   C  C C                  |
 |         |    C   C     C   C                   |
 |         .--CC-C---C--C-C---CC------------------.
 |        /        C C   C C  C                  /

[...]

Density initialized from wave functions
  /        |      C  C                            |
 *         |   C      C   C  C C                  |
 |         |    C   C     C   C                   |
 |         .--CC-C---C--C-C---C-C-----------------.
 |        /        C C   C C  C                  /

[...]

Density initialized from wave functions
  /        |      C  C                            |
 *         |   C      C   C  C C                  |
 |         |    C  C      C   C                   |
 |         .--CC-C---C--C-C---C-C-----------------.
 |        /        C C   C C  C                  /

[...]

Density initialized from wave functions
  /        |      C  C                            |
 *         |   C      C   C  C C                  |
 |         |    C  C      C   C                   |
 |         .--CC--C--C--C-C---C-C-----------------.
 |        /        C C   C C  C                  /

[...]

Density initialized from wave functions
  /        |      C  C                            |
 *         |   C      C   C  C C                  |
 |         |    C  C      C   C                   |
 |         .--C---C--C--C-C---C-C-----------------.
 |        /        C C   C C  C                  /

[...]

Density initialized from wave functions
  /        |      C  C                            |
 *         |   C      C  C   C C                  |
 |         |    C  C      C   C                   |
 |         .--C---C--C--C-C---C-C-----------------.
 |        /        C C   C C  C                  /

[...]

Density initialized from wave functions
  /        |      C  C                            |
 *         |   C      C  C   C C                  |
 |         |    C  C      C   C                   |
 |         .--CC--C--C--C-C---C-C-----------------.
 |        /        C C   C C  C                  /

[...]

Density initialized from wave functions
  /        |      C  C                            |
 *         |   C      C  C   C C                  |
 |         |    C  C      C   C                   |
 |         .-C-C--C--C--C-C---C-C-----------------.
 |        /        C C   C C  C                  /

[...]

Density initialized from wave functions
  /        |      C  C                            |
 *         |   C      C  C   C C                  |
 |         |    C  C      C   C                   |
 |         .-C-C--C--C--C-C---C-C-----------------.
 |        /       C  C   C C  C                  /

[...]

Density initialized from wave functions
  /        |         C                            |
 *         |   C  C   C  C   C C                  |
 |         |    C  C      C   C                   |
 |         .-C-C--C--C--C-C---C-C-----------------.
 |        /       C  C   C C  C                  /

[...]

System changes: positions

Initializing position-dependent things.

Density initialized from wave functions
  /        |         C                            |
 *         |   C  C   C  C   C C                  |
 |         |    C  C      C   C                   |
 |         .-C-C--C--C--C-C---C-C-----------------.
 |        /       C  C   C C  C                  /

Positions:
   0 C      9.734852    8.039351    5.029093
   1 C     10.872300    4.514127    5.498020
   2 C      9.797182    3.743825    5.377461
   3 C      3.793416    8.456955    4.944738
   4 C      8.937181    5.905373    5.137234
   5 C      6.228950    3.484839    5.352089
   6 C      5.592609   10.697064    4.934427
   7 C      7.077464    4.521270    5.260729
   8 C      6.196441    9.369705    4.973827
   9 C      7.624148    9.273641    4.974592
  10 C      5.261609    8.206315    4.998056
  11 C     11.307218    5.744021    5.281585
  12 C      8.256760    7.997170    4.922259
  13 C      7.790663    6.705296    4.998825
  14 C      4.038857    6.162094    5.124265
  15 C      3.275779    9.752325    4.871772
  16 C      9.899746    9.473232    5.141367
  17 C      4.301050   10.594627    4.867204
  18 C      6.603809    5.963939    5.099948
  19 C      5.394288    6.676307    5.084566
  20 C      8.801599   10.144224    5.038956
  21 C      8.620241    4.547324    5.313149
  22 C      3.210643    7.106226    4.989452
  23 C     10.191917    6.641906    5.154016

Unit cell:
           periodic     x           y           z      points  spacing
  1. axis:    yes   16.000000    0.000000    0.000000    80     0.2000
  2. axis:    yes    0.000000   16.000000    0.000000    80     0.2000
  3. axis:    yes    0.000000    0.000000   10.000000    48     0.2083

Effective grid spacing dv^(1/3) = 0.2027

                     log10-error:    total        iterations:
           time      wfs    density  energy       fermi  poisson
iter:   1  14:35:38          +inf  -179.428410    2      4
iter:   2  14:35:39         -3.05  -179.428075    2      1
iter:   3  14:35:39         -3.25  -179.428060    2      1
iter:   4  14:35:40         -3.34  -179.428332    2      1
iter:   5  14:35:40         -3.40  -179.427384    2      1
iter:   6  14:35:41         -3.60  -179.427421    2      1
iter:   7  14:35:41         -3.48  -179.429271    2      1
iter:   8  14:35:42         -3.89  -179.429073    2      1
iter:   9  14:35:42         -4.11  -179.428899    2      1

Converged after 9 iterations.

Dipole moment: (0.200526, 0.210127, 0.021427) |e|*Ang

Energy contributions relative to reference atoms: (reference = -24663.074771)

Kinetic:       +116.573684
Potential:     -121.914581
External:        +0.000000
XC:            -176.923396
Entropy (-ST):   -0.328662
Local:           +2.999726
Free energy:   -179.593230
Extrapolated:  -179.428899

Fermi level: -4.78840

 Band  Eigenvalues  Occupancy
    0    -23.43050    2.00000
    1    -22.30530    2.00000
    2    -22.16022    2.00000
    3    -21.28264    2.00000
    4    -20.80472    2.00000
    5    -20.28651    2.00000
    6    -19.58916    2.00000
    7    -18.84629    2.00000
    8    -18.49060    2.00000
    9    -17.94455    2.00000
   10    -17.46770    2.00000
   11    -17.40527    2.00000
   12    -16.48309    2.00000
   13    -15.61745    2.00000
   14    -15.18403    2.00000
   15    -14.71397    2.00000
   16    -14.02623    2.00000
   17    -13.76025    2.00000
   18    -13.09668    2.00000
   19    -12.91392    2.00000
   20    -12.22520    2.00000
   21    -12.10505    2.00000
   22    -11.52916    2.00000
   23    -11.02606    2.00000
   24    -10.96861    2.00000
   25    -10.53939    2.00000
   26    -10.46637    2.00000
   27    -10.16681    2.00000
   28    -10.09452    2.00000
   29     -9.91565    2.00000
   30     -9.58800    2.00000
   31     -9.46205    2.00000
   32     -9.15881    2.00000
   33     -8.89595    2.00000
   34     -8.23713    2.00000
   35     -7.69084    2.00000
   36     -7.27529    2.00000
   37     -7.25528    2.00000
   38     -6.98052    2.00000
   39     -6.61192    2.00000
   40     -6.50529    2.00000
   41     -6.23028    2.00000
   42     -6.18499    2.00000
   43     -6.11707    2.00000
   44     -5.72394    1.99983
   45     -5.54532    1.99897
   46     -4.98115    1.74593
   47     -4.89096    1.47212
   48     -4.74377    0.78047
   49     -4.08270    0.00172
   50     -4.01804    0.00090
   51     -3.74514    0.00006
   52     -3.54578    0.00001
   53     -2.81040    0.00000
   54     -2.70864    0.00000
   55     -2.43154    0.00000
   56     -1.76550    0.00000
   57     -1.25480    0.00000
   58     -0.15541    0.00000
   59      0.25617    0.00000
[...]
   83      8.80189    0.00000
   84      8.88089    0.00000
   85      8.99096    0.00000
   86      9.02762    0.00000
   87      9.19394    0.00000
   88      9.30242    0.00000
   89      9.62067    0.00000
   90      9.68176    0.00000
   91      9.75734    0.00000
   92      9.78149    0.00000
   93      9.84515    0.00000
   94     10.04621    0.00000
   95     10.11897    0.00000
   96     10.20716    0.00000
   97     10.47111    0.00000

Forces in eV/Ang:
  0 C    -0.03294   -0.01656   -0.02508
  1 C    -0.03740    0.00391   -0.00458
  2 C    -0.00485   -0.02803    0.05003
  3 C    -0.01024   -0.03488   -0.00791
  4 C     0.06742    0.00135   -0.01725
  5 C     0.00106    0.01211    0.00103
  6 C    -0.02578    0.00712   -0.00971
  7 C    -0.01396   -0.00571    0.00318
  8 C    -0.02446    0.00071    0.02401
  9 C     0.00413    0.00195    0.00728
 10 C     0.03649    0.00410   -0.03501
 11 C    -0.06938   -0.01526    0.00420
 12 C    -0.01151    0.01298   -0.04019
 13 C    -0.04192    0.01948   -0.04396
 14 C     0.00498   -0.01416    0.02606
 15 C    -0.04022    0.03840    0.03451
 16 C     0.02462    0.04022    0.04315
 17 C    -0.01893    0.00682   -0.01358
 18 C    -0.04198   -0.00036   -0.00431
 19 C     0.02504    0.00722   -0.04439
 20 C    -0.00218    0.00213    0.04715
 21 C     0.03387    0.00160    0.02677
 22 C    -0.02840   -0.03201    0.00143
 23 C     0.01449    0.02273   -0.01066