User:   esb@s65n11.grendel.cscaa.dk
Date:   Thu Nov  9 12:18:25 2017
Arch:   x86_64
Pid:    78686
Python: 2.7.13
gpaw:   /home/esb/DFT/gpaw_git/gpaw
_gpaw:  /home/esb/DFT/gpaw_git/build/bin.linux-x86_64-2.7/gpaw-python
ase:    /home/esb/DFT/ase_git/ase (version 3.15.0b1)
numpy:  /comm/swstack/core/python/2.7.13/lib/python2.7/site-packages/numpy (version 1.13.3)
scipy:  /comm/swstack/core/python/2.7.13/lib/python2.7/site-packages/scipy (version 0.19.1)
units:  Angstrom and eV
cores:  16
Extra parameters: {'blacs': True}

Input parameters:
  basis: dzp
  gpts: [80 80 48]
  kpts: [1 1 1]
  maxiter: 99
  mixer: {backend: pulay,
          beta: 0.05,
          method: separate,
          nmaxold: 5,
          weight: 75}
  mode: lcao
  nbands: -50
  occupations: {name: fermi-dirac,
                width: 0.1}
  poissonsolver: {eps: 1e-07,
                  name: fd,
                  nn: 3,
                  relax: GS}
  xc: PBE

System changes: positions, numbers, cell, pbc, initial_charges, initial_magmoms

Initialize ...

C-setup:
  name: Carbon
  id: 4aa54d4b901d75f77cc0ea3eec22967b
  Z: 6
  valence: 4
  core: 2
  charge: 0.0
  file: /home/esb/DFT/gpaw-setups-0.8.7929/C.PBE.gz
  cutoffs: 0.64(comp), 1.14(filt), 1.14(core), lmax=2
  valence states:
                energy  radius
    2s(2.00)   -13.751   0.635
    2p(2.00)    -5.284   0.635
    *s          13.461   0.635
    *p          21.927   0.635
    *d           0.000   0.635

  LCAO basis set for C:
    Name: dzp
    File: /home/esb/DFT/gpaw-setups-0.8.7929/C.dzp.basis.gz
    Number of radial functions: 5
    Number of spherical harmonics: 13
      l=0, rc=5.5469 Bohr: 2s-sz confined orbital
      l=1, rc=6.6719 Bohr: 2p-sz confined orbital
      l=0, rc=3.0312 Bohr: 2s-dz split-valence wave
      l=1, rc=3.7500 Bohr: 2p-dz split-valence wave
      l=2, rc=6.6719 Bohr: d-type Gaussian polarization

Reference energy: -24663.074771

Spin-paired calculation

Occupation numbers:
  Fermi-Dirac: width=0.1000 eV

Convergence criteria:
  Maximum total energy change: 0.0005 eV / electron
  Maximum integral of absolute density change: 0.0001 electrons
  Maximum integral of absolute eigenstate change: 4e-08 eV^2
  Maximum number of iterations: 99

Symmetries present (total): 1

  ( 1  0  0)
  ( 0  1  0)
  ( 0  0  1)

1 k-point (Gamma)
1 k-point in the irreducible part of the Brillouin zone
       k-points in crystal coordinates                weights
   0:     0.00000000    0.00000000    0.00000000          1/1

Wave functions: LCAO
  Diagonalizer: Serial LAPACK
  Atomic Correction: dense with blas
  Datatype: float
  Eigensolver: None

LCAO using direct dense diagonalizer

Densities:
  Coarse grid: 80*80*48 grid
  Fine grid: 160*160*96 grid
  Total Charge: 0.000000

Density mixing:
  Method: separate
  Backend: pulay
  Linear mixing parameter: 0.05
  Mixing with 5 old densities
  Damping of long wave oscillations: 75

Hamiltonian:
  XC and Coulomb potentials evaluated on a 160*160*96 grid
  Using the PBE Exchange-Correlation functional
  Interpolation: tri-quintic (5. degree polynomial)
  Poisson solver: Gauss-Seidel solver with 6 multi-grid levels
    Coarsest grid: 5 x 5 x 3 points
    Stencil: 6*3+1=19 point O(h^6) finite-difference Laplacian
    Max iterations: 1000
    Tolerance: 1.000000e-07

Total number of cores used: 16
Domain decomposition: 2 x 4 x 2

Number of atoms: 24
Number of atomic orbitals: 312
Number of bands in calculation: 98
Bands to converge: occupied states only
Number of valence electrons: 96

... initialized

Initializing position-dependent things.

Density initialized from atomic densities
   /       |      C   C  C                        |
  /        |    C          C                      |
 *         |  C             C                     |
 |         | C       C   C     C                  |
 |         .---C---C--C--C-----C------------------.
 |        /                 C                    /
 |       /     C C  C     C                     /
 |      /              C                       /

Positions:
   0 C     10.806916    5.812102    5.412871
   1 C      9.332627    3.767634    4.716609
   2 C      9.631439    5.061326    5.156957
   3 C      8.196483    3.245403    4.540888
   4 C      8.394267    5.846468    5.416312
   5 C      6.943952    3.837904    4.726915
   6 C      7.068234    5.245421    5.193502
   7 C      3.352049    6.358422    5.445526
   8 C      4.568295    4.148335    4.788929
   9 C      4.446234    5.501828    5.204266
  10 C      5.591759    3.443262    4.585524
  11 C      5.836822    6.007366    5.420372
  12 C     10.322141    7.336615    5.186943
  13 C      9.096448    8.054928    5.389828
  14 C      7.999993    7.069554    5.449721
  15 C      7.906761   10.312232    5.521641
  16 C      6.823303   11.071137    5.548752
  17 C      8.810040    9.413688    5.472710
  18 C      5.543509   11.239199    5.556955
  19 C      4.258286   10.986731    5.618885
  20 C      3.452208    9.953690    5.628823
  21 C      3.179422    7.426919    5.640326
  22 C      6.586482    7.110421    5.593954
  23 C      3.016587    8.738292    5.662897

Unit cell:
           periodic     x           y           z      points  spacing
  1. axis:    yes   16.000000    0.000000    0.000000    80     0.2000
  2. axis:    yes    0.000000   16.000000    0.000000    80     0.2000
  3. axis:    yes    0.000000    0.000000   10.000000    48     0.2083

Effective grid spacing dv^(1/3) = 0.2027

                     log10-error:    total        iterations:
           time      wfs    density  energy       fermi  poisson
iter:   1  12:18:27          +inf  -183.030080    3      6
iter:   2  12:18:27         -0.89  -181.811109    3      3
iter:   3  12:18:28         -0.94  -179.993329    4      3
iter:   4  12:18:29         -1.02  -178.674085    34     3
iter:   5  12:18:29         -1.15  -178.099816    34     4
iter:   6  12:18:30         -1.47  -178.013538    4      3
iter:   7  12:18:30         -1.58  -177.955160    3      3
iter:   8  12:18:31         -1.75  -177.925204    3      2
iter:   9  12:18:32         -1.87  -177.880560    4      3
iter:  10  12:18:32         -2.19  -177.874294    2      2
iter:  11  12:18:33         -2.28  -177.864286    3      2
iter:  12  12:18:33         -2.44  -177.861182    2      2
iter:  13  12:18:34         -2.51  -177.861415    2      2
iter:  14  12:18:34         -2.62  -177.862901    3      2
iter:  15  12:18:35         -2.71  -177.862001    2      2
iter:  16  12:18:35         -2.79  -177.862252    2      2
iter:  17  12:18:36         -3.10  -177.864645    2      1
iter:  18  12:18:37         -3.26  -177.859711    2      1
iter:  19  12:18:37         -3.67  -177.857006    2      1
iter:  20  12:18:38         -3.77  -177.857313    2      1
iter:  21  12:18:38         -3.87  -177.857627    2      1
iter:  22  12:18:39         -3.92  -177.857466    2      1
iter:  23  12:18:39         -4.00  -177.857517    2      1

Converged after 23 iterations.

Dipole moment: (-0.363546, 0.142986, -0.003752) |e|*Ang

Energy contributions relative to reference atoms: (reference = -24663.074771)

Kinetic:       +137.644312
Potential:     -138.218783
External:        +0.000000
XC:            -180.263864
Entropy (-ST):   -0.209920
Local:           +3.085778
Free energy:   -177.962477
Extrapolated:  -177.857517

Fermi level: -4.32977

 Band  Eigenvalues  Occupancy
    0    -23.39185    2.00000
    1    -21.51439    2.00000
    2    -21.12113    2.00000
    3    -20.82914    2.00000
    4    -20.40711    2.00000
    5    -20.26251    2.00000
    6    -19.48594    2.00000
    7    -19.29362    2.00000
    8    -18.47953    2.00000
    9    -18.27854    2.00000
   10    -17.58985    2.00000
   11    -17.19473    2.00000
   12    -16.75138    2.00000
   13    -16.07863    2.00000
   14    -15.31384    2.00000
   15    -15.05498    2.00000
   16    -14.36756    2.00000
   17    -13.83071    2.00000
   18    -13.50915    2.00000
   19    -13.34480    2.00000
   20    -12.86694    2.00000
   21    -12.53325    2.00000
   22    -12.09444    2.00000
   23    -11.68108    2.00000
   24    -11.45223    2.00000
   25    -10.64176    2.00000
   26    -10.12992    2.00000
   27     -9.93260    2.00000
   28     -9.60543    2.00000
   29     -9.35456    2.00000
   30     -9.28269    2.00000
   31     -9.10670    2.00000
   32     -8.70427    2.00000
   33     -8.55503    2.00000
   34     -8.52187    2.00000
   35     -8.16925    2.00000
   36     -7.51970    2.00000
   37     -7.28233    2.00000
   38     -7.04960    2.00000
   39     -6.60512    2.00000
   40     -6.36850    2.00000
   41     -6.05476    2.00000
   42     -6.00720    2.00000
   43     -5.79146    2.00000
   44     -5.40589    1.99996
   45     -5.21120    1.99970
   46     -4.60786    1.88328
   47     -4.55342    1.80696
   48     -4.13835    0.25702
   49     -3.96806    0.05232
   50     -3.54123    0.00075
   51     -3.10422    0.00001
   52     -2.72788    0.00000
   53     -2.55916    0.00000
   54     -1.93400    0.00000
   55     -1.59306    0.00000
   56     -0.94545    0.00000
   57     -0.88139    0.00000
   58     -0.12382    0.00000
   59      0.40905    0.00000
[...]
   83      8.92967    0.00000
   84      8.96539    0.00000
   85      9.34862    0.00000
   86      9.47716    0.00000
   87      9.51507    0.00000
   88      9.52476    0.00000
   89      9.61677    0.00000
   90      9.64436    0.00000
   91      9.83343    0.00000
   92      9.93494    0.00000
   93      9.98149    0.00000
   94     10.16053    0.00000
   95     10.23853    0.00000
   96     10.33365    0.00000
   97     10.41913    0.00000

Forces in eV/Ang:
  0 C    -2.13972    7.94075   -1.20659
  1 C    -0.12333   -0.46568    0.18271
  2 C    -0.11882    1.66290    0.13400
  3 C     0.28655   -0.13439    0.11507
  4 C    -1.32107   -9.39980   -1.69567
  5 C    -0.69477   -0.10010   -0.06293
  6 C     0.02391   -4.70708   -0.11858
  7 C     5.21734  -21.29647   -3.74674
  8 C    -0.25539    0.31584   -0.01449
  9 C     0.11188   -0.58439    0.39082
 10 C     0.09782    0.10036    0.04712
 11 C    -0.38846   -1.02839   -0.74813
 12 C     2.03073   -6.25747    1.40327
 13 C     1.27029    0.57519    0.22376
 14 C     0.51081    8.25449    1.39430
 15 C     0.01537   -0.21240    0.02969
 16 C    -0.01966    0.14120    0.02686
 17 C    -0.00509    0.32969   -0.29649
 18 C    -0.03897   -0.15473    0.06861
 19 C     0.07485    0.42450   -0.05904
 20 C    -0.04113   -0.80529    0.12135
 21 C    -4.57595   20.75650    3.42394
 22 C     0.01725    3.18412    0.22028
 23 C     0.02804    1.55287    0.21934

System changes: positions

[...]

Density initialized from wave functions
   /       |      C   C  C                        |
  /        |    C          C                      |
 *         |  C             C                     |
 |         | C        C  C     C                  |
 |         .-C-C---C--C--C-----C------------------.
 |        /                 C                    /
 |       /     C C  C     C                     /
 |      /              C                       /

[...]

Density initialized from wave functions
   /       |      C   C  C                        |
  /        |    C          C                      |
 *         |  C             C                     |
 |         | C        C  C     C                  |
 |         .-C-C---C-----C-----C------------------.
 |        /          C      C                    /
 |       /     C C  C     C                     /
 |      /              C                       /

[...]

Density initialized from wave functions
   /       |      C   C  C                        |
  /        |    C          C                      |
 *         |  C             C                     |
 |         | C        C  C     C                  |
 |         .-C-C---C-----C-----C------------------.
 |        /          C      C                    /
 |       /     C C  C     C                     /
 |      /              C                       /

[...]

Density initialized from wave functions
   /       |      C   C  C                        |
  /        |    C          C                      |
 *         |  C             CC                    |
 |         | C        C  C     C                  |
 |         .-C-C---C-----C-----C------------------.
 |        /          C      C                    /
 |       /     C C  C     C                     /
 |      /              C                       /

[...]

Density initialized from wave functions
   /       |      C   C  C                        |
  /        |    C          C                      |
 *         |  C             CC                    |
 |         | C        C  C     C                  |
 |         .-C--C--C-----C-----C------------------.
 |        /          C      C                    /
 |       /     C C  C     C                     /
 |      /              C                       /

[...]

Density initialized from wave functions
   /       |      C   C  C                        |
  /        |    C          C                      |
 *         |  C             CC                    |
 |         | C        C  C     C                  |
 |         .-C-C---C-----C-----C------------------.
 |        /          C      C                    /
 |       /     C C  C     C                     /
 |      /              C                       /

[...]

Density initialized from wave functions
   /       |      C   C  C                        |
  /        |    C          C                      |
 *         |  C             CC                    |
 |         | C        C  C     C                  |
 |         .-C--C--C-----C-----C------------------.
 |        /          C      C                    /
 |       /     C C  C     C                     /
 |      /              C                       /

[...]

Density initialized from wave functions
   /       |      C   C  C                        |
  /        |    C          C C                    |
 *         |  C             C                     |
 |         | C        C  C     C                  |
 |         .-C--C--C-----C-----C------------------.
 |        /          C      C                    /
 |       /     C C  C     C                     /
 |      /              C                       /

[...]

Density initialized from wave functions
   /       |      C   C  C                        |
  /        |    C          C C                    |
 *         |  C             C                     |
 |         | C        C  C     C                  |
 |         .--C-C--C-----C-----C------------------.
 |        /          C      C                    /
 |       /     C C  C     C                     /
 |      /              C                       /

[...]

Density initialized from wave functions
   /       |      C   C  C                        |
  /        |    C          C C                    |
 *         |  C             C                     |
 |         | C        C  C     C                  |
 |         .-C--C--C-----C-----C------------------.
 |        /          C      C                    /
 |       /     C C  C     C                     /
 |      /              C                       /

[...]

Density initialized from wave functions
   /       |      C   C  C                        |
  /        |    C          CC                     |
 *         |  C             C                     |
 |         | C        C  C     C                  |
 |         .-C--C--C-----C-----C------------------.
 |        /          C      C                    /
 |       /     C C  C     C                     /
 |      /              C                       /

[...]

Density initialized from wave functions
   /       |      C   C  C                        |
  /        |    C          CC                     |
 *         |  C             C                     |
 |         | C        C  C     C                  |
 |         .-C--C--C-----C-----C------------------.
 |        /          C      C                    /
 |       /     C C  C  C  C                     /

[...]

System changes: positions

Initializing position-dependent things.

Density initialized from wave functions
   /       |      C   C  C                        |
  /        |    C          CC                     |
 *         |  C             C                     |
 |         | C        C  C     C                  |
 |         .-C--C--C-----C-----C------------------.
 |        /          C      C                    /
 |       /     C C  C     C                     /
 |      /              C                       /

Positions:
   0 C     10.565971    6.110935    5.167051
   1 C      9.359040    3.723080    4.735507
   2 C      9.574792    5.094685    5.022366
   3 C      8.259143    3.095028    4.637605
   4 C      8.274744    5.705580    5.191601
   5 C      6.938036    3.592300    4.785416
   6 C      7.041852    5.004215    5.080241
   7 C      3.491393    6.353783    5.352467
   8 C      4.597230    4.055962    4.914909
   9 C      4.548772    5.463708    5.189065
  10 C      5.551765    3.253244    4.728928
  11 C      5.938666    5.950803    5.277483
  12 C     10.333290    7.333462    5.368267
  13 C      9.115329    8.082236    5.488923
  14 C      7.993075    7.124482    5.435624
  15 C      7.924620   10.333545    5.579169
  16 C      6.842187   11.093038    5.596409
  17 C      8.842643    9.445557    5.572529
  18 C      5.565836   11.294320    5.602017
  19 C      4.275468   11.072351    5.679035
  20 C      3.435557   10.065345    5.671771
  21 C      3.114870    7.561841    5.510865
  22 C      6.577481    7.194628    5.540820
  23 C      2.948453    8.868850    5.658151

Unit cell:
           periodic     x           y           z      points  spacing
  1. axis:    yes   16.000000    0.000000    0.000000    80     0.2000
  2. axis:    yes    0.000000   16.000000    0.000000    80     0.2000
  3. axis:    yes    0.000000    0.000000   10.000000    48     0.2083

Effective grid spacing dv^(1/3) = 0.2027

                     log10-error:    total        iterations:
           time      wfs    density  energy       fermi  poisson
iter:   1  12:23:23          +inf  -184.051062    3      4
iter:   2  12:23:23         -2.23  -184.027591    3      2
iter:   3  12:23:24         -2.92  -184.027053    3      1
iter:   4  12:23:24         -3.59  -184.027018    2      1
iter:   5  12:23:25         -3.41  -184.026856    2      1
iter:   6  12:23:25         -3.75  -184.026956    2      1
iter:   7  12:23:26         -3.97  -184.026904    2      1
iter:   8  12:23:26         -3.80  -184.026983    2      1
iter:   9  12:23:27         -3.64  -184.026898    2      1
iter:  10  12:23:27         -4.28  -184.026897    2      1

Converged after 10 iterations.

Dipole moment: (-0.074459, 0.113444, -0.024320) |e|*Ang

Energy contributions relative to reference atoms: (reference = -24663.074771)

Kinetic:       +107.504260
Potential:     -117.644692
External:        +0.000000
XC:            -176.841685
Entropy (-ST):   -0.213836
Local:           +3.062137
Free energy:   -184.133815
Extrapolated:  -184.026897

Fermi level: -4.39097

 Band  Eigenvalues  Occupancy
    0    -22.53546    2.00000
    1    -21.31706    2.00000
    2    -20.83847    2.00000
    3    -20.55118    2.00000
    4    -20.10290    2.00000
    5    -20.05137    2.00000
    6    -19.35920    2.00000
    7    -19.33888    2.00000
    8    -18.30964    2.00000
    9    -18.07469    2.00000
   10    -17.42759    2.00000
   11    -17.09986    2.00000
   12    -16.40121    2.00000
   13    -16.24115    2.00000
   14    -15.36792    2.00000
   15    -15.10810    2.00000
   16    -14.43783    2.00000
   17    -13.55189    2.00000
   18    -13.29698    2.00000
   19    -13.28229    2.00000
   20    -12.87070    2.00000
   21    -12.43691    2.00000
   22    -12.00672    2.00000
   23    -11.72592    2.00000
   24    -11.18345    2.00000
   25    -10.42721    2.00000
   26    -10.23633    2.00000
   27     -9.41250    2.00000
   28     -9.40156    2.00000
   29     -9.25026    2.00000
   30     -9.24578    2.00000
   31     -9.18809    2.00000
   32     -8.59327    2.00000
   33     -8.43395    2.00000
   34     -8.32416    2.00000
   35     -7.76945    2.00000
   36     -7.24950    2.00000
   37     -7.22592    2.00000
   38     -7.15902    2.00000
   39     -6.55173    2.00000
   40     -6.35727    2.00000
   41     -6.21333    2.00000
   42     -5.88158    2.00000
   43     -5.77523    2.00000
   44     -5.61503    1.99999
   45     -5.34731    1.99986
   46     -4.71072    1.92148
   47     -4.56575    1.70335
   48     -4.24444    0.37530
   49     -3.24091    0.00002
   50     -3.11508    0.00001
   51     -2.83218    0.00000
   52     -2.72486    0.00000
   53     -2.47029    0.00000
   54     -1.99519    0.00000
   55     -1.49848    0.00000
   56     -0.93497    0.00000
   57     -0.79465    0.00000
   58      0.21799    0.00000
   59      0.62107    0.00000
[...]
   83      9.19000    0.00000
   84      9.24555    0.00000
   85      9.32190    0.00000
   86      9.37896    0.00000
   87      9.53841    0.00000
   88      9.72670    0.00000
   89      9.78296    0.00000
   90      9.90015    0.00000
   91      9.96199    0.00000
   92     10.00920    0.00000
   93     10.07502    0.00000
   94     10.28274    0.00000
   95     10.34047    0.00000
   96     10.38498    0.00000
   97     10.46479    0.00000

Forces in eV/Ang:
  0 C    -0.01111    0.01322   -0.02204
  1 C    -0.00810   -0.01906    0.03246
  2 C    -0.02266    0.00430    0.01221
  3 C    -0.01427   -0.00082    0.00901
  4 C    -0.01090    0.02250   -0.02050
  5 C    -0.01225    0.01529    0.00750
  6 C    -0.00100    0.00675    0.00487
  7 C    -0.01363   -0.02632    0.01509
  8 C    -0.00380    0.01699   -0.00405
  9 C     0.00970    0.01651    0.02728
 10 C    -0.00278    0.01237    0.00148
 11 C     0.01267   -0.00249    0.00396
 12 C    -0.05580    0.02136   -0.00245
 13 C    -0.03361   -0.00451   -0.02144
 14 C    -0.01847   -0.01132   -0.00618
 15 C     0.01647    0.00590   -0.00577
 16 C     0.01608   -0.02479    0.03493
 17 C     0.00855   -0.01014   -0.00851
 18 C     0.00899   -0.04350    0.05820
 19 C     0.02180   -0.01636    0.00179
 20 C    -0.03660    0.01843   -0.03355
 21 C     0.04339    0.01070   -0.00834
 22 C    -0.00427   -0.00456   -0.06648
 23 C     0.04649   -0.00717   -0.06738