User:   esb@s65n14.grendel.cscaa.dk
Date:   Thu Nov  9 09:52:32 2017
Arch:   x86_64
Pid:    29666
Python: 2.7.13
gpaw:   /home/esb/DFT/gpaw_git/gpaw
_gpaw:  /home/esb/DFT/gpaw_git/build/bin.linux-x86_64-2.7/gpaw-python
ase:    /home/esb/DFT/ase_git/ase (version 3.15.0b1)
numpy:  /comm/swstack/core/python/2.7.13/lib/python2.7/site-packages/numpy (version 1.13.3)
scipy:  /comm/swstack/core/python/2.7.13/lib/python2.7/site-packages/scipy (version 0.19.1)
units:  Angstrom and eV
cores:  16
Extra parameters: {'blacs': True}

Input parameters:
  basis: dzp
  gpts: [80 80 48]
  kpts: [1 1 1]
  maxiter: 99
  mixer: {backend: pulay,
          beta: 0.05,
          method: separate,
          nmaxold: 5,
          weight: 75}
  mode: lcao
  nbands: -50
  occupations: {name: fermi-dirac,
                width: 0.1}
  poissonsolver: {eps: 1e-07,
                  name: fd,
                  nn: 3,
                  relax: GS}
  xc: PBE

System changes: positions, numbers, cell, pbc, initial_charges, initial_magmoms

Initialize ...

C-setup:
  name: Carbon
  id: 4aa54d4b901d75f77cc0ea3eec22967b
  Z: 6
  valence: 4
  core: 2
  charge: 0.0
  file: /home/esb/DFT/gpaw-setups-0.8.7929/C.PBE.gz
  cutoffs: 0.64(comp), 1.14(filt), 1.14(core), lmax=2
  valence states:
                energy  radius
    2s(2.00)   -13.751   0.635
    2p(2.00)    -5.284   0.635
    *s          13.461   0.635
    *p          21.927   0.635
    *d           0.000   0.635

  LCAO basis set for C:
    Name: dzp
    File: /home/esb/DFT/gpaw-setups-0.8.7929/C.dzp.basis.gz
    Number of radial functions: 5
    Number of spherical harmonics: 13
      l=0, rc=5.5469 Bohr: 2s-sz confined orbital
      l=1, rc=6.6719 Bohr: 2p-sz confined orbital
      l=0, rc=3.0312 Bohr: 2s-dz split-valence wave
      l=1, rc=3.7500 Bohr: 2p-dz split-valence wave
      l=2, rc=6.6719 Bohr: d-type Gaussian polarization

Reference energy: -24663.074771

Spin-paired calculation

Occupation numbers:
  Fermi-Dirac: width=0.1000 eV

Convergence criteria:
  Maximum total energy change: 0.0005 eV / electron
  Maximum integral of absolute density change: 0.0001 electrons
  Maximum integral of absolute eigenstate change: 4e-08 eV^2
  Maximum number of iterations: 99

Symmetries present (total): 1

  ( 1  0  0)
  ( 0  1  0)
  ( 0  0  1)

1 k-point (Gamma)
1 k-point in the irreducible part of the Brillouin zone
       k-points in crystal coordinates                weights
   0:     0.00000000    0.00000000    0.00000000          1/1

Wave functions: LCAO
  Diagonalizer: Serial LAPACK
  Atomic Correction: dense with blas
  Datatype: float
  Eigensolver: None

LCAO using direct dense diagonalizer

Densities:
  Coarse grid: 80*80*48 grid
  Fine grid: 160*160*96 grid
  Total Charge: 0.000000

Density mixing:
  Method: separate
  Backend: pulay
  Linear mixing parameter: 0.05
  Mixing with 5 old densities
  Damping of long wave oscillations: 75

Hamiltonian:
  XC and Coulomb potentials evaluated on a 160*160*96 grid
  Using the PBE Exchange-Correlation functional
  Interpolation: tri-quintic (5. degree polynomial)
  Poisson solver: Gauss-Seidel solver with 6 multi-grid levels
    Coarsest grid: 5 x 5 x 3 points
    Stencil: 6*3+1=19 point O(h^6) finite-difference Laplacian
    Max iterations: 1000
    Tolerance: 1.000000e-07

Total number of cores used: 16
Domain decomposition: 2 x 4 x 2

Number of atoms: 24
Number of atomic orbitals: 312
Number of bands in calculation: 98
Bands to converge: occupied states only
Number of valence electrons: 96

... initialized

Initializing position-dependent things.

Density initialized from atomic densities
    /      |             C  C C                   |
   /       |           C                          |
  /        |            C     C C                 |
 *         |  C C   C     C    C                  |
 |         | C       C   C  C                     |
 |         .---C---C--C---------------------------.
 |        /    C     C C  C                      /
 |       /       C                              /

Positions:
   0 C      5.495636    8.689150    5.818119
   1 C      5.610078    3.318896    5.305737
   2 C      3.537909    7.528178    5.687544
   3 C      5.833599    6.079579    5.484298
   4 C      4.474201    5.498887    5.461761
   5 C      6.313855    7.469667    5.597377
   6 C      4.071908    8.709465    5.847802
   7 C      4.616837    4.088007    5.355297
   8 C      3.259175    6.251518    5.560335
   9 C      7.036786    3.769117    5.384702
  10 C      7.108986    5.212934    5.743139
  11 C      8.274157    3.142138    5.558936
  12 C      9.649535    9.300191    7.349884
  13 C     10.759126    6.972609    6.967925
  14 C      9.716283    7.935086    6.999952
  15 C     10.745136    5.749104    6.669709
  16 C      8.558352    9.994768    7.241098
  17 C      7.309711   10.459733    7.004496
  18 C      9.619129    4.987979    6.268930
  19 C      8.479059    7.237264    6.527302
  20 C      8.383408    5.815244    6.177413
  21 C      9.365741    3.655230    5.932901
  22 C      6.676280    9.281223    6.551234
  23 C      7.279238    7.958209    6.384313

Unit cell:
           periodic     x           y           z      points  spacing
  1. axis:    yes   16.000000    0.000000    0.000000    80     0.2000
  2. axis:    yes    0.000000   16.000000    0.000000    80     0.2000
  3. axis:    yes    0.000000    0.000000   10.000000    48     0.2083

Effective grid spacing dv^(1/3) = 0.2027

                     log10-error:    total        iterations:
           time      wfs    density  energy       fermi  poisson
iter:   1  09:52:34          +inf  -188.658737    2      6
iter:   2  09:52:34         -0.88  -187.763834    4      3
iter:   3  09:52:35         -0.91  -185.459945    35     4
iter:   4  09:52:36         -1.18  -185.567860    3      2
iter:   5  09:52:36         -1.18  -184.590009    5      2
iter:   6  09:52:37         -1.26  -184.648648    5      3
iter:   7  09:52:38         -1.47  -184.370568    3      3
iter:   8  09:52:39         -1.56  -184.106634    3      3
iter:   9  09:52:39         -1.72  -184.203927    4      3
iter:  10  09:52:40         -1.78  -184.038543    3      2
iter:  11  09:52:41         -2.12  -184.013293    4      2
iter:  12  09:52:41         -2.12  -184.016901    3      2
iter:  13  09:52:42         -2.36  -184.008159    3      2
iter:  14  09:52:43         -2.44  -184.008220    3      2
iter:  15  09:52:43         -2.47  -183.992531    3      1
iter:  16  09:52:44         -2.52  -183.992260    3      2
iter:  17  09:52:44         -2.70  -184.007876    3      2
iter:  18  09:52:45         -2.95  -184.000994    3      2
iter:  19  09:52:46         -3.24  -183.993516    3      1
iter:  20  09:52:46         -3.48  -183.996392    3      1
iter:  21  09:52:47         -3.75  -184.005470    2      1
iter:  22  09:52:48         -3.92  -184.003686    2      1
iter:  23  09:52:48         -4.01  -184.004631    2      1

Converged after 23 iterations.

Dipole moment: (0.350064, -0.518589, -0.163760) |e|*Ang

Energy contributions relative to reference atoms: (reference = -24663.074771)

Kinetic:       +115.141024
Potential:     -123.124380
External:        +0.000000
XC:            -178.912598
Entropy (-ST):   -0.252754
Local:           +3.017700
Free energy:   -184.131008
Extrapolated:  -184.004631

Fermi level: -4.49542

 Band  Eigenvalues  Occupancy
    0    -23.47794    2.00000
    1    -22.27318    2.00000
    2    -21.72709    2.00000
    3    -20.97267    2.00000
    4    -20.53684    2.00000
    5    -20.26834    2.00000
    6    -19.50050    2.00000
    7    -19.25963    2.00000
    8    -18.63208    2.00000
    9    -18.38305    2.00000
   10    -17.95715    2.00000
   11    -17.00538    2.00000
   12    -16.76236    2.00000
   13    -15.76427    2.00000
   14    -15.45451    2.00000
   15    -15.14588    2.00000
   16    -14.10016    2.00000
   17    -13.66759    2.00000
   18    -13.30476    2.00000
   19    -12.75375    2.00000
   20    -12.53422    2.00000
   21    -11.96624    2.00000
   22    -11.78561    2.00000
   23    -11.60250    2.00000
   24    -11.21420    2.00000
   25    -10.97000    2.00000
   26    -10.76891    2.00000
   27    -10.36087    2.00000
   28    -10.07559    2.00000
   29     -9.80494    2.00000
   30     -9.65454    2.00000
   31     -9.40056    2.00000
   32     -8.92330    2.00000
   33     -8.54085    2.00000
   34     -8.36423    2.00000
   35     -8.10793    2.00000
   36     -7.31686    2.00000
   37     -7.09902    2.00000
   38     -6.87587    2.00000
   39     -6.81769    2.00000
   40     -6.70285    2.00000
   41     -6.60006    2.00000
   42     -6.50347    2.00000
   43     -6.38124    2.00000
   44     -6.32139    2.00000
   45     -5.36412    1.99966
   46     -4.71994    1.80848
   47     -4.67835    1.72337
   48     -4.37696    0.46845
   49     -3.39018    0.00003
   50     -3.24082    0.00001
   51     -2.92190    0.00000
   52     -2.79563    0.00000
   53     -2.63097    0.00000
   54     -2.22365    0.00000
   55     -1.87976    0.00000
   56     -1.36970    0.00000
   57     -1.20701    0.00000
   58     -0.37857    0.00000
   59     -0.35330    0.00000
[...]
   83      8.73975    0.00000
   84      8.85729    0.00000
   85      9.09921    0.00000
   86      9.18574    0.00000
   87      9.21358    0.00000
   88      9.33088    0.00000
   89      9.44672    0.00000
   90      9.52643    0.00000
   91      9.61149    0.00000
   92      9.79326    0.00000
   93     10.05381    0.00000
   94     10.17095    0.00000
   95     10.22447    0.00000
   96     10.35578    0.00000
   97     10.42416    0.00000

Forces in eV/Ang:
  0 C    -2.00184   -0.27909    0.26929
  1 C     2.02538    0.70738   -0.19059
  2 C    -0.29531    0.23369   -0.46591
  3 C     4.03040    0.21333    1.22044
  4 C    -0.66950   -0.10655   -0.50072
  5 C    -7.48296   -2.69075   -1.44994
  6 C     1.27384    0.96271    0.09679
  7 C     0.48382   -0.14222   -0.22133
  8 C     0.54370   -0.24019    0.08397
  9 C    -1.95681   -0.46915    1.12417
 10 C    -1.28876    0.45605   -1.08381
 11 C    -0.31307   -0.05025   -0.10833
 12 C    -0.18603    0.17378   -0.06052
 13 C    -0.03875    0.07898    0.07877
 14 C     0.00592   -0.28660    0.07511
 15 C    -0.06314   -0.05139    0.04165
 16 C     0.27852   -0.02724    0.30871
 17 C    -0.20127   -0.20919   -0.06890
 18 C     0.03840   -0.04630    0.01488
 19 C     0.51543   -0.28441    0.84594
 20 C    -0.10710    0.16984   -0.37919
 21 C     0.14770    0.07143   -0.17267
 22 C     0.76293    0.77422   -0.23516
 23 C     4.52045    0.99929    0.73429

System changes: positions

[...]

Density initialized from wave functions
    /      |             C  C C                   |
   /       |           C                          |
  /        |            C     C C                 |
 *         |  C C   C     C    C                  |
 |         | C       C   C  C                     |
 |         .---C---C--C---------------------------.
 |        /    C    C  C  C                      /
 |       /       C                              /

[...]

Density initialized from wave functions
    /      |             C  C C                   |
   /       |           C                          |
  /        |            C     C C                 |
 *         |  C C   C     C    C                  |
 |         | C       C   C  C                     |
 |         .---C---C--C---------------------------.
 |        /    C    C  C  C                      /
 |       /       C                              /

[...]

Density initialized from wave functions
    /      |             C  C C                   |
   /       |           C                          |
  /        |    C       C     C C                 |
 *         |  C     C     C    C                  |
 |         | C       C   C  C                     |
 |         .---C---C--C---------------------------.
 |        /    C    C  C  C                      /
 |       /       C                              /

[...]

Density initialized from wave functions
    /      |             C  C C                   |
   /       |           C                          |
  /        |    C             C C                 |
 *         |        C   C C    C                  |
 |         | CC          C  C                     |
 |         .---C---C--C---------------------------.
 |        /    C    C  C  C                      /
 |       /       C                              /

[...]

Density initialized from wave functions
    /      |             C  C C                   |
   /       |           C                          |
  /        |    C   C         C C                 |
 *         |        C   C C    C                  |
 |         | CC          C  C                     |
 |         .---C---C--C---------------------------.
 |        /    C    C  C  C                      /
 |       /       C                              /

[...]

Density initialized from wave functions
    /      |             C  C C                   |
  /        |    C  C   C      C C                 |
 *         |  C     C   C C    C                  |
 |         | C           C  C                     |
 |         .---C---C--C---------------------------.
 |        /    C    C  C  C                      /
 |       /       C                              /

[...]

Density initialized from wave functions
    /      |             C  C C                   |
  /        |    C  C   C      C C                 |
 *         |  C     C   C C    C                  |
 |         | C           C  C                     |
 |         .---C---C--C---------------------------.
 |        /    C    C  C  C                      /
 |       /       C                              /

[...]

Density initialized from wave functions
    /      |             C  C C                   |
  /        |    C  C   C      C C                 |
 *         |  C     C   C C    C                  |
 |         | C     C     C  C                     |
 |         .---C------C---------------------------.
 |        /    C    C  C  C                      /
 |       /       C                              /

[...]

Density initialized from wave functions
    /      |             C  C C                   |
   /       |           C                          |
  /        |    C  C          C C                 |
 *         |  C     C   C C    C                  |
 |         | C     C     C  C                     |
 |         .---C------C---------------------------.
 |        /    C    C  C  C                      /
 |       /       C                              /

[...]

Density initialized from wave functions
    /      |             C  C C                   |
   /       |           C                          |
  /        |    C  C          C C                 |
 *         |  C     C   C C    C                  |
 |         | C     C     C  C                     |
 |         .---C------C---------------------------.
 |        /    C    C  C  C                      /
 |       /       C                              /

[...]

Density initialized from wave functions
    /      |             C  C C                   |
   /       |           C                          |
  /        |    C  C          C C                 |
 *         |  C     C   C C    C                  |
 |         |       C     C  C                     |
 |         .-C-C------C---------------------------.
 |        /    C    C  C  C                      /
 |       /       C                              /

[...]

System changes: positions

Initializing position-dependent things.

Density initialized from wave functions
    /      |             C  C C                   |
   /       |           C                          |
  /        |    C  C          C C                 |
 *         |  C     C   C C    C                  |
 |         |       C     C  C                     |
 |         .-C-C------C---------------------------.
 |        /    C    C  C  C                      /
 |       /       C                              /

Positions:
   0 C      5.354859    8.642822    6.027310
   1 C      5.686215    3.341919    5.237415
   2 C      3.532647    7.617604    5.631480
   3 C      5.885565    6.005070    5.659452
   4 C      4.506985    5.468808    5.410725
   5 C      6.070557    7.378883    5.876429
   6 C      3.969297    8.868346    5.899723
   7 C      4.659770    4.070629    5.216630
   8 C      3.398314    6.343426    5.416512
   9 C      7.017941    3.743075    5.505480
  10 C      7.114864    5.206336    5.750297
  11 C      8.267747    3.121510    5.608822
  12 C      9.638583    9.280768    7.358645
  13 C     10.753437    6.953984    7.006183
  14 C      9.718433    7.924521    6.983726
  15 C     10.749136    5.734463    6.693140
  16 C      8.562734    9.992433    7.215931
  17 C      7.318344   10.454344    6.953668
  18 C      9.636352    4.981396    6.237475
  19 C      8.508376    7.236840    6.440232
  20 C      8.407068    5.813062    6.114335
  21 C      9.374940    3.643848    5.921941
  22 C      6.714785    9.284214    6.448002
  23 C      7.323934    7.968220    6.256757

Unit cell:
           periodic     x           y           z      points  spacing
  1. axis:    yes   16.000000    0.000000    0.000000    80     0.2000
  2. axis:    yes    0.000000   16.000000    0.000000    80     0.2000
  3. axis:    yes    0.000000    0.000000   10.000000    48     0.2083

Effective grid spacing dv^(1/3) = 0.2027

                     log10-error:    total        iterations:
           time      wfs    density  energy       fermi  poisson
iter:   1  09:55:54          +inf  -185.784993    3      5
iter:   2  09:55:54         -2.94  -185.783671    2      1
iter:   3  09:55:55         -3.05  -185.781986    3      1
iter:   4  09:55:55         -3.27  -185.781951    2      1
iter:   5  09:55:56         -3.44  -185.782050    2      1
iter:   6  09:55:57         -3.59  -185.782427    2      1
iter:   7  09:55:57         -3.70  -185.781946    2      1
iter:   8  09:55:58         -3.95  -185.781778    2      1
iter:   9  09:55:59         -4.06  -185.781874    2      1

Converged after 9 iterations.

Dipole moment: (0.413278, -0.763369, -0.144033) |e|*Ang

Energy contributions relative to reference atoms: (reference = -24663.074771)

Kinetic:       +118.129383
Potential:     -126.489627
External:        +0.000000
XC:            -180.319364
Entropy (-ST):   -0.195108
Local:           +2.995288
Free energy:   -185.879428
Extrapolated:  -185.781874

Fermi level: -4.39061

 Band  Eigenvalues  Occupancy
    0    -23.21280    2.00000
    1    -22.31197    2.00000
    2    -21.93475    2.00000
    3    -20.95305    2.00000
    4    -20.68054    2.00000
    5    -20.31647    2.00000
    6    -19.56376    2.00000
    7    -19.42937    2.00000
    8    -18.72902    2.00000
    9    -18.64381    2.00000
   10    -17.98372    2.00000
   11    -17.02274    2.00000
   12    -16.72259    2.00000
   13    -15.89637    2.00000
   14    -15.56465    2.00000
   15    -15.44668    2.00000
   16    -13.90482    2.00000
   17    -13.58443    2.00000
   18    -13.35475    2.00000
   19    -12.94846    2.00000
   20    -12.75299    2.00000
   21    -12.06597    2.00000
   22    -11.92918    2.00000
   23    -11.59646    2.00000
   24    -11.16387    2.00000
   25    -11.09487    2.00000
   26    -10.93032    2.00000
   27    -10.51192    2.00000
   28     -9.93362    2.00000
   29     -9.84702    2.00000
   30     -9.80738    2.00000
   31     -9.48649    2.00000
   32     -8.98913    2.00000
   33     -8.64288    2.00000
   34     -8.47449    2.00000
   35     -8.19581    2.00000
   36     -7.19329    2.00000
   37     -7.16889    2.00000
   38     -7.11535    2.00000
   39     -6.77853    2.00000
   40     -6.75431    2.00000
   41     -6.65825    2.00000
   42     -6.59357    2.00000
   43     -6.48873    2.00000
   44     -6.43033    2.00000
   45     -5.42076    1.99993
   46     -4.66690    1.88128
   47     -4.61451    1.80740
   48     -4.22149    0.31125
   49     -3.42632    0.00013
   50     -3.12788    0.00001
   51     -2.88861    0.00000
   52     -2.82363    0.00000
   53     -2.66746    0.00000
   54     -2.21279    0.00000
   55     -1.81856    0.00000
   56     -1.42256    0.00000
   57     -1.10494    0.00000
   58     -0.24443    0.00000
   59      0.01686    0.00000
[...]
   83      8.96858    0.00000
   84      9.04910    0.00000
   85      9.08290    0.00000
   86      9.16571    0.00000
   87      9.34032    0.00000
   88      9.44068    0.00000
   89      9.46821    0.00000
   90      9.49504    0.00000
   91      9.52717    0.00000
   92      9.77386    0.00000
   93     10.16176    0.00000
   94     10.18111    0.00000
   95     10.29109    0.00000
   96     10.33863    0.00000
   97     10.43751    0.00000

Forces in eV/Ang:
  0 C    -0.03064    0.01713    0.04531
  1 C    -0.03239   -0.03767    0.00118
  2 C    -0.00503    0.00065   -0.01430
  3 C    -0.02708   -0.04020    0.04107
  4 C     0.07774   -0.01117   -0.04591
  5 C     0.04857   -0.00862    0.03662
  6 C    -0.06952    0.03327   -0.02964
  7 C    -0.02524   -0.00975   -0.04810
  8 C     0.04951   -0.03772   -0.01525
  9 C     0.02146   -0.01701   -0.06726
 10 C     0.03353   -0.01272   -0.01006
 11 C    -0.00065    0.00129    0.02264
 12 C     0.03912    0.05866   -0.04311
 13 C     0.06684    0.01101    0.01143
 14 C     0.07436    0.03255   -0.02450
 15 C    -0.04852   -0.05758   -0.02691
 16 C     0.04498   -0.05728   -0.04915
 17 C     0.04282    0.03786    0.03934
 18 C    -0.04875   -0.01708    0.01626
 19 C    -0.03298    0.05954    0.07162
 20 C    -0.03414    0.02264    0.08393
 21 C    -0.03019   -0.00487   -0.01838
 22 C    -0.04304    0.02889    0.05047
 23 C    -0.09484    0.02070   -0.00650