User:   esb@s65n71.grendel.cscaa.dk
Date:   Wed Nov  8 15:13:06 2017
Arch:   x86_64
Pid:    56127
Python: 2.7.13
gpaw:   /home/esb/DFT/gpaw_git/gpaw
_gpaw:  /home/esb/DFT/gpaw_git/build/bin.linux-x86_64-2.7/gpaw-python
ase:    /home/esb/DFT/ase_git/ase (version 3.15.0b1)
numpy:  /comm/swstack/core/python/2.7.13/lib/python2.7/site-packages/numpy (version 1.13.3)
scipy:  /comm/swstack/core/python/2.7.13/lib/python2.7/site-packages/scipy (version 0.19.1)
units:  Angstrom and eV
cores:  16
Extra parameters: {'blacs': True}

Input parameters:
  basis: dzp
  gpts: [80 80 48]
  kpts: [1 1 1]
  maxiter: 99
  mixer: {backend: pulay,
          beta: 0.05,
          method: separate,
          nmaxold: 5,
          weight: 75}
  mode: lcao
  nbands: -50
  occupations: {name: fermi-dirac,
                width: 0.1}
  poissonsolver: {eps: 1e-07,
                  name: fd,
                  nn: 3,
                  relax: GS}
  xc: PBE

System changes: positions, numbers, cell, pbc, initial_charges, initial_magmoms

Initialize ...

C-setup:
  name: Carbon
  id: 4aa54d4b901d75f77cc0ea3eec22967b
  Z: 6
  valence: 4
  core: 2
  charge: 0.0
  file: /home/esb/DFT/gpaw-setups-0.8.7929/C.PBE.gz
  cutoffs: 0.64(comp), 1.14(filt), 1.14(core), lmax=2
  valence states:
                energy  radius
    2s(2.00)   -13.751   0.635
    2p(2.00)    -5.284   0.635
    *s          13.461   0.635
    *p          21.927   0.635
    *d           0.000   0.635

  LCAO basis set for C:
    Name: dzp
    File: /home/esb/DFT/gpaw-setups-0.8.7929/C.dzp.basis.gz
    Number of radial functions: 5
    Number of spherical harmonics: 13
      l=0, rc=5.5469 Bohr: 2s-sz confined orbital
      l=1, rc=6.6719 Bohr: 2p-sz confined orbital
      l=0, rc=3.0312 Bohr: 2s-dz split-valence wave
      l=1, rc=3.7500 Bohr: 2p-dz split-valence wave
      l=2, rc=6.6719 Bohr: d-type Gaussian polarization

Reference energy: -24663.074771

Spin-paired calculation

Occupation numbers:
  Fermi-Dirac: width=0.1000 eV

Convergence criteria:
  Maximum total energy change: 0.0005 eV / electron
  Maximum integral of absolute density change: 0.0001 electrons
  Maximum integral of absolute eigenstate change: 4e-08 eV^2
  Maximum number of iterations: 99

Symmetries present (total): 1

  ( 1  0  0)
  ( 0  1  0)
  ( 0  0  1)

1 k-point (Gamma)
1 k-point in the irreducible part of the Brillouin zone
       k-points in crystal coordinates                weights
   0:     0.00000000    0.00000000    0.00000000          1/1

Wave functions: LCAO
  Diagonalizer: Serial LAPACK
  Atomic Correction: dense with blas
  Datatype: float
  Eigensolver: None

LCAO using direct dense diagonalizer

Densities:
  Coarse grid: 80*80*48 grid
  Fine grid: 160*160*96 grid
  Total Charge: 0.000000

Density mixing:
  Method: separate
  Backend: pulay
  Linear mixing parameter: 0.05
  Mixing with 5 old densities
  Damping of long wave oscillations: 75

Hamiltonian:
  XC and Coulomb potentials evaluated on a 160*160*96 grid
  Using the PBE Exchange-Correlation functional
  Interpolation: tri-quintic (5. degree polynomial)
  Poisson solver: Gauss-Seidel solver with 6 multi-grid levels
    Coarsest grid: 5 x 5 x 3 points
    Stencil: 6*3+1=19 point O(h^6) finite-difference Laplacian
    Max iterations: 1000
    Tolerance: 1.000000e-07

Total number of cores used: 16
Domain decomposition: 2 x 4 x 2

Number of atoms: 24
Number of atomic orbitals: 312
Number of bands in calculation: 98
Bands to converge: occupied states only
Number of valence electrons: 96

... initialized

Initializing position-dependent things.

Density initialized from atomic densities
   /       |                C                     |
  /        |     C       C  C                     |
 *         |           C C    C   C               |
 |         |    CC      C      CC C               |
 |         .---C-----C-----C----C-----------------.
 |        /     C     C  CC  C                   /
 |       /         C                            /

Positions:
   0 C      7.526224    4.283557    5.028561
   1 C      6.301740   10.752036    4.783200
   2 C      6.310243    7.499682    4.824957
   3 C      8.618784   10.364209    5.406035
   4 C      7.508154    8.256990    5.042147
   5 C      7.935361   12.511924    5.010073
   6 C     12.080157    6.457487    5.861338
   7 C      7.416248    9.756505    5.013305
   8 C      6.746221   12.087455    4.794291
   9 C      8.437416    5.146799    5.216975
  10 C      6.220952    4.376574    4.754138
  11 C     11.313607    5.774373    5.072100
  12 C     10.056407    5.001855    5.263634
  13 C      3.612157    9.312026    4.607643
  14 C      4.595847    5.718686    4.542000
  15 C     10.649089    8.379017    5.152954
  16 C     10.502130    7.003269    5.223303
  17 C      9.240496    3.908575    5.237569
  18 C     10.902976    9.718310    5.197789
  19 C      9.241639    6.274004    5.365018
  20 C      3.662129   10.546018    4.960730
  21 C      4.457848    8.192534    4.651800
  22 C      4.058217    6.864453    4.413628
  23 C      9.476877    9.461116    5.164852

Unit cell:
           periodic     x           y           z      points  spacing
  1. axis:    yes   16.000000    0.000000    0.000000    80     0.2000
  2. axis:    yes    0.000000   16.000000    0.000000    80     0.2000
  3. axis:    yes    0.000000    0.000000   10.000000    48     0.2083

Effective grid spacing dv^(1/3) = 0.2027

                     log10-error:    total        iterations:
           time      wfs    density  energy       fermi  poisson
iter:   1  15:13:08          +inf  -157.598345    3      6
iter:   2  15:13:09         -0.89  -156.296981    3      3
iter:   3  15:13:09         -0.93  -155.535342    3      3
iter:   4  15:13:10         -0.97  -154.095329    4      3
iter:   5  15:13:11         -1.11  -153.666686    3      3
iter:   6  15:13:11         -1.22  -153.325030    4      3
iter:   7  15:13:12         -1.41  -153.182288    33     3
iter:   8  15:13:13         -1.67  -153.176406    3      2
iter:   9  15:13:13         -1.76  -153.170800    2      2
iter:  10  15:13:14         -1.84  -153.164585    3      3
iter:  11  15:13:15         -1.98  -153.160688    3      2
iter:  12  15:13:15         -2.09  -153.154732    3      2
iter:  13  15:13:16         -2.30  -153.148835    3      2
iter:  14  15:13:17         -2.56  -153.140629    2      2
iter:  15  15:13:17         -2.65  -153.138110    2      2
iter:  16  15:13:18         -2.87  -153.138294    2      2
iter:  17  15:13:18         -3.06  -153.139079    2      1
iter:  18  15:13:19         -3.13  -153.140471    2      1
iter:  19  15:13:19         -3.23  -153.140199    2      1
iter:  20  15:13:20         -3.36  -153.137769    2      1
iter:  21  15:13:21         -3.49  -153.136834    2      1
iter:  22  15:13:21         -3.59  -153.137565    2      1
iter:  23  15:13:22         -3.69  -153.137552    2      1
iter:  24  15:13:22         -3.79  -153.138010    2      1
iter:  25  15:13:23         -3.88  -153.136759    2      1
iter:  26  15:13:23         -4.10  -153.137444    2      1

Converged after 26 iterations.

Dipole moment: (0.406338, -0.869655, -0.177934) |e|*Ang

Energy contributions relative to reference atoms: (reference = -24663.074771)

Kinetic:       +121.544592
Potential:     -117.961574
External:        +0.000000
XC:            -159.232102
Entropy (-ST):   -0.594701
Local:           +2.808991
Free energy:   -153.434795
Extrapolated:  -153.137444

Fermi level: -4.84410

 Band  Eigenvalues  Occupancy
    0    -26.30216    2.00000
    1    -24.07788    2.00000
    2    -23.11274    2.00000
    3    -21.50937    2.00000
    4    -21.02520    2.00000
    5    -20.40241    2.00000
    6    -19.66416    2.00000
    7    -19.04118    2.00000
    8    -18.80112    2.00000
    9    -18.43830    2.00000
   10    -17.82715    2.00000
   11    -16.86835    2.00000
   12    -16.65022    2.00000
   13    -16.42550    2.00000
   14    -16.28805    2.00000
   15    -14.59102    2.00000
   16    -13.45651    2.00000
   17    -13.02963    2.00000
   18    -12.71364    2.00000
   19    -12.49490    2.00000
   20    -12.13710    2.00000
   21    -11.81043    2.00000
   22    -11.03961    2.00000
   23    -10.91571    2.00000
   24    -10.77081    2.00000
   25    -10.32815    2.00000
   26    -10.02783    2.00000
   27    -10.00674    2.00000
   28     -9.30783    2.00000
   29     -9.00462    2.00000
   30     -8.77602    2.00000
   31     -8.65589    2.00000
   32     -7.86669    2.00000
   33     -7.84878    2.00000
   34     -7.62302    2.00000
   35     -7.37413    2.00000
   36     -7.13331    2.00000
   37     -7.03911    2.00000
   38     -6.90064    2.00000
   39     -6.86879    2.00000
   40     -6.69078    2.00000
   41     -6.22551    2.00000
   42     -5.99872    1.99998
   43     -5.77037    1.99981
   44     -5.72360    1.99970
   45     -5.09127    1.84426
   46     -4.96290    1.53276
   47     -4.90633    1.30148
   48     -4.77413    0.66376
   49     -4.72496    0.46602
   50     -4.61759    0.18811
   51     -4.18796    0.00282
   52     -4.07213    0.00089
   53     -3.99388    0.00041
   54     -3.66820    0.00002
   55     -2.83550    0.00000
   56     -2.28691    0.00000
   57     -1.48320    0.00000
   58     -1.41034    0.00000
   59     -1.19007    0.00000
[...]
   83      7.67552    0.00000
   84      8.10939    0.00000
   85      8.59663    0.00000
   86      8.71261    0.00000
   87      8.90073    0.00000
   88      8.96406    0.00000
   89      9.02345    0.00000
   90      9.13098    0.00000
   91      9.28666    0.00000
   92      9.41996    0.00000
   93      9.51840    0.00000
   94      9.62993    0.00000
   95      9.84736    0.00000
   96      9.93541    0.00000
   97      9.96412    0.00000

Forces in eV/Ang:
  0 C    -5.00733   -2.74714   -1.66103
  1 C     2.20616    1.18566    0.36273
  2 C     2.12382    2.33230    0.47323
  3 C    -4.36595    2.51242    0.48058
  4 C    -4.29459    0.36174   -0.78413
  5 C     2.39695    0.35501    0.37125
  6 C     2.36985    1.22150    1.80300
  7 C    -4.29407   -0.26530   -0.39145
  8 C    -3.32329   -2.98363   -0.29385
  9 C     2.30725    7.76409    0.63414
 10 C    -1.91823   -0.06392   -0.68746
 11 C    -0.11756   -3.41136   -2.31461
 12 C     2.43070   -1.70544    0.24058
 13 C     2.92209   -2.96768    0.02514
 14 C     1.39528   -2.78004    0.55740
 15 C    -0.51854    1.92563   -0.18845
 16 C    -3.41708    1.49899    0.31502
 17 C     0.80944   -4.20326    0.55919
 18 C     2.40840   -1.21240   -0.64266
 19 C     0.47786    1.86087    0.85519
 20 C     0.36978    2.46840    0.51192
 21 C    -1.43630   -0.35616   -0.79283
 22 C     0.31295    0.70116    0.19025
 23 C     6.06444   -1.51243    0.37462

System changes: positions

[...]

Density initialized from wave functions
   /       |                C                     |
  /        |     C       C  C                     |
 *         |           C C    C   C               |
 |         |    CC      C      CC  C              |
 |         .---C-----C---C-C----C-----------------.
 |        /     C     C   C  C                   /
 |       /         C                            /

[...]

[...]
 |       /       C                C             /
 |      /                         C            /

[...]

Density initialized from wave functions
   /       |              C C                     |
  /        |           C    C                     |
 *         |       C     C    C   C               |
 |         |     C     C       C                  |
 |         .-C--C---C-----C---C-C-----------------.
 |        /   C  C  C  C         C               /
 |       /                        C             /
 |      /                         C            /

[...]

Density initialized from wave functions
   /       |              C C                     |
  /        |           C    C                     |
 *         |       C     C    C   C               |
 |         |     C     C       C                  |
 |         .--C-C---C-----C---C-C-----------------.
 |        /   C  C  C  C         C               /
 |       /                        C             /
 |      /                         C            /

[...]

Density initialized from wave functions
   /       |              C C                     |
  /        |           C    C                     |
 *         |       C     C    C   C               |
 |         |     C     C       C                  |
 |         .--C-C---C-----C---C-C-----------------.
 |        /   C     C  C         C               /
 |       /       C                C             /
 |      /                         C            /

[...]

Density initialized from wave functions
   /       |              C C                     |
  /        |           C    C                     |
 *         |       C     C    C   C               |
 |         |     C     C       C                  |
 |         .--C-C---C-----C---C-C-----------------.
 |        /   C  C  C  C         C               /
 |       /                        C             /
 |      /                         C            /

[...]

Density initialized from wave functions
  /        |           C  C C                     |
 *         |       C     C    C   C               |
 |         |     C     C       C                  |
 |         .-C--C---C-----C---C-C-----------------.
 |        /   C     C  C         C               /
 |       /       C                C             /
 |      /                         C            /

[...]

Density initialized from wave functions
  /        |           C  C C                     |
 *         |       C     C    C   C               |
 |         |     C     C       C                  |
 |         .--C-C---C-----C---C-C-----------------.
 |        /   C     C  C         C               /
 |       /       C                C             /
 |      /                         C            /

[...]

Density initialized from wave functions
  /        |           C  C C                     |
 *         |       C     C    C   C               |
 |         |     C     C       C                  |
 |         .--C-C---C-----C---C-C-----------------.
 |        /   C     C  C         C               /
 |       /       C                C             /
 |      /                         C            /

[...]

Density initialized from wave functions
  /        |           C  C CC                    |
 *         |       C     C    C   C               |
 |         |     C     C       C                  |
 |         .--C-C---C-----C---C-C-----------------.
 |        /   C     C  C         C               /
 |       /       C                C             /
 |      /                          C           /

[...]

Density initialized from wave functions
  /        |           C  C CC                    |
 *         |       C     C    C   C               |
 |         |     C     C       C                  |
 |         .--C-C---C-----C---C-C-----------------.
 |        /   C     C  C         C               /
 |       /       C                C             /
 |      /                          C           /

[...]

Density initialized from wave functions
  /        |           C  C CC                    |
 *         |       C     C    C   C               |
 |         |     C     C       C                  |
 |         .-C--C---C-----C---C-C-----------------.
 |        /   C     C  C         C               /
 |       /       C                C             /
 |      /                          C           /

[...]

Density initialized from wave functions
  /        |           C  C CC                    |
 *         |       C     C    C   C               |
 |         |     C     C       C                  |
 |         .-C--C---C-----C---C-C-----------------.
 |        /   C     C  C         C               /
 |       /       C                C             /
 |      /                          C           /

[...]

Density initialized from wave functions
  /        |           C  C CC                    |
 *         |       C     C    C   C               |
 |         |     C     C       C                  |
 |         .-C--C---C-----C---C-------------------.
 |        /   C     C  C        CC               /
 |       /       C                C             /
 |      /                          C           /

[...]

Density initialized from wave functions
  /        |           C  C CC                    |
 *         |        C    C    C   C               |
 |         |     C     C       C                  |
 |         .-C--C---C-----C---C-------------------.
 |        /   C     C  C        CC               /
 |       /       C                C             /
 |      /                          C           /

[...]

Density initialized from wave functions
  /        |           C  C CC                    |
 *         |        C    C    C   C               |
 |         |     C     C       C                  |
 |         .-C--C---C-----C---C-------------------.
 |        /   C     C  C        C                /
 |       /      C                CC             /
 |      /                          C           /

[...]

Density initialized from wave functions
  /        |           C  C CC                    |
 *         |        C    C    C   C               |
 |         |     C     C       C                  |
 |         .-C--C---C-----C---C-------------------.
 |        /   C     C  C        C                /
 |       /      C                CC             /
 |     /                           C          /

[...]

Density initialized from wave functions
  /        |           C  C CC                    |
 *         |        C    C    C   C               |
 |         |     C     C       C                  |
 |         .-C--C---C-----C---C-------------------.
 |        /   C     C  C        C                /
 |       /      C                C              /
 |      /                         C            /
 |     /                           C          /

[...]

Density initialized from wave functions
  /        |           C  C CC                    |
 *         |        C    C    C   C               |
 |         |     C     C       C                  |
 |         .-C--C---C-----C---C-------------------.
 |        /   C     C  C        C                /
 |       /      C                C              /
 |      /                         C            /
 |     /                           C          /

[...]

Density initialized from wave functions
  /        |           C  C CC                    |
 *         |        C    C    C   C               |
 |         |     C     C       C                  |
 |         .-C--C---C-----C--C--------------------.
 |        /   C     C  C        C                /
 |       /      C                C              /
 |      /                         C            /
 |     /                           C          /

[...]

Density initialized from wave functions
  /        |           C  C CC                    |
 *         |        C    C    C   C               |
 |         |     C     C       C                  |
 |         .-C--C---C-----C--C--------------------.
 |        /   C     C  C        C                /
 |       /      C                C              /
 |      /                         C            /
 |     /                           C          /

[...]

Density initialized from wave functions
  /        |           C  C  C                    |
 *         |        C    C  C C   C               |
 |         |     C     C       C                  |
 |         .-C--C---C-----C--C--------------------.
 |        /   C     C  C       C                 /
 |       /      C                C              /
 |      /                         C            /
 |     /                           C          /

[...]

Density initialized from wave functions
  /        |           C  C  C                    |
 *         |        C    C  C C   C               |
 |         |     C     C       C                  |
 |         .-C--C---C-----C--C--------------------.
 |        /   C     C  C       C                 /
 |       /      C                C              /
 |      /                         C            /
 |     /                            C         /

[...]

Density initialized from wave functions
  /        |           C  C  C                    |
 *         |        C    C  C C   C               |
 |         |     C     C       C                  |
 |         .-C--C---C--------C--------------------.
 |        /   C    C   C  C    C                 /
 |       /      C                C              /
 |      /                         C            /
 |     /                            C         /

[...]

Density initialized from wave functions
  /        |           C  C  C                    |
 *         |        C    C  C C   C               |
 |         |     C     C       C                  |
 |         .-C--C---C--------C--------------------.
 |        /   C    C   C  C    C                 /
 |       /      C                C              /
 |      /                         C            /
 |     /                            C         /

[...]

Density initialized from wave functions
  /        |           C  C  C                    |
 *         |        C    C  C C   C               |
 |         |     C     C       C                  |
 |         .----C---C--------C--------------------.
 |        /  CC    C   C  C    C                 /
 |       /      C                C              /
 |      /                         C            /
 |     /                            C         /

[...]

System changes: positions

Initializing position-dependent things.

Density initialized from wave functions
  /        |           C  C  C                    |
 *         |        C    C  C C   C               |
 |         |     C     C       C                  |
 |         .----C---C--------C--------------------.
 |        /  CC    C   C  C    C                 /
 |       /      C                C              /
 |      /                         C            /
 |     /                            C         /

Positions:
   0 C      5.996767    6.062598    4.433619
   1 C      6.309182   10.864045    4.829084
   2 C      5.675668    7.518751    4.565182
   3 C      8.607502   10.066943    5.094859
   4 C      6.709384    8.366761    4.768245
   5 C      8.456014   11.507684    5.140001
   6 C     10.995226    5.588284    4.585071
   7 C      7.244487    9.591651    4.891227
   8 C      7.226954   11.906432    4.995864
   9 C      7.384100    5.796486    4.547537
  10 C      4.914222    5.190741    4.205424
  11 C     11.851983    4.689187    4.303197
  12 C     12.751194    3.759186    3.992821
  13 C      4.255755    9.467451    4.512682
  14 C      3.783266    5.859230    4.146534
  15 C     10.185510    7.864595    5.121312
  16 C      9.946398    6.457841    4.807137
  17 C     13.598474    2.847864    3.577537
  18 C     11.078027    8.891737    5.525105
  19 C      8.599190    6.037013    4.679762
  20 C      4.977510   10.493059    4.647508
  21 C      4.260025    8.061577    4.430088
  22 C      3.279016    7.063553    4.219898
  23 C      9.691138    9.176791    5.221910

Unit cell:
           periodic     x           y           z      points  spacing
  1. axis:    yes   16.000000    0.000000    0.000000    80     0.2000
  2. axis:    yes    0.000000   16.000000    0.000000    80     0.2000
  3. axis:    yes    0.000000    0.000000   10.000000    48     0.2083

Effective grid spacing dv^(1/3) = 0.2027

                     log10-error:    total        iterations:
           time      wfs    density  energy       fermi  poisson
iter:   1  15:46:47          +inf  -178.981555    2      5
iter:   2  15:46:48         -2.88  -178.979398    2      1
iter:   3  15:46:49         -3.08  -178.976969    2      1
iter:   4  15:46:49         -3.27  -178.977761    2      1
iter:   5  15:46:50         -3.43  -178.976476    2      1
iter:   6  15:46:50         -3.47  -178.976704    2      1
iter:   7  15:46:51         -3.84  -178.978865    2      1
iter:   8  15:46:51         -3.37  -178.977204    2      1
iter:   9  15:46:52         -4.11  -178.976717    1      1

Converged after 9 iterations.

Dipole moment: (-1.733123, 0.730269, 0.118925) |e|*Ang

Energy contributions relative to reference atoms: (reference = -24663.074771)

Kinetic:       +109.292504
Potential:     -118.701757
External:        +0.000000
XC:            -172.468772
Entropy (-ST):   -0.161498
Local:           +2.982057
Free energy:   -179.057466
Extrapolated:  -178.976717

Fermi level: -4.94311

 Band  Eigenvalues  Occupancy
    0    -23.01970    2.00000
    1    -22.75486    2.00000
    2    -22.31293    2.00000
    3    -21.03604    2.00000
    4    -20.82301    2.00000
    5    -20.45649    2.00000
    6    -19.64267    2.00000
    7    -19.38877    2.00000
    8    -18.98154    2.00000
    9    -18.51145    2.00000
   10    -18.18161    2.00000
   11    -17.36509    2.00000
   12    -16.56109    2.00000
   13    -16.33843    2.00000
   14    -15.84193    2.00000
   15    -15.02779    2.00000
   16    -14.22675    2.00000
   17    -14.15028    2.00000
   18    -13.68832    2.00000
   19    -13.66612    2.00000
   20    -13.16441    2.00000
   21    -12.47158    2.00000
   22    -12.07779    2.00000
   23    -11.52811    2.00000
   24    -11.37361    2.00000
   25    -11.15186    2.00000
   26    -10.79339    2.00000
   27    -10.32703    2.00000
   28    -10.08585    2.00000
   29     -9.89763    2.00000
   30     -8.89464    2.00000
   31     -8.77238    2.00000
   32     -8.46306    2.00000
   33     -8.25086    2.00000
   34     -8.04306    2.00000
   35     -7.99983    2.00000
   36     -7.83814    2.00000
   37     -7.43916    2.00000
   38     -7.08209    2.00000
   39     -6.91293    2.00000
   40     -6.67226    2.00000
   41     -6.35160    2.00000
   42     -6.11907    1.99998
   43     -5.75233    1.99939
   44     -5.60569    1.99735
   45     -5.43170    1.98501
   46     -5.37079    1.97261
   47     -5.17782    1.82540
   48     -4.72337    0.19997
   49     -4.48503    0.02029
   50     -3.63947    0.00000
   51     -3.39335    0.00000
   52     -3.06769    0.00000
   53     -2.88553    0.00000
   54     -2.57625    0.00000
   55     -2.11240    0.00000
   56     -1.47425    0.00000
   57     -1.28495    0.00000
   58     -0.82634    0.00000
   59     -0.77072    0.00000
[...]
   83      8.32226    0.00000
   84      8.41089    0.00000
   85      8.49218    0.00000
   86      8.72737    0.00000
   87      8.78537    0.00000
   88      9.01502    0.00000
   89      9.12411    0.00000
   90      9.45813    0.00000
   91      9.48084    0.00000
   92      9.79049    0.00000
   93      9.86742    0.00000
   94      9.91819    0.00000
   95     10.05712    0.00000
   96     10.10040    0.00000
   97     10.16861    0.00000

Forces in eV/Ang:
  0 C    -0.05030   -0.02704    0.01963
  1 C     0.00074   -0.00937   -0.00915
  2 C    -0.00007    0.01845   -0.03161
  3 C     0.01414   -0.02242    0.02505
  4 C     0.01536    0.01717   -0.03987
  5 C    -0.04949    0.00427    0.03403
  6 C    -0.01662   -0.01155    0.00290
  7 C    -0.01298    0.02025    0.00035
  8 C    -0.00046    0.01299    0.01639
  9 C     0.05627   -0.00261    0.01200
 10 C    -0.05460    0.02428    0.00916
 11 C    -0.01424   -0.00878   -0.01783
 12 C    -0.03187    0.04362    0.00792
 13 C     0.02460   -0.00993    0.01440
 14 C    -0.00262   -0.01491    0.00531
 15 C     0.02393   -0.02502    0.01749
 16 C     0.02266   -0.01604   -0.01183
 17 C     0.03951    0.01173    0.07329
 18 C     0.00942   -0.00172   -0.03023
 19 C    -0.06623    0.00081    0.01028
 20 C    -0.01421   -0.01658    0.01263
 21 C     0.02373    0.01310   -0.00026
 22 C    -0.04961    0.02474   -0.01788
 23 C     0.04241    0.00026   -0.01092