User:   esb@s65n22.grendel.cscaa.dk
Date:   Thu Nov  9 10:52:51 2017
Arch:   x86_64
Pid:    68693
Python: 2.7.13
gpaw:   /home/esb/DFT/gpaw_git/gpaw
_gpaw:  /home/esb/DFT/gpaw_git/build/bin.linux-x86_64-2.7/gpaw-python
ase:    /home/esb/DFT/ase_git/ase (version 3.15.0b1)
numpy:  /comm/swstack/core/python/2.7.13/lib/python2.7/site-packages/numpy (version 1.13.3)
scipy:  /comm/swstack/core/python/2.7.13/lib/python2.7/site-packages/scipy (version 0.19.1)
units:  Angstrom and eV
cores:  16
Extra parameters: {'blacs': True}

Input parameters:
  basis: dzp
  gpts: [80 80 48]
  kpts: [1 1 1]
  maxiter: 99
  mixer: {backend: pulay,
          beta: 0.05,
          method: separate,
          nmaxold: 5,
          weight: 75}
  mode: lcao
  nbands: -50
  occupations: {name: fermi-dirac,
                width: 0.1}
  poissonsolver: {eps: 1e-07,
                  name: fd,
                  nn: 3,
                  relax: GS}
  xc: PBE

System changes: positions, numbers, cell, pbc, initial_charges, initial_magmoms

Initialize ...

C-setup:
  name: Carbon
  id: 4aa54d4b901d75f77cc0ea3eec22967b
  Z: 6
  valence: 4
  core: 2
  charge: 0.0
  file: /home/esb/DFT/gpaw-setups-0.8.7929/C.PBE.gz
  cutoffs: 0.64(comp), 1.14(filt), 1.14(core), lmax=2
  valence states:
                energy  radius
    2s(2.00)   -13.751   0.635
    2p(2.00)    -5.284   0.635
    *s          13.461   0.635
    *p          21.927   0.635
    *d           0.000   0.635

  LCAO basis set for C:
    Name: dzp
    File: /home/esb/DFT/gpaw-setups-0.8.7929/C.dzp.basis.gz
    Number of radial functions: 5
    Number of spherical harmonics: 13
      l=0, rc=5.5469 Bohr: 2s-sz confined orbital
      l=1, rc=6.6719 Bohr: 2p-sz confined orbital
      l=0, rc=3.0312 Bohr: 2s-dz split-valence wave
      l=1, rc=3.7500 Bohr: 2p-dz split-valence wave
      l=2, rc=6.6719 Bohr: d-type Gaussian polarization

Reference energy: -24663.074771

Spin-paired calculation

Occupation numbers:
  Fermi-Dirac: width=0.1000 eV

Convergence criteria:
  Maximum total energy change: 0.0005 eV / electron
  Maximum integral of absolute density change: 0.0001 electrons
  Maximum integral of absolute eigenstate change: 4e-08 eV^2
  Maximum number of iterations: 99

Symmetries present (total): 1

  ( 1  0  0)
  ( 0  1  0)
  ( 0  0  1)

1 k-point (Gamma)
1 k-point in the irreducible part of the Brillouin zone
       k-points in crystal coordinates                weights
   0:     0.00000000    0.00000000    0.00000000          1/1

Wave functions: LCAO
  Diagonalizer: Serial LAPACK
  Atomic Correction: dense with blas
  Datatype: float
  Eigensolver: None

LCAO using direct dense diagonalizer

Densities:
  Coarse grid: 80*80*48 grid
  Fine grid: 160*160*96 grid
  Total Charge: 0.000000

Density mixing:
  Method: separate
  Backend: pulay
  Linear mixing parameter: 0.05
  Mixing with 5 old densities
  Damping of long wave oscillations: 75

Hamiltonian:
  XC and Coulomb potentials evaluated on a 160*160*96 grid
  Using the PBE Exchange-Correlation functional
  Interpolation: tri-quintic (5. degree polynomial)
  Poisson solver: Gauss-Seidel solver with 6 multi-grid levels
    Coarsest grid: 5 x 5 x 3 points
    Stencil: 6*3+1=19 point O(h^6) finite-difference Laplacian
    Max iterations: 1000
    Tolerance: 1.000000e-07

Total number of cores used: 16
Domain decomposition: 2 x 4 x 2

Number of atoms: 24
Number of atomic orbitals: 312
Number of bands in calculation: 98
Bands to converge: occupied states only
Number of valence electrons: 96

... initialized

Initializing position-dependent things.

Density initialized from atomic densities
  /        |           C  C                       |
 *         |  C C   C      C   C  C               |
 |         | C       C   C       C                |
 |         .-------------C-------C----------------.
 |        /  C       C     C   C                 /
 |       /    C     C     C       C             /
 |      /        C     C                       /

Positions:
   0 C      6.375922    9.789677    5.940044
   1 C      7.622854    9.807095    5.802140
   2 C      4.071908    8.709465    5.847802
   3 C      5.495636    8.689150    5.818119
   4 C     10.978126    9.956465    4.854680
   5 C      3.537909    7.528178    5.687544
   6 C      8.496992    8.748068    5.468537
   7 C      9.873213    9.080310    5.151590
   8 C      6.313855    7.469667    5.597377
   9 C      3.259175    6.251518    5.560335
  10 C      7.778894    7.476540    5.450777
  11 C     11.113106    8.505769    4.934269
  12 C      7.944359    3.943191    3.818078
  13 C      9.027638    4.570642    3.901584
  14 C      5.419439    3.686428    4.024705
  15 C      6.659060    4.352384    4.244102
  16 C     11.894988    6.538782    3.614242
  17 C      4.396818    4.326520    4.525511
  18 C      9.271223    5.862055    4.421067
  19 C     10.579694    6.446839    4.195780
  20 C      6.800150    5.656960    4.939460
  21 C      3.561773    5.123557    5.150945
  22 C      8.069347    6.393851    5.057818
  23 C     11.380066    7.510652    4.573094

Unit cell:
           periodic     x           y           z      points  spacing
  1. axis:    yes   16.000000    0.000000    0.000000    80     0.2000
  2. axis:    yes    0.000000   16.000000    0.000000    80     0.2000
  3. axis:    yes    0.000000    0.000000   10.000000    48     0.2083

Effective grid spacing dv^(1/3) = 0.2027

                     log10-error:    total        iterations:
           time      wfs    density  energy       fermi  poisson
iter:   1  10:52:53          +inf  -178.564070    2      6
iter:   2  10:52:54         -0.88  -177.340350    33     3
iter:   3  10:52:54         -0.92  -174.729432    34     4
iter:   4  10:52:55         -1.08  -173.726845    4      2
iter:   5  10:52:55         -1.17  -173.674808    30     4
iter:   6  10:52:56         -1.36  -173.288283    32     2
iter:   7  10:52:56         -1.44  -173.331466    33     3
iter:   8  10:52:57         -1.50  -173.126712    4      3
iter:   9  10:52:58         -1.74  -173.035143    3      2
iter:  10  10:52:58         -1.82  -173.001217    3      2
iter:  11  10:52:59         -1.90  -172.974404    3      2
iter:  12  10:52:59         -2.00  -172.966984    3      3
iter:  13  10:53:00         -2.30  -172.951054    3      2
iter:  14  10:53:00         -2.58  -172.946572    3      2
iter:  15  10:53:01         -2.77  -172.952872    2      1
iter:  16  10:53:01         -2.84  -172.945456    2      2
iter:  17  10:53:02         -3.10  -172.947777    2      1
iter:  18  10:53:02         -3.18  -172.954823    3      1
iter:  19  10:53:03         -3.30  -172.946760    2      1
iter:  20  10:53:03         -3.33  -172.937683    3      1
iter:  21  10:53:04         -3.63  -172.947227    2      1
iter:  22  10:53:04         -3.89  -172.943804    2      1
iter:  23  10:53:05         -4.01  -172.943822    2      1

Converged after 23 iterations.

Dipole moment: (-0.606365, -0.249110, 0.283171) |e|*Ang

Energy contributions relative to reference atoms: (reference = -24663.074771)

Kinetic:       +167.863646
Potential:     -159.177723
External:        +0.000000
XC:            -184.501981
Entropy (-ST):   -0.349483
Local:           +3.046977
Free energy:   -173.118563
Extrapolated:  -172.943822

Fermi level: -4.21850

 Band  Eigenvalues  Occupancy
    0    -23.79128    2.00000
    1    -22.91761    2.00000
    2    -22.18760    2.00000
    3    -21.41813    2.00000
    4    -21.18441    2.00000
    5    -20.44482    2.00000
    6    -20.15239    2.00000
    7    -19.67095    2.00000
    8    -18.60357    2.00000
    9    -18.50057    2.00000
   10    -18.13188    2.00000
   11    -17.27967    2.00000
   12    -16.48359    2.00000
   13    -16.33175    2.00000
   14    -15.59432    2.00000
   15    -14.95223    2.00000
   16    -14.45563    2.00000
   17    -14.03291    2.00000
   18    -13.17867    2.00000
   19    -12.82623    2.00000
   20    -12.53427    2.00000
   21    -11.86741    2.00000
   22    -11.54808    2.00000
   23    -11.37473    2.00000
   24    -11.13292    2.00000
   25    -10.43599    2.00000
   26    -10.24652    2.00000
   27    -10.15476    2.00000
   28     -9.54891    2.00000
   29     -9.50115    2.00000
   30     -9.31031    2.00000
   31     -9.16948    2.00000
   32     -8.58961    2.00000
   33     -8.55556    2.00000
   34     -8.10962    2.00000
   35     -8.08204    2.00000
   36     -7.78687    2.00000
   37     -7.52966    2.00000
   38     -7.28656    2.00000
   39     -7.17294    2.00000
   40     -6.46517    2.00000
   41     -6.30902    2.00000
   42     -6.00854    2.00000
   43     -5.99524    2.00000
   44     -5.97520    2.00000
   45     -5.50746    1.99999
   46     -5.04292    1.99947
   47     -4.20023    0.90891
   48     -4.18781    0.84777
   49     -4.02055    0.24274
   50     -3.46648    0.00108
   51     -3.09150    0.00003
   52     -2.86482    0.00000
   53     -2.75833    0.00000
   54     -2.25428    0.00000
   55     -1.46108    0.00000
   56     -1.29284    0.00000
   57     -1.08990    0.00000
   58     -0.31705    0.00000
   59      0.07748    0.00000
[...]
   83      8.88397    0.00000
   84      8.88707    0.00000
   85      8.95150    0.00000
   86      9.12367    0.00000
   87      9.32032    0.00000
   88      9.34330    0.00000
   89      9.40891    0.00000
   90      9.76264    0.00000
   91      9.83063    0.00000
   92      9.89427    0.00000
   93     10.00783    0.00000
   94     10.05028    0.00000
   95     10.24301    0.00000
   96     10.32080    0.00000
   97     10.49065    0.00000

Forces in eV/Ang:
  0 C     0.27131   -0.08639    0.11514
  1 C    -0.26319   -0.04792   -0.03729
  2 C    -0.47725   -2.31722   -0.22748
  3 C     0.46499   -0.47264   -0.18065
  4 C    -1.30286   -0.57131    0.76760
  5 C    -0.52233    1.67573    0.62910
  6 C     1.41928    0.93857   -0.00362
  7 C    -2.67289    2.21042    1.13840
  8 C     1.23521   -0.09163   -0.31240
  9 C    -1.28474    2.81179    0.82642
 10 C    -5.32681   18.28224    5.94894
 11 C    -4.64563   26.40818    9.03658
 12 C     0.21931    0.13115    0.18068
 13 C    -0.26037   -0.08048   -0.04162
 14 C    -1.49664    1.45365    1.13008
 15 C     0.10409    0.64299    0.21437
 16 C    -1.25693   -0.67777    0.71019
 17 C     0.40119   -1.72689   -0.58157
 18 C     1.67639    0.00408   -0.33310
 19 C    -1.21063   -3.31914   -0.90348
 20 C     1.01096    0.80934   -0.00397
 21 C     0.28066   -2.91103   -1.22996
 22 C     4.44249  -18.04166   -7.23226
 23 C     9.15695  -25.02469   -9.64275

System changes: positions

[...]

Density initialized from wave functions
  /        |           C  C                       |
 *         |  C C   C      C   C  C               |
 |         | C       C   C       C                |
 |         .-------------C-------C----------------.
 |        /  C       C     C   C                 /
 |       /    C     C     C       C             /
 |      /        C     C                       /

[...]

Density initialized from wave functions
  /        |           C  C                       |
 *         |  C C   C      C   C  C               |
 |         | C       C   C       C                |
 |         .-------------C-------C----------------.
 |        /  C       C     C   C                 /
 |       /    C     C     C       C             /
 |      /        C     C                       /

[...]

Density initialized from wave functions
  /        |           C  C                       |
 *         |  C C   C      C   C  C               |
 |         | C       C   C        C               |
 |         .-------------C--------C---------------.
 |        /  C       C     C   C                 /
 |       /    C     C             C             /
 |      /        C     C  C                    /

[...]

Density initialized from wave functions
  /        |           C  C                       |
 *         |  C C   C      C   C  C               |
 |         | C       C   C        C               |
 |         .-------------C--------C---------------.
 |        /  C       C     C   C                 /
 |       /    C     C             C             /
 |      /        C     C  C                    /

[...]

Density initialized from wave functions
  /        |          C   C                       |
 *         |  C C   C      C   C  C               |
 |         | C       C   C        C               |
 |         .---------C---C--------C---------------.
 |        /  C             C   C                 /
 |       /    C     C             C             /
 |      /        C     C  C                    /

[...]

Density initialized from wave functions
  /        |          C   C                       |
 *         |  C C   C      C   C  C               |
 |         |C        C   C        C               |
 |         .---------C---C--------C---------------.
 |        /  C             C   C                 /
 |       /    C     C             C             /
 |      /       C      C  C                    /

[...]

Density initialized from wave functions
  /        |          C   C                       |
 *         |  C C   C      C   C  C               |
 |         |C        C   C        C               |
 |         .---------C---C--------C---------------.
 |        / C              C   C                 /
 |       /    C     C             C             /
 |      /       C      C  C                    /

[...]

Density initialized from wave functions
  /        |          C   C                       |
 *         |  C C   C      C   C  C               |
 |         |         C   C        C               |
 |         .C---------C--C--------C---------------.
 |        / C              C   C                 /
 |       /    C     C             C             /
 |      /       C      C  C                    /

[...]

Density initialized from wave functions
  /        |          C   C                       |
 *         |  C C   C      C   C  C               |
 |         |          C  C        C               |
 |         .C---------C--C--------C---------------.
 |        / C               C  C                 /
 |       /    C C   C             C             /
 |      /              C  C                    /

[...]

Density initialized from wave functions
  /        |          C  C                        |
 *         | C  C   C       C  C  C               |
 |         |          C  C       C                |
 |         .C---------C--C--------C---------------.
 |        / C               C  C                 /
 |       /    C  C  C             C             /
 |      /             C   C                    /

[...]

Density initialized from wave functions
  /        |          C  C                        |
 *         | C  C   C       C  C  C               |
 |         |          C  C       C                |
 |         C----------C--C-------C----------------.
 |        / C               C  C                 /
 |       /    C  C  C             C             /
 |      /             C   C                    /

[...]

Density initialized from wave functions
  /        |          C  C                        |
 *         | C  C   C       C  C  C               |
 |         |          C  C       C                |
 |         C----------C--C-------C----------------.
 |        /C                C  C                 /
 |       /    C  C  C              C            /
 |      /             C   C                    /

[...]

Density initialized from wave functions
  /        |          C  C                        |
 *         | C  C   C       C  C  C               |
 |         |          C  C       C                |
 |         C----------C---C------C----------------.
 |        /C                C  C                 /
 |       /    C  C  C              C            /
 |      /             C   C                    /

[...]

Density initialized from wave functions
  /        |          C  C                        |
 *         | C  C   C       C  C   C              |
 |         |          C  C       C                |
 |         C----------C---C------C----------------.
 |        /C                C  C                 /
 |       /   C   C  C              C            /
 |      /             C   C                    /

[...]

Density initialized from wave functions
  /        |          C  C                        |
 *         |    C   C       C  C   C              |
 |         | C        C  C       C                |
 |         C----------C---C------C----------------.
 |        /C                C  C                 /
 |       /   C   C  C              C            /
 |      /             C   C                    /

[...]

Density initialized from wave functions
  /        |          C  C                        |
 *         |    C   C       C  C   C              |
 |         | C        C  C       C                |
 |         C----------C---C------C----------------.
 |        /C                C  C                 /
 |       /   C   C  C              C            /
 |      /             C   C                    /

[...]

Density initialized from wave functions
  /        |          C  C                        |
 *         |    C   C       C  C   C              |
 |         | C        C  C       C                |
 |         C----------C---C-------C---------------.
 |        /C                C  C                 /
 |       /   C   C  C              C            /
 |      /             C   C                    /

[...]

Density initialized from wave functions
  /        |          C  C                        |
 *         |    C   C       C  C   C              |
 |         | C        C  C        C               |
 |         C----------C---C-------C---------------.
 |        /C                C  C                 /
 |       /   C  C   C              C            /
 |      /             C   C                    /

[...]

Density initialized from wave functions
  /        |          C  C         C              |
 *         |    C   C       C  C                  |
 |         | C        C  C        C               |
 |         C----------C---C-------C---------------.
 |        /C                C  C                 /
 |       /   C  C   C              C            /
 |      /             C   C                    /

[...]

System changes: positions

Initializing position-dependent things.

Density initialized from wave functions
  /        |          C  C         C              |
 *         |    C   C       C  C                  |
 |         | C        C  C        C               |
 |         C----------C---C-------C---------------.
 |        /C                C  C                 /
 |       /   C  C   C              C            /
 |      /             C   C                    /

Positions:
   0 C      6.268070    9.559378    6.046121
   1 C      7.477498    9.893320    5.943444
   2 C      4.268014    7.935060    5.796246
   3 C      5.616869    8.316432    5.743774
   4 C     11.219844   10.136707    5.155432
   5 C      3.207281    7.264044    5.735558
   6 C      8.587723    9.088610    5.503090
   7 C      9.973854    9.361838    5.266605
   8 C      6.668576    7.409601    5.321571
   9 C      2.546639    6.112033    5.472372
  10 C      8.047944    7.808980    5.226972
  11 C     11.109510    8.736560    4.813124
  12 C      7.755534    3.983360    4.009813
  13 C      8.952012    4.366534    3.928409
  14 C      5.237694    4.324388    4.471930
  15 C      6.585516    4.702559    4.423678
  16 C     12.237015    6.343361    3.754586
  17 C      3.996697    4.330604    4.665500
  18 C      9.508981    5.654185    4.253378
  19 C     10.816857    6.227426    4.128124
  20 C      7.043292    6.022477    4.814691
  21 C      2.860389    4.956718    5.051592
  22 C      8.420328    6.430367    4.724156
  23 C     11.465383    7.421036    4.331556

Unit cell:
           periodic     x           y           z      points  spacing
  1. axis:    yes   16.000000    0.000000    0.000000    80     0.2000
  2. axis:    yes    0.000000   16.000000    0.000000    80     0.2000
  3. axis:    yes    0.000000    0.000000   10.000000    48     0.2083

Effective grid spacing dv^(1/3) = 0.2027

                     log10-error:    total        iterations:
           time      wfs    density  energy       fermi  poisson
iter:   1  10:57:14          +inf  -182.792680    2      4
iter:   2  10:57:15         -2.99  -182.792265    2      1
iter:   3  10:57:15         -3.08  -182.790695    2      1
iter:   4  10:57:16         -3.35  -182.790712    2      1
iter:   5  10:57:16         -3.69  -182.790246    2      1
iter:   6  10:57:17         -3.76  -182.790335    2      1
iter:   7  10:57:17         -3.91  -182.790865    2      1
iter:   8  10:57:18         -3.61  -182.790224    2      1
iter:   9  10:57:18         -4.06  -182.790266    2      1

Converged after 9 iterations.

Dipole moment: (-1.422509, -0.441710, 0.202507) |e|*Ang

Energy contributions relative to reference atoms: (reference = -24663.074771)

Kinetic:       +110.985409
Potential:     -118.855422
External:        +0.000000
XC:            -177.867880
Entropy (-ST):   -0.087552
Local:           +2.991402
Free energy:   -182.834042
Extrapolated:  -182.790266

Fermi level: -4.00884

 Band  Eigenvalues  Occupancy
    0    -23.22641    2.00000
    1    -22.59403    2.00000
    2    -22.17405    2.00000
    3    -21.57192    2.00000
    4    -21.01086    2.00000
    5    -20.33831    2.00000
    6    -20.08818    2.00000
    7    -19.96907    2.00000
    8    -18.98336    2.00000
    9    -18.28836    2.00000
   10    -17.54855    2.00000
   11    -16.90254    2.00000
   12    -16.35424    2.00000
   13    -16.12949    2.00000
   14    -15.21687    2.00000
   15    -15.20157    2.00000
   16    -14.23592    2.00000
   17    -14.09873    2.00000
   18    -13.60276    2.00000
   19    -13.29462    2.00000
   20    -12.94195    2.00000
   21    -12.36212    2.00000
   22    -12.07260    2.00000
   23    -10.81782    2.00000
   24    -10.69242    2.00000
   25    -10.21731    2.00000
   26    -10.20233    2.00000
   27     -9.85363    2.00000
   28     -9.66982    2.00000
   29     -9.65486    2.00000
   30     -9.39591    2.00000
   31     -9.34324    2.00000
   32     -9.24854    2.00000
   33     -8.86308    2.00000
   34     -8.13197    2.00000
   35     -7.91725    2.00000
   36     -7.79611    2.00000
   37     -7.60072    2.00000
   38     -7.55571    2.00000
   39     -7.42100    2.00000
   40     -6.60271    2.00000
   41     -6.36235    2.00000
   42     -6.33516    2.00000
   43     -5.78000    2.00000
   44     -5.69730    2.00000
   45     -5.41003    2.00000
   46     -5.07273    1.99995
   47     -4.29065    1.88729
   48     -3.72591    0.11152
   49     -3.25450    0.00106
   50     -3.01323    0.00009
   51     -2.97278    0.00006
   52     -2.82761    0.00001
   53     -2.62258    0.00000
   54     -2.09406    0.00000
   55     -1.40889    0.00000
   56     -1.29928    0.00000
   57     -0.80812    0.00000
   58     -0.32329    0.00000
   59      0.46581    0.00000
[...]
   83      8.73115    0.00000
   84      8.93520    0.00000
   85      8.94667    0.00000
   86      9.02314    0.00000
   87      9.26923    0.00000
   88      9.34427    0.00000
   89      9.40014    0.00000
   90      9.75274    0.00000
   91      9.78953    0.00000
   92      9.94112    0.00000
   93      9.98372    0.00000
   94     10.09538    0.00000
   95     10.19426    0.00000
   96     10.27081    0.00000
   97     10.41599    0.00000

Forces in eV/Ang:
  0 C    -0.07706    0.02513   -0.00089
  1 C     0.00284    0.01937   -0.00991
  2 C     0.03008    0.02532    0.04790
  3 C     0.02101    0.00892    0.03015
  4 C     0.05660    0.00146    0.04017
  5 C     0.04975   -0.01541    0.00273
  6 C    -0.03567   -0.01451    0.00084
  7 C    -0.00316    0.02931   -0.01125
  8 C    -0.01402    0.01044   -0.02144
  9 C     0.02828   -0.00922   -0.03931
 10 C     0.00617   -0.07107   -0.06776
 11 C     0.00900   -0.03921   -0.03689
 12 C    -0.01395   -0.03753   -0.03927
 13 C    -0.00541   -0.00408   -0.01854
 14 C     0.02915   -0.04340    0.05168
 15 C     0.01012    0.00242   -0.01558
 16 C     0.01310   -0.02008    0.03886
 17 C     0.00195    0.02166    0.00585
 18 C    -0.04243   -0.02163    0.01785
 19 C     0.04241    0.01447   -0.04618
 20 C    -0.01695    0.00802   -0.02293
 21 C     0.02353    0.03914   -0.03728
 22 C    -0.04145    0.05723    0.00070
 23 C    -0.02231    0.02895   -0.00542