User:   esb@s65n14.grendel.cscaa.dk
Date:   Thu Nov  9 09:42:33 2017
Arch:   x86_64
Pid:    29386
Python: 2.7.13
gpaw:   /home/esb/DFT/gpaw_git/gpaw
_gpaw:  /home/esb/DFT/gpaw_git/build/bin.linux-x86_64-2.7/gpaw-python
ase:    /home/esb/DFT/ase_git/ase (version 3.15.0b1)
numpy:  /comm/swstack/core/python/2.7.13/lib/python2.7/site-packages/numpy (version 1.13.3)
scipy:  /comm/swstack/core/python/2.7.13/lib/python2.7/site-packages/scipy (version 0.19.1)
units:  Angstrom and eV
cores:  16
Extra parameters: {'blacs': True}

Input parameters:
  basis: dzp
  gpts: [80 80 48]
  kpts: [1 1 1]
  maxiter: 99
  mixer: {backend: pulay,
          beta: 0.05,
          method: separate,
          nmaxold: 5,
          weight: 75}
  mode: lcao
  nbands: -50
  occupations: {name: fermi-dirac,
                width: 0.1}
  poissonsolver: {eps: 1e-07,
                  name: fd,
                  nn: 3,
                  relax: GS}
  xc: PBE

System changes: positions, numbers, cell, pbc, initial_charges, initial_magmoms

Initialize ...

C-setup:
  name: Carbon
  id: 4aa54d4b901d75f77cc0ea3eec22967b
  Z: 6
  valence: 4
  core: 2
  charge: 0.0
  file: /home/esb/DFT/gpaw-setups-0.8.7929/C.PBE.gz
  cutoffs: 0.64(comp), 1.14(filt), 1.14(core), lmax=2
  valence states:
                energy  radius
    2s(2.00)   -13.751   0.635
    2p(2.00)    -5.284   0.635
    *s          13.461   0.635
    *p          21.927   0.635
    *d           0.000   0.635

  LCAO basis set for C:
    Name: dzp
    File: /home/esb/DFT/gpaw-setups-0.8.7929/C.dzp.basis.gz
    Number of radial functions: 5
    Number of spherical harmonics: 13
      l=0, rc=5.5469 Bohr: 2s-sz confined orbital
      l=1, rc=6.6719 Bohr: 2p-sz confined orbital
      l=0, rc=3.0312 Bohr: 2s-dz split-valence wave
      l=1, rc=3.7500 Bohr: 2p-dz split-valence wave
      l=2, rc=6.6719 Bohr: d-type Gaussian polarization

Reference energy: -24663.074771

Spin-paired calculation

Occupation numbers:
  Fermi-Dirac: width=0.1000 eV

Convergence criteria:
  Maximum total energy change: 0.0005 eV / electron
  Maximum integral of absolute density change: 0.0001 electrons
  Maximum integral of absolute eigenstate change: 4e-08 eV^2
  Maximum number of iterations: 99

Symmetries present (total): 1

  ( 1  0  0)
  ( 0  1  0)
  ( 0  0  1)

1 k-point (Gamma)
1 k-point in the irreducible part of the Brillouin zone
       k-points in crystal coordinates                weights
   0:     0.00000000    0.00000000    0.00000000          1/1

Wave functions: LCAO
  Diagonalizer: Serial LAPACK
  Atomic Correction: dense with blas
  Datatype: float
  Eigensolver: None

LCAO using direct dense diagonalizer

Densities:
  Coarse grid: 80*80*48 grid
  Fine grid: 160*160*96 grid
  Total Charge: 0.000000

Density mixing:
  Method: separate
  Backend: pulay
  Linear mixing parameter: 0.05
  Mixing with 5 old densities
  Damping of long wave oscillations: 75

Hamiltonian:
  XC and Coulomb potentials evaluated on a 160*160*96 grid
  Using the PBE Exchange-Correlation functional
  Interpolation: tri-quintic (5. degree polynomial)
  Poisson solver: Gauss-Seidel solver with 6 multi-grid levels
    Coarsest grid: 5 x 5 x 3 points
    Stencil: 6*3+1=19 point O(h^6) finite-difference Laplacian
    Max iterations: 1000
    Tolerance: 1.000000e-07

Total number of cores used: 16
Domain decomposition: 2 x 4 x 2

Number of atoms: 24
Number of atomic orbitals: 312
Number of bands in calculation: 98
Bands to converge: occupied states only
Number of valence electrons: 96

... initialized

Initializing position-dependent things.

Density initialized from atomic densities
  /        |    C   C                             |
 *         |   C      C   CC    C                 |
 |         |    C   CC      C   C                 |
 |         .---C---------C-------C----------------.
 |        /     C   C   C        C               /
 |       /         C C  C   C  C                /

Positions:
   0 C      6.416642    5.116293    4.848747
   1 C     10.411743    8.224185    4.590560
   2 C      7.862051    5.373453    4.735827
   3 C     10.952966    4.740367    4.385995
   4 C      8.973515    7.857468    4.765100
   5 C      8.537420    4.075329    4.618014
   6 C      7.418139    3.133528    4.660842
   7 C      9.920320    4.012459    4.481606
   8 C      6.268980    3.692731    4.791019
   9 C     11.501752    5.963904    4.353978
  10 C     10.354348    9.664102    4.630652
  11 C     11.354136    7.221803    4.406927
  12 C      8.068162    6.783381    4.793334
  13 C      7.542893    9.869872    5.235887
  14 C      6.137732    9.716225    5.199606
  15 C      8.440453    8.796738    5.204355
  16 C      5.201002   10.769288    5.312406
  17 C      6.477698    7.297524    5.037187
  18 C      3.317535    9.297087    4.984931
  19 C      4.691221    5.820668    4.772904
  20 C      3.655056   10.526712    5.205723
  21 C      4.085121    8.132894    4.915837
  22 C      5.581144    8.362841    5.044109
  23 C      3.836267    6.758679    4.761986

Unit cell:
           periodic     x           y           z      points  spacing
  1. axis:    yes   16.000000    0.000000    0.000000    80     0.2000
  2. axis:    yes    0.000000   16.000000    0.000000    80     0.2000
  3. axis:    yes    0.000000    0.000000   10.000000    48     0.2083

Effective grid spacing dv^(1/3) = 0.2027

                     log10-error:    total        iterations:
           time      wfs    density  energy       fermi  poisson
iter:   1  09:42:35          +inf  -174.536008    2      6
iter:   2  09:42:35         -0.92  -173.598453    3      3
iter:   3  09:42:36         -0.95  -170.882735    32     4
iter:   4  09:42:37         -1.15  -170.383041    3      3
iter:   5  09:42:37         -1.26  -170.160336    32     3
iter:   6  09:42:38         -1.49  -170.131687    3      3
iter:   7  09:42:38         -1.64  -170.102875    3      3
iter:   8  09:42:39         -1.79  -170.087132    3      3
iter:   9  09:42:39         -1.90  -170.060009    3      2
iter:  10  09:42:40         -2.12  -170.051007    3      2
iter:  11  09:42:40         -2.27  -170.047872    3      2
iter:  12  09:42:41         -2.45  -170.038346    3      2
iter:  13  09:42:41         -2.65  -170.036145    2      2
iter:  14  09:42:42         -2.80  -170.035019    2      2
iter:  15  09:42:42         -3.04  -170.028358    2      1
iter:  16  09:42:43         -3.16  -170.029631    2      1
iter:  17  09:42:43         -3.26  -170.034902    2      1
iter:  18  09:42:44         -3.32  -170.037397    2      1
iter:  19  09:42:44         -3.42  -170.038413    2      1
iter:  20  09:42:45         -3.48  -170.039037    2      1
iter:  21  09:42:45         -3.56  -170.038426    2      1
iter:  22  09:42:45         -3.77  -170.037347    2      1
iter:  23  09:42:46         -3.95  -170.035974    2      1
iter:  24  09:42:46         -4.00  -170.036775    2      1

Converged after 24 iterations.

Dipole moment: (0.197681, -0.226571, 0.014621) |e|*Ang

Energy contributions relative to reference atoms: (reference = -24663.074771)

Kinetic:       +105.008601
Potential:     -109.596005
External:        +0.000000
XC:            -168.315226
Entropy (-ST):   -0.253831
Local:           +2.992770
Free energy:   -170.163691
Extrapolated:  -170.036775

Fermi level: -4.41324

 Band  Eigenvalues  Occupancy
    0    -23.32595    2.00000
    1    -22.16052    2.00000
    2    -21.91266    2.00000
    3    -20.62834    2.00000
    4    -20.12749    2.00000
    5    -19.89266    2.00000
    6    -19.56123    2.00000
    7    -19.23850    2.00000
    8    -18.35362    2.00000
    9    -17.75175    2.00000
   10    -17.34728    2.00000
   11    -17.14833    2.00000
   12    -16.52596    2.00000
   13    -15.91229    2.00000
   14    -15.35890    2.00000
   15    -14.34170    2.00000
   16    -14.00201    2.00000
   17    -13.57911    2.00000
   18    -13.34297    2.00000
   19    -13.04926    2.00000
   20    -13.00907    2.00000
   21    -12.11536    2.00000
   22    -12.04228    2.00000
   23    -11.62714    2.00000
   24    -10.82860    2.00000
   25    -10.78633    2.00000
   26    -10.37393    2.00000
   27     -9.82470    2.00000
   28     -9.74311    2.00000
   29     -9.65794    2.00000
   30     -9.50139    2.00000
   31     -8.90886    2.00000
   32     -8.52920    2.00000
   33     -8.08210    2.00000
   34     -7.57407    2.00000
   35     -7.35803    2.00000
   36     -7.27025    2.00000
   37     -7.16615    2.00000
   38     -6.97424    2.00000
   39     -6.57505    2.00000
   40     -6.49394    2.00000
   41     -6.15671    2.00000
   42     -5.73262    2.00000
   43     -5.72165    2.00000
   44     -5.53510    1.99997
   45     -4.96679    1.99214
   46     -4.79427    1.95668
   47     -4.56074    1.62763
   48     -4.25652    0.34523
   49     -4.05980    0.05670
   50     -3.90638    0.01250
   51     -3.85707    0.00766
   52     -3.69293    0.00149
   53     -3.02976    0.00000
   54     -2.73185    0.00000
   55     -2.39588    0.00000
   56     -1.84259    0.00000
   57     -1.37776    0.00000
   58     -1.30586    0.00000
   59     -0.93351    0.00000
[...]
   83      8.84454    0.00000
   84      9.00975    0.00000
   85      9.21706    0.00000
   86      9.27130    0.00000
   87      9.39062    0.00000
   88      9.50397    0.00000
   89      9.54396    0.00000
   90      9.58876    0.00000
   91      9.73937    0.00000
   92      9.83884    0.00000
   93      9.98001    0.00000
   94     10.04180    0.00000
   95     10.20294    0.00000
   96     10.26981    0.00000
   97     10.39918    0.00000

Forces in eV/Ang:
  0 C    -5.61755   -0.47368   -0.02785
  1 C     0.72225    1.47397   -0.60204
  2 C    -0.91919    1.31876   -0.21393
  3 C    -0.30273   -0.20793    0.06033
  4 C     8.92529  -13.38545   -5.40072
  5 C    -0.34881   -1.00490   -0.13065
  6 C     0.85184    0.31408    0.10663
  7 C     0.23913    0.17253   -0.05931
  8 C     0.83525   -0.34448    0.11884
  9 C     0.16677    0.57792    0.01645
 10 C     0.09353   -1.92854    0.09256
 11 C     0.50108   -0.98187   -0.09768
 12 C    -4.34408   -0.52507    0.10489
 13 C     2.81382   -4.42804    0.24877
 14 C    -0.61660    1.50539    0.46866
 15 C   -11.94879   20.86361    6.15699
 16 C    -4.19752   -0.08872   -0.49182
 17 C     2.33771   -0.65634   -0.62291
 18 C     1.38432    0.40326    0.25686
 19 C     4.32853   -1.18511   -0.13412
 20 C     4.16351    0.25807    0.23270
 21 C    -0.13346   -0.53116    0.07045
 22 C     1.05391   -0.95590   -0.04018
 23 C     0.00291   -0.22817   -0.11654

System changes: positions

[...]

Density initialized from wave functions
  /        |     C  C                             |
 *         |   C      C   CC    C                 |
 |         |    C   CC      C   C                 |
 |         .---C---------C-------C----------------.
 |        /     C   C   C        C               /
 |       /         C C  C   C  C                /

[...]

Density initialized from wave functions
  /        |     C  C                             |
 *         |   C      C   CC    C                 |
 |         |    C   CC      C   C                 |
 |         .---C---------C-------C----------------.
 |        /     C   C  C         C               /
 |       /         C C  C   C  C                /

[...]

Density initialized from wave functions
  /        |     C  C                             |
 *         |   C      C  C C    C                 |
 |         |    C   CC      C   C                 |
 |         .---C---------C-------C----------------.
 |        /     C   C  C         C               /
 |       /         C C  C   C  C                /

[...]

Density initialized from wave functions
  /        |     C  C                             |
 *         |   C      C  C C    C                 |
 |         |    C   CC      C   C                 |
 |         .---C---------C-------C----------------.
 |        /     C  C   C         C               /
 |       /         C C  C   C  C                /

[...]

Density initialized from wave functions
  /        |     C  C                             |
 *         |   C      C  C C    C                 |
 |         |    C   C C     C   C                 |
 |         .---C---------C-------C----------------.
 |        /      C C   C         C               /
 |       /         C C  C   C  C                /

[...]

Density initialized from wave functions
  /        |     C  C                             |
 *         |   C      C  C C    C                 |
 |         |    C   C C     C   C                 |
 |         .---C---------C-------C----------------.
 |        /      C C   C         C               /
 |       /         C C  C   C  C                /

[...]

Density initialized from wave functions
  /        |     C  C                             |
 *         |   C      C  C C    C                 |
 |         |    C   C C     C   C                 |
 |         .---C--------C--------C----------------.
 |        /      C C   C         C               /
 |       /         C C  C   C  C                /

[...]

Density initialized from wave functions
  /        |     C  C                             |
 *         |   C      C  C  C   C                 |
 |         |    C   C C     C  C                  |
 |         .---C--------C--------C----------------.
 |        /      C C   C         C               /
 |       /        C  C  C   C  C                /

[...]

Density initialized from wave functions
  /        |     C  C                             |
 *         |   C      C  C  C   C                 |
 |         |    C   CC      C  C                  |
 |         .---C-C------C--------C----------------.
 |        /        C   C         C               /
 |       /        C  C  C   C  C                /

[...]

Density initialized from wave functions
  /        |     C  C                             |
 *         |   C      C  C  C   C                 |
 |         |    C   CC      C  C                  |
 |         .---C--C-----C--------C----------------.
 |        /        C   C         C               /
 |       /        C  C  C   C  C                /

[...]

Density initialized from wave functions
  /        |     C  C                             |
 *         |   C      C  C  C   C                 |
 |         |    C   CC      C  C                  |
 |         .---C--C-----C--------C----------------.
 |        /        C   C         C               /
 |       /        C  C  C   C  C                /

[...]

Density initialized from wave functions
  /        |     C  C                             |
 *         |   C      C  C  C   C                 |
 |         |    C   C       C  C                  |
 |         .---C--C--C--C--------C----------------.
 |        /        C   C         C               /
 |       /        C  C  C   C  C                /

[...]

Density initialized from wave functions
  /        |     C  C    C                        |
 *         |   C      C     C   C                 |
 |         |    C   C       C  C                  |
 |         .---C--C--C--C--------C----------------.
 |        /        C   C         C               /
 |       /        C  C  C  C   C                /

[...]

Density initialized from wave functions
  /        |     C  C    C                        |
 *         |   C      C     C   C                 |
 |         |    C   C      C   C                  |
 |         .---C--C--C--C--------C----------------.
 |        /        C   C         C               /
 |       /        C  C  C   C  C                /

[...]

Density initialized from wave functions
  /        |     C  C                             |
 *         |   C      C  C  C  C                  |
 |         |    C   C      C   C                  |
 |         .---C--C--C--C--------C----------------.
 |        /        C   C         C               /
 |       /        C  C  C  C   C                /

[...]

Density initialized from wave functions
  /        |     C  C                             |
 *         |   C      C  C  C                     |
 |         |    C   C      C   C                  |
 |         .---C--C--C--C--------C----------------.
 |        /        C   C         C               /
 |       /        C  C  C  C   C                /

[...]

Density initialized from wave functions
  /        |     C  C                             |
 *         |   C      C  C  C                     |
 |         |    C   C       C  C                  |
 |         .---C--C--C--C--------C----------------.
 |        /        C   C         C               /
 |       /        C  C  C  C   C                /

[...]

Density initialized from wave functions
  /        |     C  C                             |
 *         |   C      C  C  C                     |
 |         |    C   C       C  C                  |
 |         .---C--C--C--C--------C----------------.
 |        /        C   C         C               /
 |       /        C     C  C   C                /
 |      /            C                         /

[...]

System changes: positions

Initializing position-dependent things.

Density initialized from wave functions
  /        |     C  C                             |
 *         |   C      C  C  C                     |
 |         |    C   C       C  C                  |
 |         .---C--C--C--C--------C----------------.
 |        /        C   C         C               /
 |       /        C     C   C  C                /
 |      /            C                         /

Positions:
   0 C      6.246617    5.030645    4.722761
   1 C     10.330484    8.046128    4.785565
   2 C      7.701818    5.411454    4.687324
   3 C     10.934352    4.696920    4.465505
   4 C      8.871358    7.835257    4.977135
   5 C      8.449813    4.162420    4.538570
   6 C      7.380978    3.132898    4.467163
   7 C      9.826776    4.088167    4.471550
   8 C      6.204853    3.584518    4.639373
   9 C     11.567912    5.874886    4.566379
  10 C      9.969454    9.363366    4.364255
  11 C     11.336729    7.119136    4.604440
  12 C      7.818379    6.867443    4.773497
  13 C      7.456704    9.980274    5.090603
  14 C      6.076898    9.902009    5.163379
  15 C      8.586394    9.295970    4.928602
  16 C      5.030204   10.896936    5.347008
  17 C      6.438127    7.320059    4.845028
  18 C      3.238163    9.102110    5.174334
  19 C      5.474320    6.184147    4.805230
  20 C      3.902239   10.227638    5.379331
  21 C      4.168781    8.060085    4.995176
  22 C      5.666309    8.492544    4.964239
  23 C      4.122832    6.634122    4.911398

Unit cell:
           periodic     x           y           z      points  spacing
  1. axis:    yes   16.000000    0.000000    0.000000    80     0.2000
  2. axis:    yes    0.000000   16.000000    0.000000    80     0.2000
  3. axis:    yes    0.000000    0.000000   10.000000    48     0.2083

Effective grid spacing dv^(1/3) = 0.2027

                     log10-error:    total        iterations:
           time      wfs    density  energy       fermi  poisson
iter:   1  09:50:24          +inf  -181.073643    2      5
iter:   2  09:50:24         -3.14  -181.073871    2      1
iter:   3  09:50:25         -3.20  -181.074296    2      1
iter:   4  09:50:25         -3.36  -181.074226    2      1
iter:   5  09:50:26         -3.49  -181.074285    2      1
iter:   6  09:50:26         -3.81  -181.073389    2      1
iter:   7  09:50:27         -3.97  -181.072433    2      1
iter:   8  09:50:27         -4.15  -181.072522    2      1

Converged after 8 iterations.

Dipole moment: (0.702049, -0.207409, 0.094962) |e|*Ang

Energy contributions relative to reference atoms: (reference = -24663.074771)

Kinetic:       +114.299950
Potential:     -121.130972
External:        +0.000000
XC:            -177.132094
Entropy (-ST):   -0.160011
Local:           +2.970598
Free energy:   -181.152528
Extrapolated:  -181.072522

Fermi level: -4.41150

 Band  Eigenvalues  Occupancy
    0    -23.18993    2.00000
    1    -22.68048    2.00000
    2    -22.03169    2.00000
    3    -21.06963    2.00000
    4    -20.59934    2.00000
    5    -20.14164    2.00000
    6    -19.60204    2.00000
    7    -19.34506    2.00000
    8    -18.44244    2.00000
    9    -18.21095    2.00000
   10    -17.55050    2.00000
   11    -16.89880    2.00000
   12    -16.56482    2.00000
   13    -16.24619    2.00000
   14    -15.31849    2.00000
   15    -14.96676    2.00000
   16    -14.39801    2.00000
   17    -13.62756    2.00000
   18    -13.15084    2.00000
   19    -13.08031    2.00000
   20    -12.58473    2.00000
   21    -12.02707    2.00000
   22    -11.71992    2.00000
   23    -11.22567    2.00000
   24    -10.79243    2.00000
   25    -10.73672    2.00000
   26    -10.56938    2.00000
   27    -10.10844    2.00000
   28    -10.04340    2.00000
   29     -9.78527    2.00000
   30     -9.71233    2.00000
   31     -9.43234    2.00000
   32     -9.04791    2.00000
   33     -8.97653    2.00000
   34     -8.54284    2.00000
   35     -8.34320    2.00000
   36     -7.76364    2.00000
   37     -7.36358    2.00000
   38     -7.01643    2.00000
   39     -6.86901    2.00000
   40     -6.30157    2.00000
   41     -6.22249    2.00000
   42     -6.01515    2.00000
   43     -5.50916    1.99997
   44     -5.38332    1.99988
   45     -5.24291    1.99951
   46     -4.77499    1.94858
   47     -4.66340    1.85093
   48     -4.14863    0.13463
   49     -4.05320    0.05408
   50     -3.87451    0.00927
   51     -3.76636    0.00315
   52     -3.00636    0.00000
   53     -2.50202    0.00000
   54     -2.24712    0.00000
   55     -2.03386    0.00000
   56     -1.59392    0.00000
   57     -1.17870    0.00000
   58     -0.37584    0.00000
   59      0.33855    0.00000
[...]
   83      8.76937    0.00000
   84      8.87498    0.00000
   85      9.02772    0.00000
   86      9.22002    0.00000
   87      9.31942    0.00000
   88      9.37272    0.00000
   89      9.57815    0.00000
   90      9.70143    0.00000
   91      9.77332    0.00000
   92      9.85397    0.00000
   93      9.90495    0.00000
   94     10.04472    0.00000
   95     10.20334    0.00000
   96     10.28031    0.00000
   97     10.47769    0.00000

Forces in eV/Ang:
  0 C     0.02618    0.00977    0.01066
  1 C     0.05594    0.03088   -0.04913
  2 C     0.01477    0.01649    0.01140
  3 C     0.01293   -0.00890    0.04808
  4 C     0.02689   -0.00670   -0.02035
  5 C     0.00964   -0.00137    0.02778
  6 C    -0.04438    0.00735   -0.04212
  7 C    -0.00789    0.01556    0.04756
  8 C    -0.03780   -0.01994   -0.02102
  9 C     0.00471    0.02734   -0.00875
 10 C     0.00604   -0.00136   -0.07738
 11 C    -0.01732   -0.03928    0.05033
 12 C    -0.03009    0.01989   -0.04157
 13 C     0.01599   -0.00299   -0.02219
 14 C     0.02044    0.01578    0.01686
 15 C    -0.03152    0.05936    0.03921
 16 C    -0.02604    0.01091    0.02702
 17 C    -0.03504   -0.02097   -0.01380
 18 C    -0.03693   -0.00022   -0.02421
 19 C     0.00458    0.01101   -0.00109
 20 C     0.03072   -0.03335    0.04506
 21 C    -0.00680    0.00737    0.00774
 22 C    -0.00380    0.00566    0.02092
 23 C     0.02567    0.05304    0.03096