User:   esb@s65n32.grendel.cscaa.dk
Date:   Thu Nov  9 09:22:32 2017
Arch:   x86_64
Pid:    21526
Python: 2.7.13
gpaw:   /home/esb/DFT/gpaw_git/gpaw
_gpaw:  /home/esb/DFT/gpaw_git/build/bin.linux-x86_64-2.7/gpaw-python
ase:    /home/esb/DFT/ase_git/ase (version 3.15.0b1)
numpy:  /comm/swstack/core/python/2.7.13/lib/python2.7/site-packages/numpy (version 1.13.3)
scipy:  /comm/swstack/core/python/2.7.13/lib/python2.7/site-packages/scipy (version 0.19.1)
units:  Angstrom and eV
cores:  16
Extra parameters: {'blacs': True}

Input parameters:
  basis: dzp
  gpts: [80 80 48]
  kpts: [1 1 1]
  maxiter: 99
  mixer: {backend: pulay,
          beta: 0.05,
          method: separate,
          nmaxold: 5,
          weight: 75}
  mode: lcao
  nbands: -50
  occupations: {name: fermi-dirac,
                width: 0.1}
  poissonsolver: {eps: 1e-07,
                  name: fd,
                  nn: 3,
                  relax: GS}
  xc: PBE

System changes: positions, numbers, cell, pbc, initial_charges, initial_magmoms

Initialize ...

C-setup:
  name: Carbon
  id: 4aa54d4b901d75f77cc0ea3eec22967b
  Z: 6
  valence: 4
  core: 2
  charge: 0.0
  file: /home/esb/DFT/gpaw-setups-0.8.7929/C.PBE.gz
  cutoffs: 0.64(comp), 1.14(filt), 1.14(core), lmax=2
  valence states:
                energy  radius
    2s(2.00)   -13.751   0.635
    2p(2.00)    -5.284   0.635
    *s          13.461   0.635
    *p          21.927   0.635
    *d           0.000   0.635

  LCAO basis set for C:
    Name: dzp
    File: /home/esb/DFT/gpaw-setups-0.8.7929/C.dzp.basis.gz
    Number of radial functions: 5
    Number of spherical harmonics: 13
      l=0, rc=5.5469 Bohr: 2s-sz confined orbital
      l=1, rc=6.6719 Bohr: 2p-sz confined orbital
      l=0, rc=3.0312 Bohr: 2s-dz split-valence wave
      l=1, rc=3.7500 Bohr: 2p-dz split-valence wave
      l=2, rc=6.6719 Bohr: d-type Gaussian polarization

Reference energy: -24663.074771

Spin-paired calculation

Occupation numbers:
  Fermi-Dirac: width=0.1000 eV

Convergence criteria:
  Maximum total energy change: 0.0005 eV / electron
  Maximum integral of absolute density change: 0.0001 electrons
  Maximum integral of absolute eigenstate change: 4e-08 eV^2
  Maximum number of iterations: 99

Symmetries present (total): 1

  ( 1  0  0)
  ( 0  1  0)
  ( 0  0  1)

1 k-point (Gamma)
1 k-point in the irreducible part of the Brillouin zone
       k-points in crystal coordinates                weights
   0:     0.00000000    0.00000000    0.00000000          1/1

Wave functions: LCAO
  Diagonalizer: Serial LAPACK
  Atomic Correction: dense with blas
  Datatype: float
  Eigensolver: None

LCAO using direct dense diagonalizer

Densities:
  Coarse grid: 80*80*48 grid
  Fine grid: 160*160*96 grid
  Total Charge: 0.000000

Density mixing:
  Method: separate
  Backend: pulay
  Linear mixing parameter: 0.05
  Mixing with 5 old densities
  Damping of long wave oscillations: 75

Hamiltonian:
  XC and Coulomb potentials evaluated on a 160*160*96 grid
  Using the PBE Exchange-Correlation functional
  Interpolation: tri-quintic (5. degree polynomial)
  Poisson solver: Gauss-Seidel solver with 6 multi-grid levels
    Coarsest grid: 5 x 5 x 3 points
    Stencil: 6*3+1=19 point O(h^6) finite-difference Laplacian
    Max iterations: 1000
    Tolerance: 1.000000e-07

Total number of cores used: 16
Domain decomposition: 2 x 4 x 2

Number of atoms: 24
Number of atomic orbitals: 312
Number of bands in calculation: 98
Bands to converge: occupied states only
Number of valence electrons: 96

... initialized

Initializing position-dependent things.

Density initialized from atomic densities
   /       |           C  C  C  C                 |
  /        |           C         C                |
 *         |  C C   C        C     C              |
 |         |         C   C                        |
 |         .---C---C-C---C-C----------------------.
 |        /         C     C        C             /
 |       /             C     C  C               /

Positions:
   0 C      9.289009    3.933811    5.174407
   1 C      9.501709    5.328032    5.187972
   2 C      5.495636    8.689150    5.818119
   3 C      3.537909    7.528178    5.687544
   4 C      6.375922    9.789677    5.940044
   5 C      5.833599    6.079579    5.484298
   6 C      8.244528    3.229307    5.229574
   7 C      7.778894    7.476540    5.450777
   8 C      4.474201    5.498887    5.461761
   9 C      8.217251    6.019402    5.321390
  10 C      6.313855    7.469667    5.597377
  11 C      6.950910    3.769821    5.309245
  12 C      4.071908    8.709465    5.847802
  13 C      7.010492    5.237664    5.381104
  14 C      6.276311   10.908919    5.587054
  15 C      9.287865    9.365081    5.503145
  16 C      9.703293   11.628251    5.229182
  17 C     11.548975    9.833653    4.779883
  18 C     10.302319   10.308830    5.187805
  19 C     12.283197    6.357552    4.098067
  20 C     10.319499    4.834904    4.514063
  21 C      7.207872   11.749818    5.506202
  22 C      8.526434   12.057310    5.365932
  23 C     11.499863    5.322866    4.208707

Unit cell:
           periodic     x           y           z      points  spacing
  1. axis:    yes   16.000000    0.000000    0.000000    80     0.2000
  2. axis:    yes    0.000000   16.000000    0.000000    80     0.2000
  3. axis:    yes    0.000000    0.000000   10.000000    48     0.2083

Effective grid spacing dv^(1/3) = 0.2027

                     log10-error:    total        iterations:
           time      wfs    density  energy       fermi  poisson
iter:   1  09:22:34          +inf  -168.655752    3      6
iter:   2  09:22:35         -0.86  -166.894135    4      3
iter:   3  09:22:35         -0.90  -164.841467    3      3
iter:   4  09:22:36         -0.98  -163.894149    28     3
iter:   5  09:22:36         -1.11  -163.201463    4      2
iter:   6  09:22:37         -1.17  -162.571328    35     3
iter:   7  09:22:37         -1.46  -162.486448    3      3
iter:   8  09:22:38         -1.56  -162.443287    3      3
iter:   9  09:22:38         -1.72  -162.408991    4      3
iter:  10  09:22:39         -1.91  -162.392911    3      2
iter:  11  09:22:39         -2.03  -162.383448    4      2
iter:  12  09:22:40         -2.20  -162.377659    4      2
iter:  13  09:22:40         -2.48  -162.370444    3      2
iter:  14  09:22:41         -2.57  -162.368409    3      2
iter:  15  09:22:41         -2.72  -162.365799    3      2
iter:  16  09:22:42         -2.98  -162.365137    3      2
iter:  17  09:22:42         -3.16  -162.360573    3      1
iter:  18  09:22:43         -3.30  -162.359447    3      1
iter:  19  09:22:43         -3.55  -162.363687    2      1
iter:  20  09:22:44         -3.65  -162.363969    2      1
iter:  21  09:22:44         -3.73  -162.364741    2      1
iter:  22  09:22:45         -3.81  -162.365852    2      1
iter:  23  09:22:45         -3.89  -162.366599    2      1
iter:  24  09:22:46         -4.04  -162.366457    2      1

Converged after 24 iterations.

Dipole moment: (-0.046525, 0.447275, 0.234063) |e|*Ang

Energy contributions relative to reference atoms: (reference = -24663.074771)

Kinetic:       +132.392316
Potential:     -132.126412
External:        +0.000000
XC:            -165.390251
Entropy (-ST):   -0.381744
Local:           +2.948762
Free energy:   -162.557329
Extrapolated:  -162.366457

Fermi level: -4.92012

 Band  Eigenvalues  Occupancy
    0    -25.01556    2.00000
    1    -22.25860    2.00000
    2    -21.94098    2.00000
    3    -21.37440    2.00000
    4    -20.73427    2.00000
    5    -20.13921    2.00000
    6    -19.32818    2.00000
    7    -18.75603    2.00000
    8    -18.31490    2.00000
    9    -18.13566    2.00000
   10    -17.65813    2.00000
   11    -16.53877    2.00000
   12    -16.01138    2.00000
   13    -15.66397    2.00000
   14    -15.19307    2.00000
   15    -15.04283    2.00000
   16    -14.65722    2.00000
   17    -13.72924    2.00000
   18    -13.27462    2.00000
   19    -13.13708    2.00000
   20    -12.31272    2.00000
   21    -11.90891    2.00000
   22    -11.67741    2.00000
   23    -11.18876    2.00000
   24    -10.77077    2.00000
   25    -10.26068    2.00000
   26    -10.14653    2.00000
   27     -9.64771    2.00000
   28     -9.36236    2.00000
   29     -9.20667    2.00000
   30     -8.98253    2.00000
   31     -8.60521    2.00000
   32     -8.30221    2.00000
   33     -7.90737    2.00000
   34     -7.86773    2.00000
   35     -7.72748    2.00000
   36     -7.09379    2.00000
   37     -6.78637    2.00000
   38     -6.65792    2.00000
   39     -6.37880    2.00000
   40     -6.11207    1.99999
   41     -5.99452    1.99996
   42     -5.82284    1.99976
   43     -5.69100    1.99910
   44     -5.53531    1.99575
   45     -5.19419    1.87877
   46     -5.13974    1.79981
   47     -4.99742    1.36831
   48     -4.91088    0.95384
   49     -4.25846    0.00267
   50     -4.23010    0.00201
   51     -3.78835    0.00002
   52     -3.67103    0.00001
   53     -3.30631    0.00000
   54     -3.10490    0.00000
   55     -2.96597    0.00000
   56     -2.59677    0.00000
   57     -2.24706    0.00000
   58     -1.81920    0.00000
   59     -1.51536    0.00000
[...]
   83      8.45027    0.00000
   84      8.69186    0.00000
   85      8.78877    0.00000
   86      8.84246    0.00000
   87      9.04861    0.00000
   88      9.25250    0.00000
   89      9.44226    0.00000
   90      9.47935    0.00000
   91      9.57222    0.00000
   92      9.66370    0.00000
   93      9.68924    0.00000
   94      9.79421    0.00000
   95      9.86670    0.00000
   96     10.06214    0.00000
   97     10.23726    0.00000

Forces in eV/Ang:
  0 C     6.42424   -0.50029   -1.81098
  1 C   -18.02962    9.31066   10.41082
  2 C     2.14829   -1.47421    0.09246
  3 C     0.73132   -0.33085    0.05564
  4 C    -2.95962  -12.16708    2.75410
  5 C    -2.29976    0.03303    0.06898
  6 C    -7.77649    0.35273    0.76599
  7 C    -0.98960   -2.16787   -0.23348
  8 C     1.65083    2.78801    0.24603
  9 C     1.29471    2.73608    0.63316
 10 C     0.99807    0.38248    0.07150
 11 C     3.71356   -0.49825   -0.19474
 12 C     0.01115   -2.24040   -0.23151
 13 C    -1.26978   -1.99063   -0.05162
 14 C    -1.21565    9.92672   -2.17998
 15 C     0.12596   -1.48551    0.34673
 16 C     1.41081   -0.36986   -0.12042
 17 C    -0.85139   -0.90451    0.27252
 18 C     0.85174    0.62727   -0.45448
 19 C    -0.06079   -0.61189   -0.12246
 20 C    10.93722   -8.14103   -7.19761
 21 C     5.80128    5.12323   -1.21611
 22 C    -5.04308    0.28567    0.43938
 23 C     4.42780    1.24228   -2.30897

System changes: positions

[...]

Density initialized from wave functions
   /       |           C  C  C  C                 |
  /        |           C         C                |
 *         |  C C   C        C     C              |
 |         |         C   C                        |
 |         .---C---C-C---C-C----------------------.
 |        /         C     C        C             /
 |       /             C     C  C               /

[...]

Density initialized from wave functions
   /       |           C  C  C  C                 |
[...]
   /       |           C  C  C                    |
  /        |          C         CC                |
 *         |    C   CC        C C                 |
 |         |  CC   C     C                        |
 |         .---------C---C-C----------------------.
 |        /          C     C  C  C               /
 |       /             C            C           /

[...]

Density initialized from wave functions
   /       |           C  C  C                    |
  /        |          C         CC                |
 *         |    C   CC       C  C                 |
 |         |   C   C     C                        |
 |         .---------C---C-C----------------------.
 |        /          C     C  C  C               /
 |       /             C            C           /

[...]

Density initialized from wave functions
   /       |           C  C  C                    |
  /        |          C         CC                |
 *         |    C   CC       C C                  |
 |         |   CC  C     C                        |
 |         .---------C---C-C----------------------.
 |        /          C     C  C  C               /
 |       /             C            C           /

[...]

Density initialized from wave functions
   /       |           C  C  C                    |
  /        |          C         CC                |
 *         |    C   CC       C C                  |
 |         |   C   C     C                        |
 |         .----C----C---C-C----------------------.
 |        /          C     C  C  C               /
 |       /             C            C           /

[...]

Density initialized from wave functions
   /       |           C  C  C                    |
  /        |          C         CC                |
 *         |    C   C C      C C                  |
 |         |   C   C     C                        |
 |         .----C----C---C-C----------------------.
 |        /          C     C  C  C               /
 |       /             C            C           /

[...]

Density initialized from wave functions
   /       |            C C   C                   |
  /        |          C         CC                |
 *         |    C   C C     C  C                  |
 |         |   C   C     C                        |
 |         .----C----C---C-C----------------------.
 |        /          C     C  C  C               /
 |       /             C            C           /

[...]

Density initialized from wave functions
   /       |            C C   C                   |
  /        |          C         CC                |
 *         |    C   CC      C  C                  |
 |         |   C   C     C                        |
 |         .----C----C---C-C----------------------.
 |        /          C     C  C  C               /
 |       /             C            C           /

[...]

Density initialized from wave functions
   /       |            C  C  C                   |
  /        |          C         C                 |
 *         |    C   CC      C  C                  |
 |         |   C   C     C                        |
 |         .----C----C---C-C----------------------.
 |        /          C     C  C  C               /
 |       /             C            C           /

[...]

Density initialized from wave functions
   /       |            C  C  C                   |
  /        |          C         C                 |
 *         |    C   CC      C  C                  |
 |         |   C   C     C                        |
 |         .----C----C---C-C----------------------.
 |        /          C     C  C                  /
 |       /             C         C  C           /

[...]

Density initialized from wave functions
   /       |            C  C  C                   |
  /        |          C         C                 |
 *         |    C   C       C  C                  |
 |         |   C   C C   C                        |
 |         .----C----C---C-C----------------------.
 |        /          C     C  C                  /
 |       /             C         C  C           /

[...]

Density initialized from wave functions
   /       |            C  C  C                   |
  /        |          C         C                 |
 *         |    C   C       C  C                  |
 |         |   C   C C   C                        |
 |         .----C----C---C-C----------------------.
 |        /          C     C  C                  /
 |       /             C         C  C           /

[...]

Density initialized from wave functions
   /       |            C  C  C                   |
  /        |          C         C                 |
 *         |    C   CC      C  C                  |
 |         |   C   C     C                        |
 |         .----C----C---C-C----------------------.
 |        /          C     C  C                  /
 |       /             C         C  C           /

[...]

Density initialized from wave functions
   /       |            C  C  C                   |
  /        |          C         C                 |
 *         |    C   CC      C  C                  |
 |         |   CC  C     C                        |
 |         .---------C---C-C----------------------.
 |        /          C     C  C                  /
 |       /             C         C  C           /

[...]

Density initialized from wave functions
   /       |            C  C  C                   |
  /        |          C         C                 |
 *         |    C   CC      C C                   |
 |         |   CC  C     C                        |
 |         .---------C---C-C----------------------.
 |        /          C     C  C                  /
 |       /             C         C  C           /

[...]

Density initialized from wave functions
   /       |            C  C  C C                 |
  /        |          C         C                 |
 *         |    C   CC      C C                   |
 |         |   CC  C     C                        |
 |         .---------C---C-C----------------------.
 |        /          C     C  C                  /
 |       /             C         C  C           /

[...]

Density initialized from wave functions
   /       |           C   C  C C                 |
  /        |          C          C                |
 *         |    C   CC      C  C                  |
 |         |   CC  C     C                        |
 |         .---------C---C-C----------------------.
 |        /          C     C  C                  /
 |       /             C         C  C           /

[...]

Density initialized from wave functions
   /       |           C   C  C C                 |
  /        |          C          C                |
 *         |   CC   CC      C  C                  |
 |         |    C  C     C                        |
 |         .---------C---C-C----------------------.
 |        /          C     C  C                  /
 |       /             C         C  C           /

[...]

Density initialized from wave functions
   /       |           C  C   C C                 |
  /        |          C          C                |
 *         |   CC   CC      C  C                  |
 |         |    C  C     C                        |
 |         .---------C---C-C----------------------.
 |        /          C     C  C                  /
 |       /             C         C  C           /

[...]

Density initialized from wave functions
   /       |           C  C   C C                 |
  /        |          C          C                |
 *         |   CC   CC      C  C                  |
 |         |    C  C     C                        |
 |         .---------C---C--C---------------------.
 |        /          C        C                  /
 |       /             C   C     C  C           /

[...]

Density initialized from wave functions
   /       |           C  C   C C                 |
  /        |          C          C                |
 *         |   CC   CC      C  C                  |
 |         |    C  C     C                        |
 |         .---------C---C--C---------------------.
 |        /          C        C                  /
 |       /             C   C     C  C           /

[...]

Density initialized from wave functions
   /       |           C  C   C C                 |
  /        |          C          C                |
 *         |   CC   CC      C  C                  |
 |         |    C  C     C                        |
 |         .----------C--C--C---------------------.
 |        /          C        C                  /
 |       /             C   C     C  C           /

[...]

Density initialized from wave functions
   /       |           C  C   C C                 |
  /        |          C          C                |
 *         |   CC   CC      C  C                  |
 |         |    C  C     C                        |
 |         .----------C--C--C---------------------.
 |        /          C        C                  /
 |       /             C   C     C  C           /

[...]

Density initialized from wave functions
   /       |           C  C   C C                 |
  /        |          C          C                |
 *         |   CC   C C     C  C                  |
 |         |    C  C     C                        |
 |         .----------C--C--C---------------------.
 |        /          C        C                  /
 |       /             C   C     C  C           /

[...]

Density initialized from wave functions
   /       |           C  C   C C                 |
  /        |          C          C                |
 *         |   CC   C C     C  C                  |
 |         |    C  C     C                        |
 |         .----------C--C------------------------.
 |        /          C      C C                  /
 |       /             C   C     C  C           /

[...]

Density initialized from wave functions
   /       |           C  C   C C                 |
  /        |          C          C                |
 *         |   CC   C C     C  C                  |
 |         |    C  C     C                        |
 |         .----------C--C------------------------.
 |        /          C      C C                  /
 |       /              C  C     C  C           /

[...]

Density initialized from wave functions
   /       |           C  C   C C                 |
  /        |          C          C                |
 *         |   CC   C       C  C                  |
 |         |    C  C  C  C                        |
 |         .----------C--C------------------------.
 |        /          C      C C                  /
 |       /              C  C     C  C           /

[...]

System changes: positions

Initializing position-dependent things.

Density initialized from wave functions
   /       |           C  C   C C                 |
  /        |          C          C                |
 *         |   CC   C       C  C                  |
 |         |    C  C  C  C                        |
 |         .----------C--C------------------------.
 |        /          C      C C                  /
 |       /             C   C     C  C           /

Positions:
   0 C      9.576515    3.967644    4.963178
   1 C      9.491567    5.419397    5.030101
   2 C      5.543904    8.714103    5.722714
   3 C      4.024550    7.145252    5.971754
   4 C      5.932908   10.058290    5.632902
   5 C      5.967590    6.224040    5.694337
   6 C      8.365044    3.365716    5.199722
   7 C      7.933877    7.503039    5.402040
   8 C      4.582266    5.946560    5.915150
   9 C      8.298571    6.086991    5.296567
  10 C      6.483215    7.585398    5.610253
  11 C      7.229189    3.900178    5.444787
  12 C      4.123443    8.451992    5.924661
  13 C      7.073334    5.296509    5.505956
  14 C      6.334663   11.254187    5.554535
  15 C      8.872877    8.520441    5.339637
  16 C      9.583912   11.847302    5.291765
  17 C      9.676246    9.489716    5.288418
  18 C     10.221956   10.740274    5.254606
  19 C     13.275693    4.907376    3.952433
  20 C     10.730187    4.758786    4.685328
  21 C      7.318400   12.150590    5.441767
  22 C      8.498237   12.652452    5.344949
  23 C     12.037506    4.848713    4.322488

Unit cell:
           periodic     x           y           z      points  spacing
  1. axis:    yes   16.000000    0.000000    0.000000    80     0.2000
  2. axis:    yes    0.000000   16.000000    0.000000    80     0.2000
  3. axis:    yes    0.000000    0.000000   10.000000    48     0.2083

Effective grid spacing dv^(1/3) = 0.2027

                     log10-error:    total        iterations:
           time      wfs    density  energy       fermi  poisson
iter:   1  09:38:16          +inf  -180.938511    2      4
iter:   2  09:38:17         -3.03  -180.938361    2      1
iter:   3  09:38:17         -3.12  -180.937238    2      1
iter:   4  09:38:18         -3.40  -180.937305    2      1
iter:   5  09:38:18         -3.52  -180.937289    2      1
iter:   6  09:38:19         -3.75  -180.937295    2      1
iter:   7  09:38:19         -3.89  -180.937668    2      1
iter:   8  09:38:20         -4.09  -180.937722    2      1

Converged after 8 iterations.

Dipole moment: (-0.917698, 1.040198, 0.296483) |e|*Ang

Energy contributions relative to reference atoms: (reference = -24663.074771)

Kinetic:       +107.058816
Potential:     -116.269082
External:        +0.000000
XC:            -174.646084
Entropy (-ST):   -0.208388
Local:           +3.022821
Free energy:   -181.041916
Extrapolated:  -180.937722

Fermi level: -4.60008

 Band  Eigenvalues  Occupancy
    0    -23.56250    2.00000
    1    -22.54032    2.00000
    2    -21.69540    2.00000
    3    -21.32912    2.00000
    4    -20.61692    2.00000
    5    -20.41819    2.00000
    6    -19.98153    2.00000
    7    -19.06360    2.00000
    8    -18.85818    2.00000
    9    -18.31183    2.00000
   10    -17.90899    2.00000
   11    -17.38691    2.00000
   12    -17.03466    2.00000
   13    -16.32670    2.00000
   14    -15.80208    2.00000
   15    -15.06752    2.00000
   16    -14.96707    2.00000
   17    -14.52559    2.00000
   18    -13.92949    2.00000
   19    -13.60797    2.00000
   20    -13.28215    2.00000
   21    -12.20886    2.00000
   22    -11.35986    2.00000
   23    -11.14542    2.00000
   24    -10.83950    2.00000
   25    -10.69434    2.00000
   26    -10.44295    2.00000
   27    -10.22200    2.00000
   28    -10.05693    2.00000
   29     -9.97599    2.00000
   30     -9.82859    2.00000
   31     -9.32306    2.00000
   32     -8.65594    2.00000
   33     -8.50589    2.00000
   34     -8.42009    2.00000
   35     -8.34086    2.00000
   36     -7.71335    2.00000
   37     -7.57385    2.00000
   38     -6.84939    2.00000
   39     -6.76607    2.00000
   40     -6.46361    2.00000
   41     -6.31726    2.00000
   42     -6.15161    2.00000
   43     -5.64903    1.99994
   44     -5.56649    1.99987
   45     -5.25464    1.99713
   46     -4.94577    1.93887
   47     -4.77473    1.70301
   48     -4.44877    0.36094
   49     -3.68372    0.00021
   50     -3.46357    0.00002
   51     -3.20469    0.00000
   52     -2.92088    0.00000
   53     -2.54869    0.00000
   54     -2.16134    0.00000
   55     -1.97166    0.00000
   56     -1.02169    0.00000
   57     -0.70837    0.00000
   58     -0.31187    0.00000
   59     -0.16634    0.00000
[...]
   83      8.46345    0.00000
   84      8.61050    0.00000
   85      8.78952    0.00000
   86      8.89617    0.00000
   87      9.13370    0.00000
   88      9.18657    0.00000
   89      9.19803    0.00000
   90      9.43185    0.00000
   91      9.62659    0.00000
   92      9.71575    0.00000
   93      9.79626    0.00000
   94      9.81793    0.00000
   95      9.94426    0.00000
   96     10.16015    0.00000
   97     10.17667    0.00000

Forces in eV/Ang:
  0 C     0.02711   -0.02377   -0.02212
  1 C    -0.07021    0.03343    0.04450
  2 C     0.00727   -0.00518   -0.00259
  3 C    -0.05597    0.07041   -0.01657
  4 C     0.00694   -0.06858   -0.00640
  5 C     0.01433    0.02294    0.02277
  6 C    -0.05458   -0.02660    0.01186
  7 C    -0.00367   -0.01839   -0.02707
  8 C     0.02267   -0.05047   -0.02192
  9 C     0.01317    0.00089    0.00454
 10 C     0.00674    0.01653    0.01346
 11 C     0.01768   -0.02520   -0.01500
 12 C    -0.02846    0.05298    0.02983
 13 C     0.00301   -0.00683   -0.01042
 14 C    -0.02111    0.04933    0.00149
 15 C     0.02923   -0.00951   -0.02969
 16 C    -0.00468   -0.01620   -0.02479
 17 C    -0.00867   -0.00852   -0.00147
 18 C    -0.01175    0.00021   -0.01452
 19 C    -0.02720    0.02219   -0.01270
 20 C     0.06162   -0.05440   -0.01587
 21 C     0.05631   -0.00901    0.03085
 22 C    -0.02168    0.01477    0.03243
 23 C     0.05568    0.01401    0.00723