User:   esb@s65n72.grendel.cscaa.dk
Date:   Wed Nov  8 17:09:53 2017
Arch:   x86_64
Pid:    98504
Python: 2.7.13
gpaw:   /home/esb/DFT/gpaw_git/gpaw
_gpaw:  /home/esb/DFT/gpaw_git/build/bin.linux-x86_64-2.7/gpaw-python
ase:    /home/esb/DFT/ase_git/ase (version 3.15.0b1)
numpy:  /comm/swstack/core/python/2.7.13/lib/python2.7/site-packages/numpy (version 1.13.3)
scipy:  /comm/swstack/core/python/2.7.13/lib/python2.7/site-packages/scipy (version 0.19.1)
units:  Angstrom and eV
cores:  16
Extra parameters: {'blacs': True}

Input parameters:
  basis: dzp
  gpts: [80 80 48]
  kpts: [1 1 1]
  maxiter: 99
  mixer: {backend: pulay,
          beta: 0.05,
          method: separate,
          nmaxold: 5,
          weight: 75}
  mode: lcao
  nbands: -50
  occupations: {name: fermi-dirac,
                width: 0.1}
  poissonsolver: {eps: 1e-07,
                  name: fd,
                  nn: 3,
                  relax: GS}
  xc: PBE

System changes: positions, numbers, cell, pbc, initial_charges, initial_magmoms

Initialize ...

C-setup:
  name: Carbon
  id: 4aa54d4b901d75f77cc0ea3eec22967b
  Z: 6
  valence: 4
  core: 2
  charge: 0.0
  file: /home/esb/DFT/gpaw-setups-0.8.7929/C.PBE.gz
  cutoffs: 0.64(comp), 1.14(filt), 1.14(core), lmax=2
  valence states:
                energy  radius
    2s(2.00)   -13.751   0.635
    2p(2.00)    -5.284   0.635
    *s          13.461   0.635
    *p          21.927   0.635
    *d           0.000   0.635

  LCAO basis set for C:
    Name: dzp
    File: /home/esb/DFT/gpaw-setups-0.8.7929/C.dzp.basis.gz
    Number of radial functions: 5
    Number of spherical harmonics: 13
      l=0, rc=5.5469 Bohr: 2s-sz confined orbital
      l=1, rc=6.6719 Bohr: 2p-sz confined orbital
      l=0, rc=3.0312 Bohr: 2s-dz split-valence wave
      l=1, rc=3.7500 Bohr: 2p-dz split-valence wave
      l=2, rc=6.6719 Bohr: d-type Gaussian polarization

Reference energy: -24663.074771

Spin-paired calculation

Occupation numbers:
  Fermi-Dirac: width=0.1000 eV

Convergence criteria:
  Maximum total energy change: 0.0005 eV / electron
  Maximum integral of absolute density change: 0.0001 electrons
  Maximum integral of absolute eigenstate change: 4e-08 eV^2
  Maximum number of iterations: 99

Symmetries present (total): 1

  ( 1  0  0)
  ( 0  1  0)
  ( 0  0  1)

1 k-point (Gamma)
1 k-point in the irreducible part of the Brillouin zone
       k-points in crystal coordinates                weights
   0:     0.00000000    0.00000000    0.00000000          1/1

Wave functions: LCAO
  Diagonalizer: Serial LAPACK
  Atomic Correction: dense with blas
  Datatype: float
  Eigensolver: None

LCAO using direct dense diagonalizer

Densities:
  Coarse grid: 80*80*48 grid
  Fine grid: 160*160*96 grid
  Total Charge: 0.000000

Density mixing:
  Method: separate
  Backend: pulay
  Linear mixing parameter: 0.05
  Mixing with 5 old densities
  Damping of long wave oscillations: 75

Hamiltonian:
  XC and Coulomb potentials evaluated on a 160*160*96 grid
  Using the PBE Exchange-Correlation functional
  Interpolation: tri-quintic (5. degree polynomial)
  Poisson solver: Gauss-Seidel solver with 6 multi-grid levels
    Coarsest grid: 5 x 5 x 3 points
    Stencil: 6*3+1=19 point O(h^6) finite-difference Laplacian
    Max iterations: 1000
    Tolerance: 1.000000e-07

Total number of cores used: 16
Domain decomposition: 2 x 4 x 2

Number of atoms: 24
Number of atomic orbitals: 312
Number of bands in calculation: 98
Bands to converge: occupied states only
Number of valence electrons: 96

... initialized

Initializing position-dependent things.

Density initialized from atomic densities
  /        |          C C     C  C                |
 *         |      C C      C C     C              |
 |         |      C       C       C               |
 |         .-----C--C--C-----C-C---C--------------.
 |        /         C   C CC C                   /
 |       /          C                           /

Positions:
   0 C      6.209303    9.711669    5.849094
   1 C     12.064704    7.009948    5.090786
   2 C      5.986732    7.697312    6.106887
   3 C      7.976040    5.286059    4.767983
   4 C      9.054831    5.982747    4.522399
   5 C      6.542179    5.285819    4.384965
   6 C      6.612482   10.907152    4.779063
   7 C      4.761659    6.879339    4.508748
   8 C      6.020439    6.450618    5.135266
   9 C     11.369822    8.513174    4.554941
  10 C     10.421901   10.378804    5.188740
  11 C      8.981544    9.172410    5.471305
  12 C     10.351991    4.966336    4.940739
  13 C     10.814364    6.323872    5.012344
  14 C      9.776781    7.091201    4.960558
  15 C      9.242723   10.874408    4.785717
  16 C      6.318616    6.522791    3.217061
  17 C      4.712895    8.149683    5.275256
  18 C      7.870382    9.126750    4.720130
  19 C      7.097084    7.581277    4.224549
  20 C      7.910171   10.371894    4.735445
  21 C      9.171731    4.515423    4.816799
  22 C     11.575147    9.549582    5.005885
  23 C      4.427046    9.766205    4.787234

Unit cell:
           periodic     x           y           z      points  spacing
  1. axis:    yes   16.000000    0.000000    0.000000    80     0.2000
  2. axis:    yes    0.000000   16.000000    0.000000    80     0.2000
  3. axis:    yes    0.000000    0.000000   10.000000    48     0.2083

Effective grid spacing dv^(1/3) = 0.2027

                     log10-error:    total        iterations:
           time      wfs    density  energy       fermi  poisson
iter:   1  17:09:55          +inf  -154.010829    3      6
iter:   2  17:09:55         -0.89  -152.697542    3      3
iter:   3  17:09:56         -0.93  -150.791037    3      3
iter:   4  17:09:56         -1.04  -149.924930    4      3
iter:   5  17:09:57         -1.17  -149.458841    34     3
iter:   6  17:09:57         -1.43  -149.425043    3      3
iter:   7  17:09:58         -1.56  -149.328671    3      3
iter:   8  17:09:58         -1.75  -149.292701    3      3
iter:   9  17:09:59         -1.92  -149.281798    3      2
iter:  10  17:10:00         -2.02  -149.274888    3      2
iter:  11  17:10:00         -2.20  -149.267652    3      2
iter:  12  17:10:01         -2.31  -149.262828    3      2
iter:  13  17:10:01         -2.49  -149.260918    3      2
iter:  14  17:10:02         -2.70  -149.261020    2      2
iter:  15  17:10:02         -2.95  -149.262981    2      1
iter:  16  17:10:03         -3.09  -149.259329    2      1
iter:  17  17:10:03         -3.22  -149.257113    2      1
iter:  18  17:10:04         -3.30  -149.260335    2      1
iter:  19  17:10:04         -3.40  -149.262025    2      1
iter:  20  17:10:05         -3.52  -149.261251    2      1
iter:  21  17:10:05         -3.59  -149.262683    2      1
iter:  22  17:10:05         -3.83  -149.261254    2      1
iter:  23  17:10:06         -3.93  -149.260404    2      1
iter:  24  17:10:06         -4.05  -149.260628    2      1

Converged after 24 iterations.

Dipole moment: (0.469098, -0.229265, 0.019205) |e|*Ang

Energy contributions relative to reference atoms: (reference = -24663.074771)

Kinetic:       +142.456173
Potential:     -130.890642
External:        +0.000000
XC:            -163.430374
Entropy (-ST):   -0.341418
Local:           +2.774925
Free energy:   -149.431337
Extrapolated:  -149.260628

Fermi level: -4.54255

 Band  Eigenvalues  Occupancy
    0    -26.24347    2.00000
    1    -25.05099    2.00000
    2    -23.34229    2.00000
    3    -22.27715    2.00000
    4    -21.48773    2.00000
    5    -20.23623    2.00000
    6    -19.89426    2.00000
    7    -18.66105    2.00000
    8    -18.49996    2.00000
    9    -17.72641    2.00000
   10    -16.81497    2.00000
   11    -16.31186    2.00000
   12    -15.75777    2.00000
   13    -15.57359    2.00000
   14    -14.64709    2.00000
   15    -13.92959    2.00000
   16    -13.60618    2.00000
   17    -13.28194    2.00000
   18    -13.09201    2.00000
   19    -12.90720    2.00000
   20    -12.11956    2.00000
   21    -11.97140    2.00000
   22    -11.58203    2.00000
   23    -11.26496    2.00000
   24    -10.88472    2.00000
   25    -10.51112    2.00000
   26    -10.22182    2.00000
   27     -9.92902    2.00000
   28     -9.66416    2.00000
   29     -9.29841    2.00000
   30     -9.12252    2.00000
   31     -8.88867    2.00000
   32     -8.48587    2.00000
   33     -8.13522    2.00000
   34     -7.88400    2.00000
   35     -7.43758    2.00000
   36     -7.21049    2.00000
   37     -6.91451    2.00000
   38     -6.83732    2.00000
   39     -6.48881    2.00000
   40     -6.16285    2.00000
   41     -5.94593    2.00000
   42     -5.82783    1.99999
   43     -5.50691    1.99987
   44     -5.36430    1.99946
   45     -4.96690    1.97169
   46     -4.78239    1.83341
   47     -4.66485    1.54517
   48     -4.44212    0.53617
   49     -4.25977    0.11167
   50     -3.87422    0.00250
   51     -3.50225    0.00006
   52     -3.12890    0.00000
   53     -2.96618    0.00000
   54     -2.85791    0.00000
   55     -2.69584    0.00000
   56     -2.32841    0.00000
   57     -1.70651    0.00000
   58     -1.62589    0.00000
   59     -1.40957    0.00000
[...]
   83      7.10037    0.00000
   84      7.59229    0.00000
   85      7.90112    0.00000
   86      8.08374    0.00000
   87      8.26580    0.00000
   88      8.48337    0.00000
   89      8.58397    0.00000
   90      8.96271    0.00000
   91      9.00126    0.00000
   92      9.05191    0.00000
   93      9.12033    0.00000
   94      9.23622    0.00000
   95      9.35228    0.00000
   96      9.49636    0.00000
   97      9.60874    0.00000

Forces in eV/Ang:
  0 C    -2.15030    1.61040   -3.01138
  1 C     0.16511    2.72566   -1.86729
  2 C    -2.27916    1.48977   -0.90505
  3 C    -4.72328   -2.94523   -1.28741
  4 C    -2.22540    5.93921   -0.22094
  5 C     1.91362    1.08351    1.02291
  6 C    -2.30439   -1.33027    2.96395
  7 C     0.97296    1.83906    0.15847
  8 C     0.14912   -0.64764   -1.13236
  9 C     2.08277  -18.01360   -3.45496
 10 C    -1.56493   -1.17190   -0.51092
 11 C     3.19191   -2.72949    2.10232
 12 C     3.41369   -0.57471    0.75582
 13 C     7.52853   -2.39700    1.84997
 14 C    -5.17990    3.79125   -2.14266
 15 C     2.70502    0.09037    0.29570
 16 C     0.34338    2.18483    3.34280
 17 C    -1.12883    3.87776   -1.36488
 18 C    -1.52619  -14.45932   -1.76970
 19 C    -0.66477    0.05182   -1.38549
 20 C    -0.30598   12.99566   -2.31504
 21 C    -0.72926   -4.97373    0.29552
 22 C    -0.04372   16.45055    5.27681
 23 C     2.30271   -5.01557    3.24057

System changes: positions

[...]

Density initialized from wave functions
  /        |          C C     C  C                |
 *         |      C C      C C     C              |
 |         |      C       C       C               |
 |         .-----C--C--C-----C-C---C--------------.
 |        /         C   C CC C                   /
 |       /          C                           /

[...]

Density initialized from wave functions
  /        |          C C     C  C                |
 *         |      C C      C C     C              |
 |         |      C       C       C               |
[...]
 |         .-----C-C----C----C--C--C--------------.
 |        /         CC  C C   C                  /

[...]

Density initialized from wave functions
  /        |         C  C     C C                 |
 *         |      C C      C C     C              |
 |         |     C        C        C              |
 |         .-----C-C----C----C--C--C--------------.
 |        /         CC  C C   C                  /

[...]

Density initialized from wave functions
  /        |         C  C     C                   |
 *         |      C C      C C  C  C              |
 |         |     C        C        C              |
 |         .-----C-C----C----C--C--C--------------.
 |        /         CC  C C   C                  /

[...]

Density initialized from wave functions
  /        |         C  C     C                   |
 *         |      C C      C C  C  C              |
 |         |     C        C        C              |
 |         .-----C-C----C----C--C--C--------------.
 |        /         CC  C C  C                   /

[...]

Density initialized from wave functions
  /        |         C  C     C                   |
 *         |      C C      C C  C  C              |
 |         |     C        C        C              |
 |         .-----C-C----C-C--C--C--C--------------.
 |        /         CC  C C  C                   /

[...]

Density initialized from wave functions
  /        |         C  C     C                   |
 *         |      C C      C C  C  C              |
 |         |     C        C         C             |
 |         .-----C-C----C-C--C--C--C--------------.
 |        /         CC  C C  C                   /

[...]

Density initialized from wave functions
  /        |         C  C     C                   |
 *         |      C C      C    C  C              |
 |         |     C        C  C      C             |
 |         .-----C-C----C-C--C--C--C--------------.
 |        /         CC  C C  C                   /

[...]

Density initialized from wave functions
  /        |         C  C     C                   |
 *         |      C C      C    C  C              |
 |         |     C        C  C      C             |
 |         .-----C-C----C----C--C--C--------------.
 |        /         CC  C C  C                   /

[...]

Density initialized from wave functions
  /        |         C  C                         |
 *         |      CC       C  C C  C              |
 |         |     C        C  C      C             |
 |         .-----C-C----C----C--C--C--------------.
 |        /         CC  C C  C                   /

[...]

Density initialized from wave functions
  /        |         C  C                         |
 *         |      CC       C  C C  C              |
 |         |     C        C  C      C             |
 |         .-----C-C----C----C--C--C--------------.
 |        /         CC  C C  C                   /

[...]

Density initialized from wave functions
  /        |         C  C                         |
 *         |      CC       C  C C  C              |
 |         |     C        C  C      C             |
 |         .-----CC-----C----C--C--C--------------.
 |        /         CC  C C  C                   /

[...]

Density initialized from wave functions
  /        |         C  C                         |
 *         |      CC       C  C C  C              |
 |         |     C        C  C      C             |
 |         .-----CC-----C----C--C--C--------------.
 |        /         CC  C C  C                   /

[...]

Density initialized from wave functions
  /        |         C  C                         |
 *         |     CCC       C  C C   C             |
 |         |              C  C      C             |
 |         .-----CC-----C----C--C--C--------------.
 |        /         CC  C C  C                   /

[...]

Density initialized from wave functions
  /        |         C  C                         |
 *         |     CCC       C  C C   C             |
 |         |              C   C     C             |
 |         .-----CC-----C----C--C--C--------------.
 |        /         CC  C C  C                   /

[...]

Density initialized from wave functions
  /        |         C  C     C                   |
 *         |     CCC       C    C   C             |
 |         |              C   C     C             |
 |         .-----CC-----C----C--C--C--------------.
 |        /         CC  C C  C                   /

[...]

Density initialized from wave functions
  /        |         C  C     C                   |
 *         |     CCC       C    C   C             |
 |         |              C   C     C             |
 |         .-----CC-----C----C--C--C--------------.
 |        /         CC  C C  C                   /

[...]

Density initialized from wave functions
  /        |         C  C     C                   |
 *         |     CC        C    C   C             |
 |         |              C   C     C             |
 |         .-----CC-----C----C--C--C--------------.
 |        /         CC  C C  C                   /

[...]

Density initialized from wave functions
  /        |         C  C     C                   |
 *         |     CC        C    C  C              |
 |         |              C   C     C             |
 |         .-----CC-----C----C--C--C--------------.
 |        /         CC  C C  C                   /

[...]

Density initialized from wave functions
  /        |         C  C     C                   |
 *         |     CC        C    C  C              |
 |         |              C   C    CC             |
 |         .-----CC-----C----C--C-----------------.
 |        /         CC  C C  C                   /

[...]

Density initialized from wave functions
  /        |         C  C     C                   |
 *         |     CC        C    C  C              |
 |         |              C   C    CC             |
 |         .-----CC-----C----C--C-----------------.
 |        /         CC  C C  C                   /

[...]

Density initialized from wave functions
  /        |         C  C     C                   |
 *         |     CC        C    C  C              |
 |         |              C   C    CC             |
 |         .-----CC-----C----C--C-----------------.
 |        /          C  C C  C                   /

[...]

Density initialized from wave functions
  /        |         C  C      C                  |
 *         |     CC        C    C  C              |
 |         |               C  C    CC             |
 |         .-----CC-----C----C--C-----------------.
 |        /          C  C C  C                   /

[...]

Density initialized from wave functions
  /        |         C  C      C                  |
 *         |     CC        C    C  C              |
 |         |               C  C    CC             |
 |         .-----CC-----C----C-C------------------.
 |        /          C  C C  C                   /

[...]

Density initialized from wave functions
  /        |         C  C      C                  |
 *         |     CC        C    C  C              |
 |         |               C  C    CC             |
 |         .-----CC-----C----C-C------------------.
 |        /          C  C C  C                   /

[...]

Density initialized from wave functions
  /        |         C  C      C                  |
 *         |     CC        C    C  C              |
 |         |               C  C    CC             |
 |         .-----C------C----C-C------------------.
 |        /          C  C C  C                   /

[...]

Density initialized from wave functions
  /        |         C  C      C                  |
 *         |     CC        C    C  C              |
 |         |               C  C    CC             |
 |         .-----C------C----C-C------------------.
 |        /          C  C C  C                   /

[...]

Density initialized from wave functions
  /        |         C  C      C                  |
 *         |     CC        C    C  C              |
 |         |               C  C    CC             |
 |         .-----C------C----C-C------------------.
 |        /         CC  C C  C                   /

[...]

Density initialized from wave functions
  /        |         C  C      C                  |
 *         |     CC        C    C  CC             |
 |         |               C  C    C              |
 |         .-----C------C----C-C------------------.
 |        /         CC  C C  C                   /

[...]

Density initialized from wave functions
  /        |      C  C  C      C                  |
 *         |     CC        C    C  CC             |
 |         |               C  C    C              |
 |         .-----C------C----C-C------------------.
 |        /         CC  C C  C                   /

[...]

Density initialized from wave functions
  /        |      C  C  C      C                  |
 *         |     C         C    C  CC             |
 |         |               C  C    C              |
 |         .-----C------C----C-C------------------.
 |        /         CC  C C  C                   /

[...]

Density initialized from wave functions
  /        |      C  C  C      C                  |
 *         |     C         C    C  CC             |
 |         |               C  C    C              |
 |         .-----C------C----C-C------------------.
 |        /         CC  C C  C                   /

[...]

Density initialized from wave functions
  /        |      C  C  C      C                  |
 *         |     C         C    C  CC             |
 |         |                  C    C              |
 |         .-----C------C--C-C-C------------------.
 |        /         CC  C C  C                   /

[...]

Density initialized from wave functions
  /        |       C C  C      C                  |
 *         |     C         C    C  CC             |
 |         |                  C    C              |
 |         .-----C------C--C-C-C------------------.
 |        /         CC  C C  C                   /

[...]

Density initialized from wave functions
  /        |       C C  C      C                  |
 *         |     C         C    C  CC             |
 |         |                  C    C              |
 |         .-----C---------C-C-C------------------.
 |        /         CC  C C  C                   /

[...]

Density initialized from wave functions
  /        |       C C  C      C                  |
 *         |     C         C    C  CC             |
 |         |                  C    C              |
 |         .-----C---------C-C-C------------------.
 |        /         CC  C C                      /

[...]

System changes: positions

Initializing position-dependent things.

Density initialized from wave functions
  /        |       C C  C      C                  |
 *         |     C         C    C  CC             |
 |         |                  C    C              |
 |         .-----C---------C-C-C------------------.
 |        /         CC  C C                      /

Positions:
   0 C      5.710356   10.127211    5.432981
   1 C     12.013299    7.072452    5.490225
   2 C      4.909743    6.655837    6.319858
   3 C      7.945951    5.530142    4.563108
   4 C      8.519120    6.757049    4.108502
   5 C      6.511247    5.763295    4.418016
   6 C      6.822821   10.657588    5.039340
   7 C      4.891360    7.175132    4.332585
   8 C      5.237539    5.930516    5.115190
   9 C     12.066827    8.376397    5.345101
  10 C     10.352994    9.884706    4.753230
  11 C      9.632721    8.694423    4.292235
  12 C     10.206924    5.138293    5.293126
  13 C     10.817259    6.422786    5.078648
  14 C      9.814135    7.257712    4.402579
  15 C      9.381979   10.938170    4.822631
  16 C      6.278795    7.122026    3.829932
  17 C      4.522499    7.887945    5.654548
  18 C      8.247941    9.025001    4.006526
  19 C      7.522523    7.807944    3.824197
  20 C      8.072965   10.417050    4.499164
  21 C      9.008807    4.759341    5.123787
  22 C     11.678592    9.622013    5.209308
  23 C      4.909722    9.179598    5.838392

Unit cell:
           periodic     x           y           z      points  spacing
  1. axis:    yes   16.000000    0.000000    0.000000    80     0.2000
  2. axis:    yes    0.000000   16.000000    0.000000    80     0.2000
  3. axis:    yes    0.000000    0.000000   10.000000    48     0.2083

Effective grid spacing dv^(1/3) = 0.2027

                     log10-error:    total        iterations:
           time      wfs    density  energy       fermi  poisson
iter:   1  17:21:57          +inf  -181.292500    2      4
iter:   2  17:21:58         -2.71  -181.289429    3      1
iter:   3  17:21:58         -3.08  -181.289297    2      1
iter:   4  17:21:59         -3.21  -181.289243    2      1
iter:   5  17:21:59         -3.37  -181.289077    2      1
iter:   6  17:22:00         -3.48  -181.288684    2      1
iter:   7  17:22:00         -3.41  -181.289286    2      1
iter:   8  17:22:01         -3.79  -181.289414    2      1
iter:   9  17:22:01         -3.93  -181.289205    2      1
iter:  10  17:22:02         -3.97  -181.289471    2      1
iter:  11  17:22:02         -4.33  -181.289529    2      1

Converged after 11 iterations.

Dipole moment: (-0.240790, -0.107761, -0.251986) |e|*Ang

Energy contributions relative to reference atoms: (reference = -24663.074771)

Kinetic:       +113.935866
Potential:     -119.629738
External:        +0.000000
XC:            -178.413675
Entropy (-ST):   -0.367878
Local:           +3.001956
Free energy:   -181.473468
Extrapolated:  -181.289529

Fermi level: -4.41275

 Band  Eigenvalues  Occupancy
    0    -23.64551    2.00000
    1    -22.83031    2.00000
    2    -21.77514    2.00000
    3    -21.09501    2.00000
    4    -20.53348    2.00000
    5    -20.04560    2.00000
    6    -19.72797    2.00000
    7    -19.35019    2.00000
    8    -18.20175    2.00000
    9    -17.95501    2.00000
   10    -17.64790    2.00000
   11    -16.91847    2.00000
   12    -16.29055    2.00000
   13    -15.75873    2.00000
   14    -15.49339    2.00000
   15    -14.59924    2.00000
   16    -14.12523    2.00000
   17    -13.92877    2.00000
   18    -13.33318    2.00000
   19    -12.93909    2.00000
   20    -12.36095    2.00000
   21    -11.85259    2.00000
   22    -11.66418    2.00000
   23    -11.08316    2.00000
   24    -10.82546    2.00000
   25    -10.51774    2.00000
   26    -10.49978    2.00000
   27    -10.18043    2.00000
   28     -9.87802    2.00000
   29     -9.79393    2.00000
   30     -9.39077    2.00000
   31     -9.30274    2.00000
   32     -8.82953    2.00000
   33     -8.80232    2.00000
   34     -8.56762    2.00000
   35     -8.23158    2.00000
   36     -7.79963    2.00000
   37     -7.32572    2.00000
   38     -7.23016    2.00000
   39     -7.13816    2.00000
   40     -6.73393    2.00000
   41     -6.23787    2.00000
   42     -5.87674    2.00000
   43     -5.45469    1.99994
   44     -5.08792    1.99766
   45     -4.96044    1.99167
   46     -4.85591    1.97649
   47     -4.39791    0.92591
   48     -4.38704    0.87216
   49     -4.21161    0.23601
   50     -3.46341    0.00015
   51     -2.97466    0.00000
   52     -2.66131    0.00000
   53     -2.40290    0.00000
   54     -1.94900    0.00000
   55     -1.59205    0.00000
   56     -0.89876    0.00000
   57     -0.80278    0.00000
   58     -0.36729    0.00000
   59      0.03246    0.00000
[...]
   83      8.93435    0.00000
   84      9.13301    0.00000
   85      9.27449    0.00000
   86      9.37450    0.00000
   87      9.40425    0.00000
   88      9.48685    0.00000
   89      9.53973    0.00000
   90      9.69834    0.00000
   91      9.82558    0.00000
   92      9.83075    0.00000
   93     10.04372    0.00000
   94     10.20280    0.00000
   95     10.38410    0.00000
   96     10.43774    0.00000
   97     10.50252    0.00000

Forces in eV/Ang:
  0 C    -0.02150    0.04008   -0.00810
  1 C    -0.02648    0.02612    0.02109
  2 C     0.02135    0.00874    0.01213
  3 C    -0.01287    0.00361   -0.00975
  4 C     0.02118   -0.02646   -0.01240
  5 C    -0.00085    0.00215    0.04262
  6 C    -0.02633   -0.02941   -0.06317
  7 C     0.00836    0.00094   -0.00743
  8 C    -0.01082   -0.03080   -0.08446
  9 C     0.01622    0.01155   -0.02842
 10 C     0.02780    0.04096    0.04775
 11 C     0.00606    0.04533   -0.00471
 12 C    -0.00004    0.00833   -0.00446
 13 C     0.02928    0.00175   -0.01573
 14 C    -0.01467    0.02201    0.04275
 15 C     0.05122   -0.00407    0.00526
 16 C    -0.02017    0.01278    0.00793
 17 C     0.01624   -0.03494   -0.04620
 18 C     0.00224   -0.03202    0.03869
 19 C    -0.00933    0.02027    0.06864
 20 C     0.02069   -0.02711   -0.05825
 21 C    -0.00076    0.00988    0.00335
 22 C     0.01313   -0.01015    0.01165
 23 C     0.00567   -0.02697    0.04917