User:   esb@s65n21.grendel.cscaa.dk
Date:   Thu Nov  9 09:42:33 2017
Arch:   x86_64
Pid:    2199
Python: 2.7.13
gpaw:   /home/esb/DFT/gpaw_git/gpaw
_gpaw:  /home/esb/DFT/gpaw_git/build/bin.linux-x86_64-2.7/gpaw-python
ase:    /home/esb/DFT/ase_git/ase (version 3.15.0b1)
numpy:  /comm/swstack/core/python/2.7.13/lib/python2.7/site-packages/numpy (version 1.13.3)
scipy:  /comm/swstack/core/python/2.7.13/lib/python2.7/site-packages/scipy (version 0.19.1)
units:  Angstrom and eV
cores:  16
Extra parameters: {'blacs': True}

Input parameters:
  basis: dzp
  gpts: [80 80 48]
  kpts: [1 1 1]
  maxiter: 99
  mixer: {backend: pulay,
          beta: 0.05,
          method: separate,
          nmaxold: 5,
          weight: 75}
  mode: lcao
  nbands: -50
  occupations: {name: fermi-dirac,
                width: 0.1}
  poissonsolver: {eps: 1e-07,
                  name: fd,
                  nn: 3,
                  relax: GS}
  xc: PBE

System changes: positions, numbers, cell, pbc, initial_charges, initial_magmoms

Initialize ...

C-setup:
  name: Carbon
  id: 4aa54d4b901d75f77cc0ea3eec22967b
  Z: 6
  valence: 4
  core: 2
  charge: 0.0
  file: /home/esb/DFT/gpaw-setups-0.8.7929/C.PBE.gz
  cutoffs: 0.64(comp), 1.14(filt), 1.14(core), lmax=2
  valence states:
                energy  radius
    2s(2.00)   -13.751   0.635
    2p(2.00)    -5.284   0.635
    *s          13.461   0.635
    *p          21.927   0.635
    *d           0.000   0.635

  LCAO basis set for C:
    Name: dzp
    File: /home/esb/DFT/gpaw-setups-0.8.7929/C.dzp.basis.gz
    Number of radial functions: 5
    Number of spherical harmonics: 13
      l=0, rc=5.5469 Bohr: 2s-sz confined orbital
      l=1, rc=6.6719 Bohr: 2p-sz confined orbital
      l=0, rc=3.0312 Bohr: 2s-dz split-valence wave
      l=1, rc=3.7500 Bohr: 2p-dz split-valence wave
      l=2, rc=6.6719 Bohr: d-type Gaussian polarization

Reference energy: -24663.074771

Spin-paired calculation

Occupation numbers:
  Fermi-Dirac: width=0.1000 eV

Convergence criteria:
  Maximum total energy change: 0.0005 eV / electron
  Maximum integral of absolute density change: 0.0001 electrons
  Maximum integral of absolute eigenstate change: 4e-08 eV^2
  Maximum number of iterations: 99

Symmetries present (total): 1

  ( 1  0  0)
  ( 0  1  0)
  ( 0  0  1)

1 k-point (Gamma)
1 k-point in the irreducible part of the Brillouin zone
       k-points in crystal coordinates                weights
   0:     0.00000000    0.00000000    0.00000000          1/1

Wave functions: LCAO
  Diagonalizer: Serial LAPACK
  Atomic Correction: dense with blas
  Datatype: float
  Eigensolver: None

LCAO using direct dense diagonalizer

Densities:
  Coarse grid: 80*80*48 grid
  Fine grid: 160*160*96 grid
  Total Charge: 0.000000

Density mixing:
  Method: separate
  Backend: pulay
  Linear mixing parameter: 0.05
  Mixing with 5 old densities
  Damping of long wave oscillations: 75

Hamiltonian:
  XC and Coulomb potentials evaluated on a 160*160*96 grid
  Using the PBE Exchange-Correlation functional
  Interpolation: tri-quintic (5. degree polynomial)
  Poisson solver: Gauss-Seidel solver with 6 multi-grid levels
    Coarsest grid: 5 x 5 x 3 points
    Stencil: 6*3+1=19 point O(h^6) finite-difference Laplacian
    Max iterations: 1000
    Tolerance: 1.000000e-07

Total number of cores used: 16
Domain decomposition: 2 x 4 x 2

Number of atoms: 24
Number of atomic orbitals: 312
Number of bands in calculation: 98
Bands to converge: occupied states only
Number of valence electrons: 96

... initialized

Initializing position-dependent things.

Density initialized from atomic densities
  /        |           C     C C C                |
 *         |   C C  C     C    C C                |
 |         |  C           C   CC  C               |
 |         .------C--C--CC-CC---------------------.
 |        /      C      C                        /
 |       /         C                            /

Positions:
   0 C      3.509808    6.783443    5.873978
   1 C     11.179025    7.557348    5.664344
   2 C     10.672979    6.227493    5.601601
   3 C      5.287113    6.447587    4.609432
   4 C      9.938603    9.843161    5.548405
   5 C     10.070118    8.461115    5.499478
   6 C     12.080157    6.457487    5.861338
   7 C     10.363612   11.214820    5.104439
   8 C      5.155535    5.064773    4.557319
   9 C      6.220952    4.376574    4.754138
  10 C      6.234102   10.583463    4.956606
  11 C      5.089952   10.068947    5.095744
  12 C      8.730410   11.105824    5.328144
  13 C      4.075351    9.228465    5.358003
  14 C      7.617843   10.435069    4.775765
  15 C      3.567884    8.089061    5.595037
  16 C      8.076811    9.132592    4.189437
  17 C      7.401878    7.872845    4.010417
  18 C      9.447729    8.806943    4.304330
  19 C      8.562908    4.459614    6.259982
  20 C      7.353857    4.115191    6.367381
  21 C      9.540594    5.382812    5.854151
  22 C      9.136253    6.350992    4.784174
  23 C      7.846957    6.713280    4.256454

Unit cell:
           periodic     x           y           z      points  spacing
  1. axis:    yes   16.000000    0.000000    0.000000    80     0.2000
  2. axis:    yes    0.000000   16.000000    0.000000    80     0.2000
  3. axis:    yes    0.000000    0.000000   10.000000    48     0.2083

Effective grid spacing dv^(1/3) = 0.2027

                     log10-error:    total        iterations:
           time      wfs    density  energy       fermi  poisson
iter:   1  09:42:35          +inf  -167.679811    2      6
iter:   2  09:42:35         -0.91  -166.631160    3      3
iter:   3  09:42:36         -0.94  -165.206267    4      3
iter:   4  09:42:37         -1.03  -164.048033    34     4
iter:   5  09:42:37         -1.26  -163.945583    4      3
iter:   6  09:42:38         -1.38  -163.754067    4      3
iter:   7  09:42:38         -1.61  -163.730602    3      3
iter:   8  09:42:39         -1.80  -163.717017    3      2
iter:   9  09:42:39         -1.87  -163.693059    3      3
iter:  10  09:42:40         -2.09  -163.689452    3      2
iter:  11  09:42:40         -2.21  -163.685965    3      2
iter:  12  09:42:41         -2.61  -163.674283    3      2
iter:  13  09:42:41         -2.81  -163.677854    2      1
iter:  14  09:42:42         -2.93  -163.675019    2      1
iter:  15  09:42:42         -3.05  -163.673229    2      1
iter:  16  09:42:43         -3.18  -163.669397    2      1
iter:  17  09:42:43         -3.33  -163.669669    2      1
iter:  18  09:42:44         -3.39  -163.669152    2      1
iter:  19  09:42:44         -3.49  -163.671339    2      1
iter:  20  09:42:45         -3.61  -163.674289    2      1
iter:  21  09:42:45         -3.74  -163.672025    2      1
iter:  22  09:42:45         -3.82  -163.672397    2      1
iter:  23  09:42:46         -3.94  -163.672893    2      1
iter:  24  09:42:46         -4.09  -163.671523    2      1

Converged after 24 iterations.

Dipole moment: (0.106601, 0.486801, -0.158879) |e|*Ang

Energy contributions relative to reference atoms: (reference = -24663.074771)

Kinetic:        +93.826487
Potential:     -100.794266
External:        +0.000000
XC:            -159.345148
Entropy (-ST):   -0.432779
Local:           +2.857793
Free energy:   -163.887912
Extrapolated:  -163.671523

Fermi level: -4.56649

 Band  Eigenvalues  Occupancy
    0    -24.23126    2.00000
    1    -23.46449    2.00000
    2    -21.42720    2.00000
    3    -21.12643    2.00000
    4    -20.50616    2.00000
    5    -20.38709    2.00000
    6    -20.06021    2.00000
    7    -19.35924    2.00000
    8    -18.62893    2.00000
    9    -18.46776    2.00000
   10    -17.68569    2.00000
   11    -16.84179    2.00000
   12    -16.21203    2.00000
   13    -15.47278    2.00000
   14    -15.33157    2.00000
   15    -14.84608    2.00000
   16    -14.68562    2.00000
   17    -14.11218    2.00000
   18    -13.26343    2.00000
   19    -12.53838    2.00000
   20    -11.85387    2.00000
   21    -11.59627    2.00000
   22    -11.31644    2.00000
   23    -10.57395    2.00000
   24    -10.25859    2.00000
   25    -10.13084    2.00000
   26     -9.72855    2.00000
   27     -9.28838    2.00000
   28     -9.16115    2.00000
   29     -8.99913    2.00000
   30     -8.87940    2.00000
   31     -8.44365    2.00000
   32     -8.32579    2.00000
   33     -8.29934    2.00000
   34     -7.95839    2.00000
   35     -7.79924    2.00000
   36     -7.68698    2.00000
   37     -7.33155    2.00000
   38     -6.91819    2.00000
   39     -6.79234    2.00000
   40     -6.43881    2.00000
   41     -6.39498    2.00000
   42     -6.12145    2.00000
   43     -5.78618    1.99999
   44     -5.58525    1.99992
   45     -5.30867    1.99880
   46     -4.77483    1.77855
   47     -4.59827    1.15756
   48     -4.50923    0.72125
   49     -4.40706    0.33756
   50     -3.98802    0.00613
   51     -3.65502    0.00022
   52     -3.18443    0.00000
   53     -2.93604    0.00000
   54     -2.61606    0.00000
   55     -2.49972    0.00000
   56     -2.04735    0.00000
   57     -1.69075    0.00000
   58     -1.32032    0.00000
   59     -1.19100    0.00000
[...]
   83      7.95022    0.00000
   84      8.30715    0.00000
   85      8.52427    0.00000
   86      8.61868    0.00000
   87      8.71348    0.00000
   88      8.80013    0.00000
   89      9.03250    0.00000
   90      9.11849    0.00000
   91      9.27199    0.00000
   92      9.53136    0.00000
   93      9.56093    0.00000
   94      9.64273    0.00000
   95      9.75168    0.00000
   96      9.83652    0.00000
   97      9.98903    0.00000

Forces in eV/Ang:
  0 C     0.55946   -0.31457   -0.28736
  1 C     0.63772   -0.26183    0.84139
  2 C    -0.74758   -3.77941    0.39352
  3 C    -2.41250   -1.44360    0.11764
  4 C    -0.13207    4.92386   -0.60839
  5 C     2.32235    0.50448    0.48047
  6 C     0.14383    1.95662   -0.25983
  7 C    -4.41791   -1.28828    1.37696
  8 C    -1.35663    3.12193   -0.06924
  9 C     4.37575   -1.87441    2.94507
 10 C     1.49546    0.45811    0.06721
 11 C    -1.72068   -1.13345    0.20994
 12 C     5.29221   -0.79826   -0.07823
 13 C     1.83916    2.90564   -0.37556
 14 C    -0.72856   -0.73892   -0.41300
 15 C    -0.63666   -1.50251    0.10795
 16 C    -0.95895   -0.80500   -0.46338
 17 C    -0.73538    2.92391   -0.16932
 18 C    -1.56382    0.55221   -0.71824
 19 C     2.02447    0.76322   -0.02617
 20 C    -3.05744   -0.37441   -2.53251
 21 C    -2.05274    2.20196   -2.50571
 22 C    -2.48748   -3.21398    1.12208
 23 C     4.34531   -2.74921    0.90581

System changes: positions

[...]

Density initialized from wave functions
  /        |           C     C C C                |
 *         |   C C  C     C    C C                |
 |         |  C           C   CC  C               |
 |         .------C--C--CC-CC---------------------.
 |        /      C      C                        /
 |       /         C                            /

[...]

Density initialized from wave functions
  /        |           C     C C C                |
 *         |   C C  C     C    C C                |
 |         |  C           C  C C  C               |
[...]
 |        /     C  C  C  CC                      /

[...]

Density initialized from wave functions
   /       |                    C                 |
  /        |        C  C     C  C                 |
 *         |     C        C     CCC               |
 |         |   CC         C   CC                  |
 |         .---C--------CC--C---------------------.
 |        /     C  C  C  CC                      /

[...]

Density initialized from wave functions
   /       |                    C                 |
  /        |        C  C     C  C                 |
 *         |     C        C     C C               |
 |         |   CC          C  CC C                |
 |         .---C--------CC--C---------------------.
 |        /     C  C  C  CC                      /

[...]

Density initialized from wave functions
   /       |                    C                 |
  /        |           C     C  C                 |
 *         |     C  C     C     C C               |
 |         |   CC          C  CC C                |
 |         .---CC-------CC--C---------------------.
 |        /        C  C  CC                      /

[...]

Density initialized from wave functions
   /       |                 C  C                 |
  /        |           C        C                 |
 *         |     C  C     C     C C               |
 |         |   C           C  CC C                |
 |         .---CC-------CC--C---------------------.
 |        /        C  C  CC                      /

[...]

Density initialized from wave functions
   /       |                 C  C                 |
  /        |           C        C                 |
 *         |     C  C     C     C C               |
 |         |   C           C  CC C                |
 |         .---CC--C----CC--C---------------------.
 |        /           C  CC                      /

[...]

Density initialized from wave functions
   /       |                 C  C                 |
  /        |           C        C                 |
 *         |     C  C     C     C C               |
 |         |   C           C  CC C                |
 |         .---CC--C----CC--C---------------------.
 |        /           C  CC                      /

[...]

Density initialized from wave functions
   /       |                 C  C                 |
  /        |           C         C                |
 *         |     C  C     C     C C               |
 |         |   C           C  CC C                |
 |         .---CC--C----CC-C----------------------.
 |        /           C  CC                      /

[...]

Density initialized from wave functions
   /       |                 C  C                 |
  /        |           C         C                |
 *         |     C  C     C     C C               |
 |         |   C           C  CC C                |
 |         .---CC--C----CC-C----------------------.
 |        /           C  CC                      /

[...]

Density initialized from wave functions
   /       |                 C  C                 |
  /        |           C         C                |
 *         |     C  C     C       C               |
 |         |   C           C  CCCC                |
 |         .---CC--C----CC-C----------------------.
 |        /           C  CC                      /

[...]

Density initialized from wave functions
   /       |                 C  C                 |
  /        |           C         C                |
 *         |     C  C     C       C               |
 |         |   C           C  CC C                |
 |         .---CC--C----CC-C----------------------.
 |        /           C  CC                      /

[...]

Density initialized from wave functions
   /       |                 C  C                 |
  /        |           C  C      C                |
 *         |     C  C             C               |
 |         |   C           C  CC C                |
 |         .---CC--C----CC-C----------------------.
 |        /           C  CC                      /

[...]

Density initialized from wave functions
   /       |                 C  C                 |
  /        |           C  C      C                |
 *         |     C  C             C               |
 |         |   C           C  CC C                |
 |         .---CC--C----CC-C----------------------.
 |        /           C  CC                      /

[...]

Density initialized from wave functions
   /       |                 C  C                 |
  /        |           C  C      C                |
 *         |     C  C             C               |
 |         |   C           C  CC C                |
 |         .---CC--C-----C-C----------------------.
 |        /           C  CC                      /

[...]

Density initialized from wave functions
   /       |                 C  C                 |
  /        |           C  C      C                |
 *         |     C  C             C               |
 |         |  CC           C  CC C                |
 |         .---CC--C-----C-C----------------------.
 |        /           C  CC                      /

[...]

Density initialized from wave functions
   /       |                 C  C                 |
  /        |           C         C                |
 *         |     C  C     C       C               |
 |         |  CC           C  CC C                |
 |         .---CC--C----CC-C----------------------.
 |        /           C  CC                      /

[...]

Density initialized from wave functions
   /       |                 C  C                 |
  /        |           C         C                |
 *         |     C  C     C       C               |
 |         |  CC           C  CC C                |
 |         .---CC--C----CC-C----------------------.
 |        /           C  CC                      /

[...]

Density initialized from wave functions
   /       |                 C  C                 |
  /        |           C  C      C                |
 *         |     C  C             C               |
 |         |  CC           C  CC C                |
 |         .---CC--C----CC-C----------------------.
 |        /           C  CC                      /

[...]

Density initialized from wave functions
   /       |                 C  C                 |
  /        |           C  C      C                |
 *         |     C  C            CC               |
 |         |  CC           C  CC C                |
 |         .---CC--C-----C-C----------------------.
 |        /           C  CC                      /

[...]

Density initialized from wave functions
   /       |                 C  C                 |
  /        |           C  C      C                |
 *         |     C  C            CC               |
 |         |  CC           C  CC C                |
 |         .---CC--C-----C-C----------------------.
 |        /           C  CC                      /

[...]

Density initialized from wave functions
   /       |                 C  C                 |
  /        |           C  C      C                |
 *         |     C  C            CC               |
 |         |  CC           C  CC C                |
 |         .---CC-C------C-C----------------------.
 |        /           C  CC                      /

[...]

Density initialized from wave functions
   /       |                 C  C                 |
  /        |           C  C      C                |
 *         |     C  C            CC               |
 |         |  CC           C  CC C                |
 |         .---CC-C------C-C----------------------.
 |        /           C  CC                      /

[...]

Density initialized from wave functions
   /       |                 C  C                 |
  /        |           C  C      C                |
 *         |     C  C            CC               |
 |         |  CC           C  C  C                |
 |         .---CC-C------C-C--C-------------------.
 |        /           C  CC                      /

[...]

Density initialized from wave functions
   /       |                 C  C                 |
  /        |           C  C      C                |
 *         |     C  C            CC               |
 |         |  CC           C  C  C                |
 |         .---CC-C------C-C----------------------.
 |        /           C  CC                      /

[...]

Density initialized from wave functions
   /       |                 C  C                 |
  /        |           C  C      C                |
 *         |     C  C           C C               |
 |         |  CC           C  CC C                |
 |         .---CC-C------C-C----------------------.
 |        /           C  CC                      /

[...]

Density initialized from wave functions
   /       |                 C  C                 |
  /        |           C  C      C                |
 *         |     C  C           C C               |
 |         |  CC           C  CC C                |
 |         .---CC-C------C-C----------------------.
 |        /           C  CC                      /

[...]

Density initialized from wave functions
   /       |                 C  C                 |
  /        |           C  C      C                |
 *         |     C  C           C                 |
 |         |  CC           C  C  CC               |
 |         .---CC-C------C-----C------------------.
 |        /           C  CCC                     /

[...]

Density initialized from wave functions
   /       |                 C  C                 |
  /        |           C  C      C                |
 *         |     C  C           C                 |
 |         |  CC           C  C  CC               |
 |         .---CC-C------C-----C------------------.
 |        /           C  CCC                     /

[...]

Density initialized from wave functions
   /       |                 C  C                 |
  /        |           C         C                |
 *         |     C  C      C    C                 |
 |         |  CC           C  C  CC               |
 |         .---CC-C------C-C---C------------------.
 |        /           C  CC                      /

[...]

Density initialized from wave functions
   /       |                 C  C                 |
  /        |           C         C                |
 *         |     C  C      C    C                 |
 |         |  CC           C  C  CC               |
 |         .---CC-C------C-C---C------------------.
 |        /           C  CC                      /

[...]

System changes: positions

Initializing position-dependent things.

Density initialized from wave functions
   /       |                 C  C                 |
  /        |           C  C      C                |
 *         |     C  C           C C               |
 |         |  CC           C  C  C                |
 |         .---CC-C------C-C---C------------------.
 |        /           C  CC                      /

Positions:
   0 C      3.729117    6.747852    5.391228
   1 C     11.061284    7.329946    5.646304
   2 C     10.572451    5.983968    5.629583
   3 C      4.167062    5.578675    5.642780
   4 C     10.483007   10.036008    5.482058
   5 C     10.702474    8.620183    5.227860
   6 C     11.806285    6.291971    6.307127
   7 C      9.852019   11.240166    5.655917
   8 C      5.005807    4.550986    5.809996
   9 C      6.123321    3.953103    5.925113
  10 C      6.279708   10.837674    4.805001
  11 C      5.201892   10.169869    4.831910
  12 C      8.641714   11.636560    5.438225
  13 C      4.244014    9.238601    4.969058
  14 C      7.683198   10.832551    4.775181
  15 C      3.794462    8.063785    5.162465
  16 C      8.288145    9.531283    4.245908
  17 C      7.603507    8.358475    3.867412
  18 C      9.606752    9.269789    4.608742
  19 C      8.650851    4.201543    5.683573
  20 C      7.455360    3.801713    5.820550
  21 C      9.411668    5.302274    5.164079
  22 C      8.634602    6.109293    4.334839
  23 C      8.000046    7.105817    3.829654

Unit cell:
           periodic     x           y           z      points  spacing
  1. axis:    yes   16.000000    0.000000    0.000000    80     0.2000
  2. axis:    yes    0.000000   16.000000    0.000000    80     0.2000
  3. axis:    yes    0.000000    0.000000   10.000000    48     0.2083

Effective grid spacing dv^(1/3) = 0.2027

                     log10-error:    total        iterations:
           time      wfs    density  energy       fermi  poisson
iter:   1  09:53:15          +inf  -180.289745    2      5
iter:   2  09:53:16         -2.77  -180.287990    2      1
iter:   3  09:53:16         -2.88  -180.286664    2      1
iter:   4  09:53:17         -2.99  -180.287074    2      2
iter:   5  09:53:17         -3.18  -180.285888    2      1
iter:   6  09:53:18         -3.19  -180.285488    2      1
iter:   7  09:53:18         -3.55  -180.286658    2      1
iter:   8  09:53:18         -3.29  -180.286844    2      1
iter:   9  09:53:19         -3.94  -180.286644    2      1
iter:  10  09:53:19         -3.96  -180.286714    2      1
iter:  11  09:53:20         -4.04  -180.286642    2      1

Converged after 11 iterations.

Dipole moment: (-0.333787, 0.099141, -0.234775) |e|*Ang

Energy contributions relative to reference atoms: (reference = -24663.074771)

Kinetic:        +99.808974
Potential:     -108.820563
External:        +0.000000
XC:            -174.207666
Entropy (-ST):   -0.257443
Local:           +3.061333
Free energy:   -180.415364
Extrapolated:  -180.286642

Fermi level: -4.26034

 Band  Eigenvalues  Occupancy
    0    -23.53409    2.00000
    1    -22.32272    2.00000
    2    -21.08734    2.00000
    3    -20.72198    2.00000
    4    -20.40657    2.00000
    5    -20.01775    2.00000
    6    -19.82684    2.00000
    7    -19.40359    2.00000
    8    -18.65428    2.00000
    9    -18.48364    2.00000
   10    -17.68881    2.00000
   11    -17.35795    2.00000
   12    -16.60582    2.00000
   13    -16.06015    2.00000
   14    -15.77731    2.00000
   15    -15.29418    2.00000
   16    -14.85713    2.00000
   17    -14.20169    2.00000
   18    -13.58173    2.00000
   19    -13.25241    2.00000
   20    -12.99975    2.00000
   21    -12.51951    2.00000
   22    -12.10184    2.00000
   23    -11.46387    2.00000
   24    -10.65183    2.00000
   25    -10.61132    2.00000
   26     -9.69928    2.00000
   27     -9.32151    2.00000
   28     -9.20043    2.00000
   29     -9.19646    2.00000
   30     -9.12052    2.00000
   31     -8.84653    2.00000
   32     -8.64356    2.00000
   33     -8.60943    2.00000
   34     -8.24852    2.00000
   35     -8.10994    2.00000
   36     -7.65588    2.00000
   37     -7.56071    2.00000
   38     -7.49572    2.00000
   39     -7.33968    2.00000
   40     -6.44354    2.00000
   41     -6.32217    2.00000
   42     -5.97766    2.00000
   43     -5.78168    2.00000
   44     -5.20144    1.99984
   45     -4.89897    1.99664
   46     -4.82789    1.99317
   47     -4.33785    1.36926
   48     -4.18519    0.64101
   49     -3.22784    0.00007
   50     -3.13561    0.00003
   51     -2.74035    0.00000
   52     -2.43877    0.00000
   53     -1.77660    0.00000
   54     -1.55264    0.00000
   55     -1.29518    0.00000
   56     -0.68535    0.00000
   57     -0.53749    0.00000
   58     -0.30950    0.00000
   59      0.09525    0.00000
[...]
   83      8.71336    0.00000
   84      8.84873    0.00000
   85      9.13268    0.00000
   86      9.36127    0.00000
   87      9.38759    0.00000
   88      9.45259    0.00000
   89      9.51115    0.00000
   90      9.60471    0.00000
   91      9.73477    0.00000
   92      9.89870    0.00000
   93      9.96721    0.00000
   94      9.98727    0.00000
   95     10.12604    0.00000
   96     10.23147    0.00000
   97     10.34419    0.00000

Forces in eV/Ang:
  0 C    -0.02997    0.01663    0.04885
  1 C     0.02279    0.02316   -0.03287
  2 C    -0.02434   -0.00792    0.02106
  3 C     0.02341   -0.00715   -0.00861
  4 C    -0.02654   -0.01059    0.00977
  5 C    -0.00327   -0.00050   -0.00980
  6 C     0.01561   -0.02428    0.05224
  7 C    -0.05601    0.01068    0.01171
  8 C     0.01610   -0.04925   -0.01624
  9 C    -0.00647   -0.00743    0.03350
 10 C     0.02556   -0.01674   -0.00565
 11 C     0.00922   -0.01180   -0.02613
 12 C     0.03637   -0.01121   -0.00313
 13 C     0.07046    0.04525    0.01023
 14 C     0.01397   -0.02303   -0.03450
 15 C     0.05671   -0.02159    0.00208
 16 C    -0.01911   -0.01946    0.01005
 17 C    -0.00534    0.01388   -0.04542
 18 C     0.01923   -0.01218    0.00962
 19 C    -0.01729    0.02036    0.02027
 20 C    -0.00682   -0.02378   -0.02058
 21 C    -0.00142    0.01159    0.00335
 22 C    -0.00294    0.02553    0.00318
 23 C     0.01571    0.00434   -0.00650