User:   esb@s65n11.grendel.cscaa.dk
Date:   Thu Nov  9 12:02:52 2017
Arch:   x86_64
Pid:    78156
Python: 2.7.13
gpaw:   /home/esb/DFT/gpaw_git/gpaw
_gpaw:  /home/esb/DFT/gpaw_git/build/bin.linux-x86_64-2.7/gpaw-python
ase:    /home/esb/DFT/ase_git/ase (version 3.15.0b1)
numpy:  /comm/swstack/core/python/2.7.13/lib/python2.7/site-packages/numpy (version 1.13.3)
scipy:  /comm/swstack/core/python/2.7.13/lib/python2.7/site-packages/scipy (version 0.19.1)
units:  Angstrom and eV
cores:  16
Extra parameters: {'blacs': True}

Input parameters:
  basis: dzp
  gpts: [80 80 48]
  kpts: [1 1 1]
  maxiter: 99
  mixer: {backend: pulay,
          beta: 0.05,
          method: separate,
          nmaxold: 5,
          weight: 75}
  mode: lcao
  nbands: -50
  occupations: {name: fermi-dirac,
                width: 0.1}
  poissonsolver: {eps: 1e-07,
                  name: fd,
                  nn: 3,
                  relax: GS}
  xc: PBE

System changes: positions, numbers, cell, pbc, initial_charges, initial_magmoms

Initialize ...

C-setup:
  name: Carbon
  id: 4aa54d4b901d75f77cc0ea3eec22967b
  Z: 6
  valence: 4
  core: 2
  charge: 0.0
  file: /home/esb/DFT/gpaw-setups-0.8.7929/C.PBE.gz
  cutoffs: 0.64(comp), 1.14(filt), 1.14(core), lmax=2
  valence states:
                energy  radius
    2s(2.00)   -13.751   0.635
    2p(2.00)    -5.284   0.635
    *s          13.461   0.635
    *p          21.927   0.635
    *d           0.000   0.635

  LCAO basis set for C:
    Name: dzp
    File: /home/esb/DFT/gpaw-setups-0.8.7929/C.dzp.basis.gz
    Number of radial functions: 5
    Number of spherical harmonics: 13
      l=0, rc=5.5469 Bohr: 2s-sz confined orbital
      l=1, rc=6.6719 Bohr: 2p-sz confined orbital
      l=0, rc=3.0312 Bohr: 2s-dz split-valence wave
      l=1, rc=3.7500 Bohr: 2p-dz split-valence wave
      l=2, rc=6.6719 Bohr: d-type Gaussian polarization

Reference energy: -24663.074771

Spin-paired calculation

Occupation numbers:
  Fermi-Dirac: width=0.1000 eV

Convergence criteria:
  Maximum total energy change: 0.0005 eV / electron
  Maximum integral of absolute density change: 0.0001 electrons
  Maximum integral of absolute eigenstate change: 4e-08 eV^2
  Maximum number of iterations: 99

Symmetries present (total): 1

  ( 1  0  0)
  ( 0  1  0)
  ( 0  0  1)

1 k-point (Gamma)
1 k-point in the irreducible part of the Brillouin zone
       k-points in crystal coordinates                weights
   0:     0.00000000    0.00000000    0.00000000          1/1

Wave functions: LCAO
  Diagonalizer: Serial LAPACK
  Atomic Correction: dense with blas
  Datatype: float
  Eigensolver: None

LCAO using direct dense diagonalizer

Densities:
  Coarse grid: 80*80*48 grid
  Fine grid: 160*160*96 grid
  Total Charge: 0.000000

Density mixing:
  Method: separate
  Backend: pulay
  Linear mixing parameter: 0.05
  Mixing with 5 old densities
  Damping of long wave oscillations: 75

Hamiltonian:
  XC and Coulomb potentials evaluated on a 160*160*96 grid
  Using the PBE Exchange-Correlation functional
  Interpolation: tri-quintic (5. degree polynomial)
  Poisson solver: Gauss-Seidel solver with 6 multi-grid levels
    Coarsest grid: 5 x 5 x 3 points
    Stencil: 6*3+1=19 point O(h^6) finite-difference Laplacian
    Max iterations: 1000
    Tolerance: 1.000000e-07

Total number of cores used: 16
Domain decomposition: 2 x 4 x 2

Number of atoms: 24
Number of atomic orbitals: 312
Number of bands in calculation: 98
Bands to converge: occupied states only
Number of valence electrons: 96

... initialized

Initializing position-dependent things.

Density initialized from atomic densities
   /       |        C  CC                         |
  /        |     C                                |
 *         |  C     C                             |
 |         |  C      C   C  C C  C                |
 |         .--C-C--C-C---C-C---C-C----------------.
 |        /     C   C    C                       /
 |       /            C                         /

Positions:
   0 C     11.126113    7.018686    4.923137
   1 C      4.995003   10.182697    6.380800
   2 C      7.739108    7.555677    5.331035
   3 C      6.666902    9.671048    6.316539
   4 C      9.774128    8.930510    4.913351
   5 C     10.870650    8.354551    4.725309
   6 C      6.871442   10.776852    5.655193
   7 C      8.700288    9.111824    4.589162
   8 C      5.608339    8.829288    5.162834
   9 C      3.404266    8.101609    5.769791
  10 C      6.309963    7.599507    5.316909
  11 C      4.262619    9.210443    5.638993
  12 C      3.413498    6.859093    5.599143
  13 C      5.306728    3.583619    5.262527
  14 C      7.951054    3.271393    5.280829
  15 C      6.685490    3.888651    5.257409
  16 C      4.847919    4.628935    6.079640
  17 C      9.035961    3.917742    5.294734
  18 C      6.862283    5.351935    5.268821
  19 C      3.824313    5.447925    5.386443
  20 C      5.752234    6.250228    5.308784
  21 C      8.121844    6.071836    5.296955
  22 C     10.658990    5.879934    5.128939
  23 C      9.366927    5.290055    5.268050

Unit cell:
           periodic     x           y           z      points  spacing
  1. axis:    yes   16.000000    0.000000    0.000000    80     0.2000
  2. axis:    yes    0.000000   16.000000    0.000000    80     0.2000
  3. axis:    yes    0.000000    0.000000   10.000000    48     0.2083

Effective grid spacing dv^(1/3) = 0.2027

                     log10-error:    total        iterations:
           time      wfs    density  energy       fermi  poisson
iter:   1  12:02:54          +inf  -173.234858    2      6
iter:   2  12:02:54         -0.89  -171.958791    3      3
iter:   3  12:02:55         -0.92  -169.872716    4      3
iter:   4  12:02:56         -1.04  -169.022158    4      3
iter:   5  12:02:56         -1.14  -168.478574    33     3
iter:   6  12:02:57         -1.37  -168.368163    4      3
iter:   7  12:02:58         -1.57  -168.340846    3      3
iter:   8  12:02:58         -1.69  -168.286479    3      3
iter:   9  12:02:59         -1.84  -168.258409    3      2
iter:  10  12:02:59         -1.97  -168.242336    3      2
iter:  11  12:03:00         -2.14  -168.228309    3      2
iter:  12  12:03:01         -2.28  -168.221336    3      2
iter:  13  12:03:01         -2.41  -168.213413    3      2
iter:  14  12:03:02         -2.72  -168.215175    2      2
iter:  15  12:03:02         -2.85  -168.215615    3      2
iter:  16  12:03:03         -3.07  -168.221838    2      1
iter:  17  12:03:04         -3.14  -168.218337    2      1
iter:  18  12:03:04         -3.52  -168.214012    2      1
iter:  19  12:03:05         -3.59  -168.214820    2      1
iter:  20  12:03:05         -3.67  -168.216578    2      1
iter:  21  12:03:06         -3.82  -168.215396    2      1
iter:  22  12:03:07         -4.00  -168.214153    2      1
iter:  23  12:03:07         -4.07  -168.214196    2      1

Converged after 23 iterations.

Dipole moment: (0.108046, -0.349010, 0.092304) |e|*Ang

Energy contributions relative to reference atoms: (reference = -24663.074771)

Kinetic:       +117.156300
Potential:     -120.024982
External:        +0.000000
XC:            -168.144964
Entropy (-ST):   -0.280335
Local:           +2.939618
Free energy:   -168.354363
Extrapolated:  -168.214196

Fermi level: -4.51931

 Band  Eigenvalues  Occupancy
    0    -22.94502    2.00000
    1    -22.48574    2.00000
    2    -21.46427    2.00000
    3    -21.00861    2.00000
    4    -20.91707    2.00000
    5    -20.22393    2.00000
    6    -19.72578    2.00000
    7    -19.02483    2.00000
    8    -18.50866    2.00000
    9    -18.21962    2.00000
   10    -17.74974    2.00000
   11    -16.98558    2.00000
   12    -16.61714    2.00000
   13    -15.97428    2.00000
   14    -15.10320    2.00000
   15    -14.55989    2.00000
   16    -13.91718    2.00000
   17    -13.62461    2.00000
   18    -13.16458    2.00000
   19    -12.82978    2.00000
   20    -12.13247    2.00000
   21    -11.74414    2.00000
   22    -11.22534    2.00000
   23    -10.70580    2.00000
   24    -10.66335    2.00000
   25    -10.23650    2.00000
   26    -10.03541    2.00000
   27     -9.83968    2.00000
   28     -9.63308    2.00000
   29     -9.37305    2.00000
   30     -9.12068    2.00000
   31     -8.94525    2.00000
   32     -8.79334    2.00000
   33     -8.57325    2.00000
   34     -8.21916    2.00000
   35     -7.88910    2.00000
   36     -7.72736    2.00000
   37     -7.09859    2.00000
   38     -7.00875    2.00000
   39     -6.75170    2.00000
   40     -6.48034    2.00000
   41     -6.40973    2.00000
   42     -6.21769    2.00000
   43     -5.56251    1.99994
   44     -5.41405    1.99974
   45     -5.27759    1.99898
   46     -4.80090    1.88705
   47     -4.65123    1.57808
   48     -4.40760    0.49308
   49     -4.13731    0.04291
   50     -3.59240    0.00019
   51     -3.39805    0.00003
   52     -2.92655    0.00000
   53     -2.81521    0.00000
   54     -2.40293    0.00000
   55     -2.16589    0.00000
   56     -1.99906    0.00000
   57     -1.94460    0.00000
   58     -1.53481    0.00000
   59     -1.11766    0.00000
[...]
   83      8.28584    0.00000
   84      8.48748    0.00000
   85      8.60487    0.00000
   86      8.88931    0.00000
   87      9.03975    0.00000
   88      9.04979    0.00000
   89      9.18860    0.00000
   90      9.34915    0.00000
   91      9.37181    0.00000
   92      9.56861    0.00000
   93      9.79179    0.00000
   94      9.85389    0.00000
   95      9.94851    0.00000
   96     10.06351    0.00000
   97     10.15760    0.00000

Forces in eV/Ang:
  0 C    -0.16711    3.03836    0.39618
  1 C     0.60351   -0.83080    1.35273
  2 C     1.72705   -0.24437   -1.80225
  3 C    -4.16238   -0.97395   -0.20318
  4 C    13.82694   -0.61366    5.38261
  5 C     5.63260   -3.54886   -0.71472
  6 C     0.64655    2.41290   -1.94372
  7 C   -20.18607    0.26655   -3.28322
  8 C     1.71177   -0.29345    2.28098
  9 C    -0.41465    0.98646   -0.27002
 10 C    -1.14490    0.29059    0.00447
 11 C     2.01858    0.11328   -0.52145
 12 C     0.22680   -3.47584   -0.14063
 13 C     0.57282   -0.02874    3.16839
 14 C     0.10982    0.09332   -0.51168
 15 C     0.38623    0.09350   -0.20368
 16 C    -4.35938   -0.65512   -3.78626
 17 C     0.47147   -0.17177    0.15829
 18 C     0.19941    0.77219   -0.71419
 19 C     2.36489    4.42851    2.14995
 20 C     0.52596   -1.64399   -0.42288
 21 C    -0.10150    1.65819   -0.34861
 22 C    -1.19248   -1.40019   -0.28031
 23 C     0.72511   -0.17798    0.16387

System changes: positions

[...]

Density initialized from wave functions
   /       |        C  CC                         |
  /        |     C                                |
 *         |  C     C                             |
 |         |  C      C   C  C C  C                |
 |         .--C-C--C-C---C-C---C-C----------------.
 |        /     C   C    C                       /
 |       /            C                         /

[...]

Density initialized from wave functions
   /       |        C  C C                        |
  /        |     C                                |
[...]

[...]

Density initialized from wave functions
   /       |       C   C                          |
  /        |             C                        |
 *         |  C  C  C                             |
 |         | C       C   C C  C  C                |
 |         .---C---C-C---C-C---CC-----------------.
 |        /     C   C     C                      /
 |       /            C                         /

[...]

Density initialized from wave functions
   /       |       C   C                          |
  /        |             C                        |
 *         |  C  C  C                             |
 |         | C       C   C C  C  C                |
 |         .---C---C-C---C-C---CC-----------------.
 |        /     C   C     C                      /
 |       /            C                         /

[...]

Density initialized from wave functions
   /       |       C   C                          |
  /        |     C       C                        |
 *         |  C     C                             |
 |         | C       C   C C  C  C                |
 |         .---C---C-C---C-C---CC-----------------.
 |        /     C   C     C                      /
 |       /            C                         /

[...]

Density initialized from wave functions
   /       |       C   C                          |
  /        |     C       C                        |
 *         |  C     C                             |
 |         | C       C   C C  C  C                |
 |         .---C---C-C---C-C---CC-----------------.
 |        /     C   C     C                      /
 |       /            C                         /

[...]

Density initialized from wave functions
   /       |       C   C                          |
  /        |     C       C                        |
 *         |  C     C                             |
 |         | C       C   C C  C  C                |
 |         .--CC---C-C---C-C---CC-----------------.
 |        /     C   C     C                      /
 |       /            C                         /

[...]

Density initialized from wave functions
   /       |       C  C                           |
  /        |     C       C                        |
 *         |  C     C                             |
 |         | C       C   C C  C  C                |
 |         .--CC---C-C---C-C---CC-----------------.
 |        /     C   C     C                      /
 |       /            C                         /

[...]

Density initialized from wave functions
   /       |       C                              |
  /        |     C    C  C                        |
 *         |  C     C                             |
 |         |  C      C   C C  C  C                |
 |         .--CC---C-C---C-C---CC-----------------.
 |        /     C   C     C                      /
 |       /            C                         /

[...]

Density initialized from wave functions
   /       |       C                              |
  /        |     C    C  C                        |
 *         |  C     C                             |
 |         |  C      C   C C  C  C                |
 |         .---C---C-C---C-C---CC-----------------.
 |        /   C C   C     C                      /
 |       /            C                         /

[...]

Density initialized from wave functions
   /       |       C                              |
  /        |     C    C   C                       |
 *         |  C     C                             |
 |         |  C      C   C C  C  C                |
 |         .---C---C-C---C-C---CC-----------------.
 |        /   C C   C     C                      /
 |       /            C                         /

[...]

Density initialized from wave functions
   /       |       C                              |
  /        |     C    C   C                       |
 *         |  C     C      C                      |
 |         |  C      C   C    C  C                |
 |         .---C---C-C---C-----CC-----------------.
 |        /   C C   C     CC                     /
 |       /            C                         /

[...]

Density initialized from wave functions
   /       |       C                              |
  /        |     C    C   C                       |
 *         |  C     C      C                      |
 |         |  C      C   C    C  C                |
 |         .---C---C-C---C-----CC-----------------.
 |        /   C C   C     CC                     /
 |       /            C                         /

[...]

Density initialized from wave functions
   /       |       C                              |
  /        |     C    C   C                       |
 *         |  C     C      C                      |
 |         |  C      C   C    C  C                |
 |         .---C---C-C---C-----CC-----------------.
 |        /   C C   C  C  CC                     /

[...]

Density initialized from wave functions
   /       |        C                             |
  /        |     C     C  C                       |
 *         |  C     C      C                      |
 |         |  C      C   C    C  C                |
 |         .---C---C-C---C-----CC-----------------.
 |        /   C C   C  C  CC                     /

[...]

Density initialized from wave functions
   /       |        C                             |
  /        |     C     C  C                       |
 *         |  C     C      C                      |
 |         |  C      C   C    C  C                |
 |         .---C---C-C---C-----CC-----------------.
 |        /    CC   C  C  CC                     /

[...]

Density initialized from wave functions
   /       |        C                             |
  /        |     C     C  C                       |
 *         |  C     C      C                      |
 |         |  C      C   C     C C                |
 |         .---C---C-C---C-----CC-----------------.
 |        /    CC   C  C  CC                     /

[...]

Density initialized from wave functions
   /       |        C                             |
  /        |     C     C  C                       |
 *         |  C     C      C   C                  |
 |         |  C      C   C       C                |
 |         .---C---C-C---C-C---CC-----------------.
 |        /    CC   C  C  C                      /

[...]

Density initialized from wave functions
   /       |        C                             |
  /        |     C     C  C                       |
 *         |  C     C      C   C                  |
 |         |  C      C   C       C                |
 |         .---C---C-C---C-C---CC-----------------.
 |        /    CC   C  C  C                      /

[...]

Density initialized from wave functions
   /       |        C                             |
  /        |     C     C  C                       |
 *         |  C     C      C   C                  |
 |         |  C      C   C       C                |
 |         .---C---C-C---C-C---C-C----------------.
 |        /    CC   C  C  C                      /

[...]

Density initialized from wave functions
   /       |        C                             |
  /        |     C     C  C                       |
 *         |   C    C      C   C                  |
 |         |  C      C   C       C                |
 |         .---C---C-C---C-C---C-C----------------.
 |        /    CC   C  C  C                      /

[...]

Density initialized from wave functions
   /       |        C                             |
  /        |     C     C  C                       |
 *         |   C    C      C   C                  |
 |         |  C      C   C       C                |
 |         .----C--C-C---C-C---C-C----------------.
 |        /    CC   C  C  C                      /

[...]

Density initialized from wave functions
   /       |        C                             |
  /        |     C     C  C                       |
 *         |   C    C      C   C                  |
 |         |  C      C   C       C                |
 |         .----C--C-C---C-C---C-C----------------.
 |        /    CC   C  C  C                      /

[...]

Density initialized from wave functions
   /       |        C                             |
  /        |     C     C  C                       |
 *         |   C    C      C   C                  |
 |         |  C      C   C       C                |
 |         .----C--C-C---C-C---C-C----------------.
 |        /    C C  C  C  C                      /

[...]

Density initialized from wave functions
   /       |        C                             |
  /        |     C     C  C                       |
 *         |   C    C      C   C                  |
 |         |  C      C   C       C                |
 |         .----C--C-C---C-C---C-C----------------.
 |        /    C C  C  C  C                      /

[...]

Density initialized from wave functions
   /       |        C                             |
  /        |     C     C  C                       |
 *         |   C    C      C                      |
 |         |  C      C   C     C C                |
 |         .----C--C-C---C-C---C-C----------------.
 |        /    C C  C  C  C                      /

[...]

Density initialized from wave functions
   /       |        C                             |
  /        |      C    C  C                       |
 *         |   C     C     C                      |
 |         |  C      C   C     C C                |
 |         .----C--C-C---C-C---C-C----------------.
 |        /    C C  C  C  C                      /

[...]

Density initialized from wave functions
   /       |        C                             |
  /        |      C    C  C                       |
 *         |   C     C     C                      |
 |         |  C      C   C     C C                |
 |         .----C--C-C---C--C--C-C----------------.
 |        /    C C  C  C  C                      /

[...]

Density initialized from wave functions
   /       |        C                             |
  /        |      C    C  C                       |
 *         |   C     C      C                     |
 |         |  C       C  C     C C                |
 |         .----C--C--C--C--C--C-C----------------.
 |        /    C C  C  C  C                      /

[...]

Density initialized from wave functions
   /       |        C                             |
  /        |      C    C  C                       |
 *         |   C     C      C                     |
 |         |  C       C  C     C C                |
 |         .----C--C-C---C--C--C-C----------------.
 |        /    C C  C  C  C                      /

[...]

System changes: positions

Initializing position-dependent things.

Density initialized from wave functions
   /       |        C                             |
  /        |      C    C  C                       |
 *         |   C     C      C                     |
 |         |  C       C  C     C C                |
 |         .----C--C--C--C--C--C-C----------------.
 |        /    C C  C  C  C                      /

Positions:
   0 C     11.293754    7.063945    4.856074
   1 C      5.216838   10.243715    6.370358
   2 C      7.919121    7.619733    5.250889
   3 C      6.497958   10.126195    5.572504
   4 C      9.957337    8.971866    4.792149
   5 C     11.056639    8.397378    4.599333
   6 C      7.834270   10.044240    5.639848
   7 C      8.603385    8.952512    5.228081
   8 C      5.804286    8.926654    5.098496
   9 C      3.587573    8.211130    5.671652
  10 C      6.489906    7.682148    5.228596
  11 C      4.466237    9.308812    5.594097
  12 C      3.580289    6.968831    5.494061
  13 C      5.458861    3.674514    5.337051
  14 C      8.102124    3.347045    5.356776
  15 C      6.838616    3.968644    5.317182
  16 C      4.499320    4.499024    5.341588
  17 C      9.194287    3.981597    5.346799
  18 C      7.022327    5.428590    5.251749
  19 C      4.533030    5.916293    5.335655
  20 C      5.917645    6.337266    5.237999
  21 C      8.287067    6.137583    5.257153
  22 C     10.825304    5.935173    5.115220
  23 C      9.530331    5.351792    5.264068

Unit cell:
           periodic     x           y           z      points  spacing
  1. axis:    yes   16.000000    0.000000    0.000000    80     0.2000
  2. axis:    yes    0.000000   16.000000    0.000000    80     0.2000
  3. axis:    yes    0.000000    0.000000   10.000000    48     0.2083

Effective grid spacing dv^(1/3) = 0.2027

                     log10-error:    total        iterations:
           time      wfs    density  energy       fermi  poisson
iter:   1  12:14:49          +inf  -184.409638    2      5
iter:   2  12:14:50         -2.73  -184.407055    2      1
iter:   3  12:14:50         -2.84  -184.406175    2      1
iter:   4  12:14:51         -3.06  -184.406001    2      2
iter:   5  12:14:52         -3.26  -184.406329    2      1
iter:   6  12:14:52         -3.09  -184.406418    2      1
iter:   7  12:14:53         -3.83  -184.406355    2      1
iter:   8  12:14:53         -3.34  -184.405439    2      1
iter:   9  12:14:54         -4.16  -184.405650    1      1

Converged after 9 iterations.

Dipole moment: (-0.004922, -0.217898, -0.210643) |e|*Ang

Energy contributions relative to reference atoms: (reference = -24663.074771)

Kinetic:       +113.542573
Potential:     -121.115425
External:        +0.000000
XC:            -179.845271
Entropy (-ST):   -0.023052
Local:           +3.023999
Free energy:   -184.417176
Extrapolated:  -184.405650

Fermi level: -4.00413

 Band  Eigenvalues  Occupancy
    0    -23.04255    2.00000
    1    -22.37389    2.00000
    2    -21.28244    2.00000
    3    -21.01862    2.00000
    4    -20.41654    2.00000
    5    -20.19404    2.00000
    6    -19.40521    2.00000
    7    -19.09187    2.00000
    8    -18.25752    2.00000
    9    -17.98678    2.00000
   10    -17.66559    2.00000
   11    -16.74162    2.00000
   12    -16.49946    2.00000
   13    -15.99904    2.00000
   14    -15.13282    2.00000
   15    -14.52966    2.00000
   16    -14.18112    2.00000
   17    -13.84630    2.00000
   18    -13.25735    2.00000
   19    -12.79399    2.00000
   20    -12.39582    2.00000
   21    -12.27289    2.00000
   22    -11.90703    2.00000
   23    -11.55354    2.00000
   24    -10.67594    2.00000
   25    -10.56148    2.00000
   26    -10.50112    2.00000
   27    -10.35891    2.00000
   28    -10.18449    2.00000
   29     -9.52468    2.00000
   30     -9.35553    2.00000
   31     -9.12366    2.00000
   32     -9.09051    2.00000
   33     -8.58952    2.00000
   34     -8.32407    2.00000
   35     -8.22978    2.00000
   36     -7.87623    2.00000
   37     -7.15312    2.00000
   38     -6.90736    2.00000
   39     -6.56252    2.00000
   40     -6.43116    2.00000
   41     -6.36991    2.00000
   42     -6.05386    2.00000
   43     -5.77573    2.00000
   44     -5.48533    2.00000
   45     -5.26015    1.99999
   46     -4.99118    1.99990
   47     -4.46487    1.98024
   48     -3.53446    0.01809
   49     -3.27964    0.00143
   50     -3.13675    0.00034
   51     -2.78995    0.00001
   52     -2.70019    0.00000
   53     -2.38919    0.00000
   54     -2.27672    0.00000
   55     -1.78049    0.00000
   56     -1.60459    0.00000
   57     -0.89600    0.00000
   58     -0.14633    0.00000
   59      0.23773    0.00000
[...]
   83      9.09728    0.00000
   84      9.21917    0.00000
   85      9.32839    0.00000
   86      9.35541    0.00000
   87      9.53801    0.00000
   88      9.65064    0.00000
   89      9.79735    0.00000
   90      9.83981    0.00000
   91     10.01040    0.00000
   92     10.03983    0.00000
   93     10.16044    0.00000
   94     10.24970    0.00000
   95     10.47697    0.00000
   96     10.53193    0.00000
   97     10.60251    0.00000

Forces in eV/Ang:
  0 C    -0.00755    0.01224    0.00075
  1 C    -0.00462   -0.02383    0.00251
  2 C    -0.02142    0.02369    0.00436
  3 C    -0.05545   -0.01100    0.00087
  4 C     0.02211   -0.02687    0.07426
  5 C     0.00995   -0.03117    0.00172
  6 C     0.04236   -0.05293   -0.04637
  7 C    -0.03942    0.04783   -0.01758
  8 C    -0.00712   -0.00788    0.02635
  9 C     0.02478    0.01254    0.03356
 10 C    -0.02447    0.01046   -0.01603
 11 C     0.02042   -0.01690   -0.02159
 12 C     0.02280    0.02122    0.00523
 13 C    -0.05501    0.01109    0.01454
 14 C     0.02060   -0.01246    0.00127
 15 C     0.00693   -0.01238   -0.02301
 16 C     0.00278    0.01156    0.01588
 17 C    -0.03308    0.00493   -0.02770
 18 C    -0.00618    0.00477    0.00422
 19 C    -0.01824   -0.01523    0.04446
 20 C     0.03052   -0.00159   -0.01389
 21 C     0.03759    0.00686    0.01513
 22 C    -0.00254    0.04783   -0.02892
 23 C    -0.00982    0.00505    0.00520