User:   esb@s65n32.grendel.cscaa.dk
Date:   Thu Nov  9 11:42:36 2017
Arch:   x86_64
Pid:    24482
Python: 2.7.13
gpaw:   /home/esb/DFT/gpaw_git/gpaw
_gpaw:  /home/esb/DFT/gpaw_git/build/bin.linux-x86_64-2.7/gpaw-python
ase:    /home/esb/DFT/ase_git/ase (version 3.15.0b1)
numpy:  /comm/swstack/core/python/2.7.13/lib/python2.7/site-packages/numpy (version 1.13.3)
scipy:  /comm/swstack/core/python/2.7.13/lib/python2.7/site-packages/scipy (version 0.19.1)
units:  Angstrom and eV
cores:  16
Extra parameters: {'blacs': True}

Input parameters:
  basis: dzp
  gpts: [80 80 48]
  kpts: [1 1 1]
  maxiter: 99
  mixer: {backend: pulay,
          beta: 0.05,
          method: separate,
          nmaxold: 5,
          weight: 75}
  mode: lcao
  nbands: -50
  occupations: {name: fermi-dirac,
                width: 0.1}
  poissonsolver: {eps: 1e-07,
                  name: fd,
                  nn: 3,
                  relax: GS}
  xc: PBE

System changes: positions, numbers, cell, pbc, initial_charges, initial_magmoms

Initialize ...

C-setup:
  name: Carbon
  id: 4aa54d4b901d75f77cc0ea3eec22967b
  Z: 6
  valence: 4
  core: 2
  charge: 0.0
  file: /home/esb/DFT/gpaw-setups-0.8.7929/C.PBE.gz
  cutoffs: 0.64(comp), 1.14(filt), 1.14(core), lmax=2
  valence states:
                energy  radius
    2s(2.00)   -13.751   0.635
    2p(2.00)    -5.284   0.635
    *s          13.461   0.635
    *p          21.927   0.635
    *d           0.000   0.635

  LCAO basis set for C:
    Name: dzp
    File: /home/esb/DFT/gpaw-setups-0.8.7929/C.dzp.basis.gz
    Number of radial functions: 5
    Number of spherical harmonics: 13
      l=0, rc=5.5469 Bohr: 2s-sz confined orbital
      l=1, rc=6.6719 Bohr: 2p-sz confined orbital
      l=0, rc=3.0312 Bohr: 2s-dz split-valence wave
      l=1, rc=3.7500 Bohr: 2p-dz split-valence wave
      l=2, rc=6.6719 Bohr: d-type Gaussian polarization

Reference energy: -24663.074771

Spin-paired calculation

Occupation numbers:
  Fermi-Dirac: width=0.1000 eV

Convergence criteria:
  Maximum total energy change: 0.0005 eV / electron
  Maximum integral of absolute density change: 0.0001 electrons
  Maximum integral of absolute eigenstate change: 4e-08 eV^2
  Maximum number of iterations: 99

Symmetries present (total): 1

  ( 1  0  0)
  ( 0  1  0)
  ( 0  0  1)

1 k-point (Gamma)
1 k-point in the irreducible part of the Brillouin zone
       k-points in crystal coordinates                weights
   0:     0.00000000    0.00000000    0.00000000          1/1

Wave functions: LCAO
  Diagonalizer: Serial LAPACK
  Atomic Correction: dense with blas
  Datatype: float
  Eigensolver: None

LCAO using direct dense diagonalizer

Densities:
  Coarse grid: 80*80*48 grid
  Fine grid: 160*160*96 grid
  Total Charge: 0.000000

Density mixing:
  Method: separate
  Backend: pulay
  Linear mixing parameter: 0.05
  Mixing with 5 old densities
  Damping of long wave oscillations: 75

Hamiltonian:
  XC and Coulomb potentials evaluated on a 160*160*96 grid
  Using the PBE Exchange-Correlation functional
  Interpolation: tri-quintic (5. degree polynomial)
  Poisson solver: Gauss-Seidel solver with 6 multi-grid levels
    Coarsest grid: 5 x 5 x 3 points
    Stencil: 6*3+1=19 point O(h^6) finite-difference Laplacian
    Max iterations: 1000
    Tolerance: 1.000000e-07

Total number of cores used: 16
Domain decomposition: 2 x 4 x 2

Number of atoms: 24
Number of atomic orbitals: 312
Number of bands in calculation: 98
Bands to converge: occupied states only
Number of valence electrons: 96

... initialized

Initializing position-dependent things.

Density initialized from atomic densities
   /       |             C                        |
  /        |          C    C                      |
 *     C   C  C     C   C     CC     C  C  C      |
 |         |         C  C   C   C                 |
 |         .-------C-C-------C--------------------.
 |        /         C  C  C                      /
 |       /       C                              /

Positions:
   0 C      5.476498    8.663424    5.469577
   1 C      7.474550    9.855573    6.157935
   2 C      6.154021    9.880418    5.919194
   3 C      9.743989    8.378239    6.052891
   4 C      5.734965    6.061961    5.476717
   5 C      7.536920    7.523351    5.862838
   6 C      9.369287    6.023665    5.717151
   7 C      8.023810    6.192012    5.751022
   8 C      6.143599    7.460102    5.647753
   9 C     10.269665    7.170217    5.932189
  10 C      8.333084    8.728866    6.027784
  11 C      6.913151    5.270855    5.515602
  12 C      5.607596    3.415962    5.249252
  13 C      6.956709    3.831346    5.385978
  14 C      8.304040    3.323138    5.459763
  15 C     10.259485    4.900505    5.692558
  16 C      9.498199    3.715117    5.581164
  17 C     11.196176    5.913831    6.053422
  18 C      1.529536    9.385340    5.003415
  19 C     13.680479    9.010580    5.091573
  20 C     14.960211    9.196194    5.041715
  21 C      0.249663    9.336004    5.014442
  22 C     12.415870    8.803010    5.136421
  23 C      2.844032    9.369286    5.013262

Unit cell:
           periodic     x           y           z      points  spacing
  1. axis:    yes   16.000000    0.000000    0.000000    80     0.2000
  2. axis:    yes    0.000000   16.000000    0.000000    80     0.2000
  3. axis:    yes    0.000000    0.000000   10.000000    48     0.2083

Effective grid spacing dv^(1/3) = 0.2027

                     log10-error:    total        iterations:
           time      wfs    density  energy       fermi  poisson
iter:   1  11:42:38          +inf  -176.522726    3      6
iter:   2  11:42:38         -0.88  -174.814298    3      3
iter:   3  11:42:39         -0.92  -173.929071    32     3
iter:   4  11:42:40         -0.98  -173.228993    3      2
iter:   5  11:42:40         -1.02  -174.315656    34     4
iter:   6  11:42:41         -1.10  -174.234381    32     3
iter:   7  11:42:41         -1.16  -173.640135    3      3
iter:   8  11:42:42         -1.36  -173.123153    4      2
iter:   9  11:42:43         -1.39  -171.728571    31     3
iter:  10  11:42:43         -1.57  -171.692286    4      2
iter:  11  11:42:44         -1.61  -171.962161    4      3
iter:  12  11:42:44         -1.47  -171.727788    3      3
iter:  13  11:42:45         -1.72  -171.666819    3      3
iter:  14  11:42:45         -1.87  -171.655465    4      2
iter:  15  11:42:46         -1.97  -171.631824    5      2
iter:  16  11:42:47         -2.27  -171.620203    4      2
iter:  17  11:42:47         -2.47  -171.608604    3      2
iter:  18  11:42:48         -2.59  -171.608853    3      2
iter:  19  11:42:48         -2.76  -171.616014    3      1
iter:  20  11:42:49         -2.84  -171.610182    3      2
iter:  21  11:42:49         -3.09  -171.619152    3      1
iter:  22  11:42:50         -3.21  -171.617061    3      1
iter:  23  11:42:50         -3.28  -171.602070    3      1
iter:  24  11:42:51         -3.53  -171.607581    2      1
iter:  25  11:42:51         -3.68  -171.605597    3      1
iter:  26  11:42:52         -3.91  -171.605983    2      1
iter:  27  11:42:53         -4.01  -171.606729    2      1

Converged after 27 iterations.

Dipole moment: (-15.923625, -0.129330, 0.195879) |e|*Ang

Energy contributions relative to reference atoms: (reference = -24663.074771)

Kinetic:        +99.034383
Potential:     -107.837602
External:        +0.000000
XC:            -165.526773
Entropy (-ST):   -0.497177
Local:           +2.971851
Free energy:   -171.855318
Extrapolated:  -171.606729

Fermi level: -4.82481

 Band  Eigenvalues  Occupancy
    0    -23.85430    2.00000
    1    -22.72226    2.00000
    2    -21.53170    2.00000
    3    -20.49565    2.00000
    4    -20.31330    2.00000
    5    -20.15108    2.00000
    6    -19.40508    2.00000
    7    -18.95443    2.00000
    8    -18.45163    2.00000
    9    -18.08094    2.00000
   10    -17.37989    2.00000
   11    -17.25451    2.00000
   12    -16.54498    2.00000
   13    -15.69246    2.00000
   14    -15.46239    2.00000
   15    -15.07075    2.00000
   16    -14.15551    2.00000
   17    -13.97379    2.00000
   18    -13.85647    2.00000
   19    -13.19459    2.00000
   20    -12.32133    2.00000
   21    -12.24154    2.00000
   22    -11.67900    2.00000
   23    -11.10905    2.00000
   24    -11.00446    2.00000
   25    -10.67163    2.00000
   26    -10.15147    2.00000
   27     -9.89681    2.00000
   28     -9.74853    2.00000
   29     -9.27097    2.00000
   30     -8.84560    2.00000
   31     -8.84345    2.00000
   32     -8.21248    2.00000
   33     -7.92443    2.00000
   34     -7.68597    2.00000
   35     -7.49297    2.00000
   36     -7.15890    2.00000
   37     -7.14659    2.00000
   38     -6.94336    2.00000
   39     -6.70830    2.00000
   40     -6.58068    2.00000
   41     -6.47766    2.00000
   42     -5.89196    1.99995
   43     -5.50392    1.99776
   44     -5.22674    1.96470
   45     -4.99665    1.69584
   46     -4.96150    1.59376
   47     -4.90355    1.37455
   48     -4.88458    1.29027
   49     -4.50204    0.07627
   50     -4.25498    0.00668
   51     -3.90812    0.00021
   52     -3.54416    0.00001
   53     -3.36264    0.00000
   54     -2.71195    0.00000
   55     -2.31274    0.00000
   56     -2.07503    0.00000
   57     -2.02752    0.00000
   58     -1.97071    0.00000
   59     -0.67776    0.00000
[...]
   83      8.73681    0.00000
   84      8.90897    0.00000
   85      8.91846    0.00000
   86      8.95041    0.00000
   87      9.10223    0.00000
   88      9.25615    0.00000
   89      9.32904    0.00000
   90      9.55670    0.00000
   91      9.60372    0.00000
   92      9.71548    0.00000
   93      9.83271    0.00000
   94      9.88591    0.00000
   95     10.01488    0.00000
   96     10.06416    0.00000
   97     10.16019    0.00000

Forces in eV/Ang:
  0 C     1.15484    4.83954    1.79636
  1 C    -2.88623   -0.58052   -1.33848
  2 C     1.42792   -3.23929   -0.62705
  3 C     0.14153   -0.13234    0.25327
  4 C     1.08250   -0.84967   -0.04018
  5 C     0.46209    0.64562    0.01996
  6 C    -0.03948    0.37724    0.15426
  7 C     0.20303   -0.59884   -0.19723
  8 C    -2.95685   -0.51551   -0.57545
  9 C    -0.41777   -0.53159    0.14295
 10 C     0.67087   -0.12348    0.28838
 11 C    -1.05011    1.74466    0.12440
 12 C     1.50420    0.23033    0.11989
 13 C    -1.18645   -1.08265   -0.15845
 14 C     0.47014    0.10296    0.00875
 15 C     0.14706   -0.02405    0.15026
 16 C    -0.06295   -0.16172   -0.00076
 17 C    -0.08578    0.20970   -0.30025
 18 C     4.42238   -0.12666    0.15484
 19 C    -0.51893    0.09039    0.10129
 20 C     2.92878    0.37592   -0.12401
 21 C    -3.89124   -0.23660   -0.02586
 22 C    -1.41279   -0.14191    0.00658
 23 C    -0.15976   -0.25531    0.05452

System changes: positions

[...]

Density initialized from wave functions
   /       |             C                        |
  /        |          C    C  C                   |
 *     C   C  C     C   C      C     C  C  C      |
 |         |         C  C   C   C                 |
 |         .-------C-C-------C--------------------.
 |        /         C  C  C                      /
[...]
 |        /           C                          /

[...]

Density initialized from wave functions
   /       |          C  C                        |
  /        |C  C   C       C  C                   |
 *       C |        C   CC   C C  C   C  C   C    |
 |         |       C  C       C                   |
 |         .----------C--C---C--------------------.
 |        /           C                          /

[...]

Density initialized from wave functions
   /       |          C  C                        |
  /        |   C   C       C  C                   |
 *       C |C       C   CC   C C  C   C  C   C    |
 |         |       C  C        C                  |
 |         .----------C--C---C--------------------.
 |        /           C                          /

[...]

Density initialized from wave functions
   /       |          C  C                        |
  /        |   C   C       C  C                   |
 *       C |C       C   CC   C C  C   C  C  C     |
 |         |       C  C        C                  |
 |         .----------C--C---C--------------------.
 |        /           C                          /

[...]

Density initialized from wave functions
   /       |          C  C                        |
  /        |   C   C       C  C                   |
 *       C |C       C   CC   C C  C   C  C  C     |
 |         |       C  C        C                  |
 |         .----------C---C--C--------------------.
 |        /           C                          /

[...]

Density initialized from wave functions
   /       |         C   C                        |
  /        |   C   C       C  C                   |
 *       C |C       C   CC   C C  C   C  C  C     |
 |         |       C  C        C                  |
 |         .----------C---C--C--------------------.
 |        /            C                         /

[...]

Density initialized from wave functions
   /       |         C   C                        |
  /        |   C   C    C  C  C                   |
 *      C  |C       C    C   C C  C   C  C  C     |
 |         |       C  C        C                  |
 |         .-----------C--C--C--------------------.
 |        /            C                         /

[...]

Density initialized from wave functions
   /       |         C   C                        |
  /        |   C   C    C  C  C                   |
 *      C  |C       C    C   C C  C   C  C  C     |
 |         |       C  C        C                  |
 |         .-----------C--C--C--------------------.
 |        /            C                         /

[...]

Density initialized from wave functions
   /       |         C   C                        |
  /        |       C       C  C                   |
 *      C  |C  C    C   CC   C C  C  C   C  C     |
 |         |       C  C        C                  |
 |         .-----------C--C--C--------------------.
 |        /            C                         /

[...]

Density initialized from wave functions
   /       |         C   C                        |
  /        |       C       C  CC                  |
 *      C  |C  C    C   CC   C    C   C  C  C     |
 |         |       C  C        C                  |
 |         .-----------C--C--C--------------------.
 |        /            C                         /

[...]

Density initialized from wave functions
   /       |         C  C                         |
  /        |       C       C  CC                  |
 *      C  |C  C    C   CC   C    C   C  C  C     |
 |         |       C  C        C                  |
 |         .-----------C--C--C--------------------.
 |        /            C                         /

[...]

Density initialized from wave functions
   /       |         C  C                         |
  /        |       C       C  CC                  |
 *      C  |C  C    C   CC   C    C   C  C  C     |
 |         |       C  C        C                  |
 |         .-----------C--C---C-------------------.
 |        /            C                         /

[...]

Density initialized from wave functions
   /       |         C  C                         |
  /        |       C       C  CC                  |
 *      C  |C  C    C   CC   C    C   C  C  C     |
 |         |       C  C        C                  |
 |         .-----------C--C---C-------------------.
 |        /            C                         /

[...]

Density initialized from wave functions
   /       |         C  C                         |
  /        |   C   C       C  CC                  |
 *      C  |C       C   CC   C    C   C  C  C     |
 |         |       C  C        C                  |
 |         .-----------C---C--C-------------------.
 |        /            C                         /

[...]

Density initialized from wave functions
   /       |         C  C                         |
  /        |   C   C      C   CC                  |
 *      C  |C       C   CC   C    C   C  C  C     |
 |         |       C  C        C                  |
 |         .-----------C---C--C-------------------.
 |        /             C                        /

[...]

Density initialized from wave functions
   /       |            C                         |
  /        |   C   C C    C   CC                  |
 *      C  |C       C   CC   C    C   C  C  C     |
 |         |       C  C        C                  |
 |         .-----------C---C--C-------------------.
 |        /             C                        /

[...]

Density initialized from wave functions
   /       |            C                         |
  /        |   C  C  C    C   CC                  |
 *      C  |C       C   CC   C    C   C  C  C     |
 |         |        C  C       C                  |
 |         .-----------C---C--C-------------------.
 |        /             C                        /

[...]

Density initialized from wave functions
   /       |            C                         |
  /        |      C  C    C   C                   |
 *      C  |C  C    C   CC   C C  C   C  C  C     |
 |         |        C  C       C                  |
 |         .------------C--C--C-------------------.
 |        /             C                        /

[...]

Density initialized from wave functions
   /       |            C                         |
  /        |      C  C    C   C                   |
 *      C  |C  C    C   CC   C C  C   C  C  C     |
 |         |        C  C       C                  |
 |         .-----------C---C--C-------------------.
 |        /             C                        /

[...]

Density initialized from wave functions
   /       |            C                         |
  /        |      C  C    C   C                   |
 *      C  |C  C    C   CC   C C  C   C  C  C     |
 |         |        C  C       C                  |
 |         .-----------C---C--C-------------------.
 |        /             C                        /

[...]

Density initialized from wave functions
   /       |            C                         |
  /        |      C  C    C   C                   |
 *      C  |C  C    C   CC   C C  C   C  C  C     |
 |         |        C  C       C                  |
 |         .------------C--C--C-------------------.
 |        /             C                        /

[...]

Density initialized from wave functions
   /       |            C                         |
  /        |      C  C    C   C                   |
 *      C  |C  C    C   C    C C  C   C  C  C     |
 |         |        C  C C     C                  |
 |         .------------C--C--C-------------------.
 |        /             C                        /

[...]

Density initialized from wave functions
   /       |            C                         |
  /        |      C  C    C   CC                  |
 *      C  |C  C    C   CC   C    C   C  C  C     |
 |         |        C  C       C                  |
 |         .-----------C---C--C-------------------.
 |        /             C                        /

[...]

Density initialized from wave functions
   /       |            C                         |
  /        |      C  C    C   CC                  |
 *      C  |C  C    C   C    C    C   C  C  C     |
 |         |        C  C C     C                  |
 |         .-----------C---C--C-------------------.
 |        /             C                        /

[...]

Density initialized from wave functions
   /       |            C                         |
  /        |      C  C    C   CC                  |
 *      C  |C  C    C   C    C    C   C  C  C     |
 |         |        C  C C     C                  |
 |         .------------C--C--C-------------------.
 |        /             C                        /

[...]

Density initialized from wave functions
   /       |            C                         |
  /        |      C  C    C   C                   |
 *      C  |C  C    C   C    C C  C   C  C  C     |
 |         |        C  C C     C                  |
 |         .------------C--C--C-------------------.
 |        /             C                        /

[...]

Density initialized from wave functions
   /       |            C                         |
  /        |      C  C    C   CC                  |
 *      C  |C  C    C   CC   C    C   C  C  C     |
 |         |        C  C       C                  |
 |         .------------C--C--C-------------------.
 |        /             C                        /

[...]

Density initialized from wave functions
   /       |            C                         |
  /        |      C  C    C   CC                  |
 *      C  C   C    C   CC   C    C   C  C  C     |
 |         |        C  C       C                  |
 |         .------------C--C--C-------------------.
 |        /             C                        /

[...]

Density initialized from wave functions
   /       |            C                         |
  /        |      C  C    C   CC                  |
 *      C  |C  C    C   C    C    C   C  C  C     |
 |         |        C  C C     C                  |
 |         .------------C--C--C-------------------.
 |        /             C                        /

[...]

Density initialized from wave functions
   /       |            C                         |
  /        |      C  C    C   CC                  |
 *      C  C   C    C   CC   C    C   C  C  C     |
 |         |        C  C       C                  |
 |         .------------C--C--C-------------------.
 |        /             C                        /

[...]

System changes: positions

Initializing position-dependent things.

Density initialized from wave functions
   /       |            C                         |
  /        |      C  C    C   CC                  |
 *      C  |C  C    C   CC   C    C   C  C  C     |
 |         |        C  C       C                  |
 |         .------------C--C--C-------------------.
 |        /             C                        /

Positions:
   0 C      4.809473    8.730636    5.944479
   1 C      6.673323   10.353221    6.021586
   2 C      5.452478   10.006230    5.997847
   3 C      9.276578    9.707953    6.003242
   4 C      5.978757    6.301302    5.870054
   5 C      7.300438    8.195112    5.954643
   6 C      9.514846    7.351815    5.908871
   7 C      8.175755    7.079734    5.917241
   8 C      5.917332    7.736814    5.921873
   9 C     10.160209    8.639563    5.951182
  10 C      7.858722    9.571390    6.000240
  11 C      7.346239    5.855587    5.871384
  12 C      8.664966    3.423374    5.881232
  13 C      8.052500    4.645598    5.865072
  14 C      9.655059    4.430621    5.847129
  15 C     10.790188    6.629399    5.877278
  16 C     10.685980    5.254493    5.828222
  17 C     11.537768    7.903609    5.918578
  18 C      2.147426    8.427615    5.936267
  19 C     14.172743    8.235896    5.946683
  20 C     15.519692    8.311128    5.949798
  21 C      0.794758    8.355952    5.940198
  22 C     12.900491    8.155860    5.936830
  23 C      3.411945    8.508362    5.933704

Unit cell:
           periodic     x           y           z      points  spacing
  1. axis:    yes   16.000000    0.000000    0.000000    80     0.2000
  2. axis:    yes    0.000000   16.000000    0.000000    80     0.2000
  3. axis:    yes    0.000000    0.000000   10.000000    48     0.2083

Effective grid spacing dv^(1/3) = 0.2027

                     log10-error:    total        iterations:
           time      wfs    density  energy       fermi  poisson
iter:   1  12:18:23          +inf  -185.208236    2      4
iter:   2  12:18:24         -2.33  -185.186554    2      2
iter:   3  12:18:24         -2.71  -185.183486    2      1
iter:   4  12:18:25         -3.48  -185.184404    2      1
iter:   5  12:18:25         -3.48  -185.184691    2      1
iter:   6  12:18:26         -3.41  -185.186146    2      1
iter:   7  12:18:26         -2.87  -185.185397    2      1
iter:   8  12:18:27         -3.25  -185.184723    2      1
iter:   9  12:18:28         -3.96  -185.184703    2      1
iter:  10  12:18:28         -3.59  -185.184673    2      1
iter:  11  12:18:29         -4.32  -185.184469    2      1

Converged after 11 iterations.

Dipole moment: (10.927329, 0.131553, -0.001489) |e|*Ang

Energy contributions relative to reference atoms: (reference = -24663.074771)

Kinetic:        +98.794313
Potential:     -111.150978
External:        +0.000000
XC:            -175.710389
Entropy (-ST):   -0.251072
Local:           +3.008121
Free energy:   -185.310005
Extrapolated:  -185.184469

Fermi level: -4.55079

 Band  Eigenvalues  Occupancy
    0    -23.19663    2.00000
    1    -22.64662    2.00000
    2    -22.13314    2.00000
    3    -20.83006    2.00000
    4    -20.33025    2.00000
    5    -19.89968    2.00000
    6    -19.45691    2.00000
    7    -19.30507    2.00000
    8    -18.37102    2.00000
    9    -18.12924    2.00000
   10    -18.11792    2.00000
   11    -17.71393    2.00000
   12    -16.51083    2.00000
   13    -16.31809    2.00000
   14    -15.50016    2.00000
   15    -15.04395    2.00000
   16    -14.76472    2.00000
   17    -14.03525    2.00000
   18    -13.65020    2.00000
   19    -13.00906    2.00000
   20    -12.88180    2.00000
   21    -12.30187    2.00000
   22    -11.43974    2.00000
   23    -11.11485    2.00000
   24    -10.73236    2.00000
   25    -10.68350    2.00000
   26    -10.60982    2.00000
   27    -10.14890    2.00000
   28     -9.89586    2.00000
   29     -9.75898    2.00000
   30     -9.63550    2.00000
   31     -9.35713    2.00000
   32     -9.02411    2.00000
   33     -8.90874    2.00000
   34     -8.64072    2.00000
   35     -8.36192    2.00000
   36     -7.96314    2.00000
   37     -7.60060    2.00000
   38     -7.36149    2.00000
   39     -6.91114    2.00000
   40     -6.36354    2.00000
   41     -6.15965    2.00000
   42     -5.95274    2.00000
   43     -5.54995    1.99991
   44     -5.53767    1.99990
   45     -5.52718    1.99989
   46     -4.86141    1.91429
   47     -4.68419    1.58299
   48     -4.44170    0.50288
   49     -3.57594    0.00012
   50     -3.46991    0.00004
   51     -2.91945    0.00000
   52     -2.72398    0.00000
   53     -2.34248    0.00000
   54     -1.50880    0.00000
   55     -1.36029    0.00000
   56     -0.77444    0.00000
   57      0.39830    0.00000
   58      0.76948    0.00000
   59      1.18486    0.00000
[...]
   83      8.63982    0.00000
   84      8.71898    0.00000
   85      8.92578    0.00000
   86      8.98834    0.00000
   87      9.13648    0.00000
   88      9.45445    0.00000
   89      9.54345    0.00000
   90      9.57105    0.00000
   91      9.64992    0.00000
   92      9.70622    0.00000
   93      9.74833    0.00000
   94      9.91423    0.00000
   95      9.92286    0.00000
   96     10.05278    0.00000
   97     10.46691    0.00000

Forces in eV/Ang:
  0 C    -0.00011    0.02192    0.04125
  1 C    -0.01963   -0.00582   -0.01076
  2 C     0.02046    0.02840    0.00509
  3 C    -0.02266   -0.05966   -0.00031
  4 C    -0.06626   -0.06251    0.00108
  5 C    -0.02111   -0.00423   -0.02516
  6 C     0.03770   -0.00244    0.01315
  7 C    -0.01956   -0.00161   -0.03701
  8 C     0.00723   -0.01752    0.00700
  9 C    -0.01570   -0.02469   -0.00901
 10 C    -0.03736   -0.04235   -0.00755
 11 C     0.00128   -0.02063   -0.00457
 12 C    -0.04598   -0.07620   -0.01377
 13 C     0.00721    0.01583    0.01224
 14 C    -0.01531    0.04036    0.00166
 15 C     0.02650    0.07103    0.00587
 16 C    -0.03827    0.03663    0.01855
 17 C     0.01108   -0.02530    0.01322
 18 C    -0.00068    0.02571   -0.00582
 19 C    -0.01519    0.00201   -0.01208
 20 C    -0.00602   -0.00056   -0.02508
 21 C    -0.00198    0.00557    0.00758
 22 C     0.02408    0.00291    0.00468
 23 C    -0.01958   -0.01666   -0.00479