User:   esb@s65n31.grendel.cscaa.dk
Date:   Thu Nov  9 10:22:42 2017
Arch:   x86_64
Pid:    16597
Python: 2.7.13
gpaw:   /home/esb/DFT/gpaw_git/gpaw
_gpaw:  /home/esb/DFT/gpaw_git/build/bin.linux-x86_64-2.7/gpaw-python
ase:    /home/esb/DFT/ase_git/ase (version 3.15.0b1)
numpy:  /comm/swstack/core/python/2.7.13/lib/python2.7/site-packages/numpy (version 1.13.3)
scipy:  /comm/swstack/core/python/2.7.13/lib/python2.7/site-packages/scipy (version 0.19.1)
units:  Angstrom and eV
cores:  16
Extra parameters: {'blacs': True}

Input parameters:
  basis: dzp
  gpts: [80 80 48]
  kpts: [1 1 1]
  maxiter: 99
  mixer: {backend: pulay,
          beta: 0.05,
          method: separate,
          nmaxold: 5,
          weight: 75}
  mode: lcao
  nbands: -50
  occupations: {name: fermi-dirac,
                width: 0.1}
  poissonsolver: {eps: 1e-07,
                  name: fd,
                  nn: 3,
                  relax: GS}
  xc: PBE

System changes: positions, numbers, cell, pbc, initial_charges, initial_magmoms

Initialize ...

C-setup:
  name: Carbon
  id: 4aa54d4b901d75f77cc0ea3eec22967b
  Z: 6
  valence: 4
  core: 2
  charge: 0.0
  file: /home/esb/DFT/gpaw-setups-0.8.7929/C.PBE.gz
  cutoffs: 0.64(comp), 1.14(filt), 1.14(core), lmax=2
  valence states:
                energy  radius
    2s(2.00)   -13.751   0.635
    2p(2.00)    -5.284   0.635
    *s          13.461   0.635
    *p          21.927   0.635
    *d           0.000   0.635

  LCAO basis set for C:
    Name: dzp
    File: /home/esb/DFT/gpaw-setups-0.8.7929/C.dzp.basis.gz
    Number of radial functions: 5
    Number of spherical harmonics: 13
      l=0, rc=5.5469 Bohr: 2s-sz confined orbital
      l=1, rc=6.6719 Bohr: 2p-sz confined orbital
      l=0, rc=3.0312 Bohr: 2s-dz split-valence wave
      l=1, rc=3.7500 Bohr: 2p-dz split-valence wave
      l=2, rc=6.6719 Bohr: d-type Gaussian polarization

Reference energy: -24663.074771

Spin-paired calculation

Occupation numbers:
  Fermi-Dirac: width=0.1000 eV

Convergence criteria:
  Maximum total energy change: 0.0005 eV / electron
  Maximum integral of absolute density change: 0.0001 electrons
  Maximum integral of absolute eigenstate change: 4e-08 eV^2
  Maximum number of iterations: 99

Symmetries present (total): 1

  ( 1  0  0)
  ( 0  1  0)
  ( 0  0  1)

1 k-point (Gamma)
1 k-point in the irreducible part of the Brillouin zone
       k-points in crystal coordinates                weights
   0:     0.00000000    0.00000000    0.00000000          1/1

Wave functions: LCAO
  Diagonalizer: Serial LAPACK
  Atomic Correction: dense with blas
  Datatype: float
  Eigensolver: None

LCAO using direct dense diagonalizer

Densities:
  Coarse grid: 80*80*48 grid
  Fine grid: 160*160*96 grid
  Total Charge: 0.000000

Density mixing:
  Method: separate
  Backend: pulay
  Linear mixing parameter: 0.05
  Mixing with 5 old densities
  Damping of long wave oscillations: 75

Hamiltonian:
  XC and Coulomb potentials evaluated on a 160*160*96 grid
  Using the PBE Exchange-Correlation functional
  Interpolation: tri-quintic (5. degree polynomial)
  Poisson solver: Gauss-Seidel solver with 6 multi-grid levels
    Coarsest grid: 5 x 5 x 3 points
    Stencil: 6*3+1=19 point O(h^6) finite-difference Laplacian
    Max iterations: 1000
    Tolerance: 1.000000e-07

Total number of cores used: 16
Domain decomposition: 2 x 4 x 2

Number of atoms: 24
Number of atomic orbitals: 312
Number of bands in calculation: 98
Bands to converge: occupied states only
Number of valence electrons: 96

... initialized

Initializing position-dependent things.

Density initialized from atomic densities
    /      |          C     C                     |
   /       |       C     C    C                   |
  /        |     C                                |
 *         |  C     C   C    C                    |
 |         | C            C     C                 |
 |         .---C---C-C---C-C---C------------------.
 |        /    C    C     C                      /
 |       /       C     C                        /

Positions:
   0 C      5.610078    3.318896    5.305737
   1 C      8.244528    3.229307    5.229574
   2 C      6.950910    3.769821    5.309245
   3 C      4.616837    4.088007    5.355297
   4 C      9.289009    3.933811    5.174407
   5 C      7.010492    5.237664    5.381104
   6 C      4.474201    5.498887    5.461761
   7 C      9.501709    5.328032    5.187972
   8 C      5.833599    6.079579    5.484298
   9 C      3.259175    6.251518    5.560335
  10 C      8.217251    6.019402    5.321390
  11 C     10.747157    6.005169    5.043671
  12 C      6.080192    9.874989    7.191632
  13 C      8.704438    9.643089    7.074532
  14 C      7.348772    9.318309    6.905297
  15 C      4.993071    9.334874    6.864587
  16 C      9.648265    8.943898    6.615586
  17 C      7.211565    8.041776    6.187722
  18 C      4.661754    8.114458    6.214144
  19 C      9.674644    7.739735    5.881711
  20 C      5.930896    7.436467    5.874614
  21 C      3.355259    7.591477    5.945781
  22 C      8.306127    7.258843    5.677922
  23 C     10.824526    7.084133    5.354041

Unit cell:
           periodic     x           y           z      points  spacing
  1. axis:    yes   16.000000    0.000000    0.000000    80     0.2000
  2. axis:    yes    0.000000   16.000000    0.000000    80     0.2000
  3. axis:    yes    0.000000    0.000000   10.000000    48     0.2083

Effective grid spacing dv^(1/3) = 0.2027

                     log10-error:    total        iterations:
           time      wfs    density  energy       fermi  poisson
iter:   1  10:22:44          +inf  -189.758090    2      6
iter:   2  10:22:44         -0.90  -188.870841    3      3
iter:   3  10:22:45         -0.93  -185.179985    34     4
iter:   4  10:22:46         -1.30  -185.386318    3      2
iter:   5  10:22:46         -1.27  -184.675589    7      3
iter:   6  10:22:47         -1.58  -184.715907    3      3
iter:   7  10:22:48         -1.63  -184.626426    4      3
iter:   8  10:22:48         -2.04  -184.600176    3      2
iter:   9  10:22:49         -2.10  -184.533319    4      2
iter:  10  10:22:50         -2.31  -184.535946    2      2
iter:  11  10:22:50         -2.42  -184.524169    3      2
iter:  12  10:22:51         -2.69  -184.527263    3      2
iter:  13  10:22:52         -2.83  -184.523909    3      2
iter:  14  10:22:52         -2.97  -184.521392    2      2
iter:  15  10:22:53         -3.15  -184.521094    2      1
iter:  16  10:22:54         -3.20  -184.513727    2      1
iter:  17  10:22:54         -3.46  -184.521866    2      1
iter:  18  10:22:55         -3.79  -184.521447    2      1
iter:  19  10:22:56         -3.86  -184.520997    2      1
iter:  20  10:22:56         -3.92  -184.521350    2      1
iter:  21  10:22:57         -4.10  -184.521446    2      1

Converged after 21 iterations.

Dipole moment: (0.162910, 0.004174, -0.061468) |e|*Ang

Energy contributions relative to reference atoms: (reference = -24663.074771)

Kinetic:       +142.871046
Potential:     -143.887544
External:        +0.000000
XC:            -186.533592
Entropy (-ST):   -0.041394
Local:           +3.049341
Free energy:   -184.542143
Extrapolated:  -184.521446

Fermi level: -4.59580

 Band  Eigenvalues  Occupancy
    0    -23.09363    2.00000
    1    -22.01883    2.00000
    2    -21.72180    2.00000
    3    -20.77000    2.00000
    4    -20.43335    2.00000
    5    -20.35368    2.00000
    6    -19.35474    2.00000
    7    -18.71818    2.00000
    8    -18.67917    2.00000
    9    -17.97450    2.00000
   10    -17.55857    2.00000
   11    -17.48510    2.00000
   12    -15.71870    2.00000
   13    -15.39329    2.00000
   14    -15.35579    2.00000
   15    -15.09395    2.00000
   16    -14.82596    2.00000
   17    -12.89200    2.00000
   18    -12.74425    2.00000
   19    -12.58753    2.00000
   20    -12.43234    2.00000
   21    -12.39044    2.00000
   22    -11.99737    2.00000
   23    -11.22274    2.00000
   24    -11.00848    2.00000
   25    -10.97192    2.00000
   26    -10.78801    2.00000
   27    -10.72809    2.00000
   28     -9.96731    2.00000
   29     -9.72038    2.00000
   30     -9.48810    2.00000
   31     -9.44827    2.00000
   32     -9.12659    2.00000
   33     -8.38563    2.00000
   34     -8.11737    2.00000
   35     -8.07777    2.00000
   36     -7.02696    2.00000
   37     -6.85337    2.00000
   38     -6.54176    2.00000
   39     -6.52732    2.00000
   40     -6.38757    2.00000
   41     -6.33548    2.00000
   42     -6.17383    2.00000
   43     -6.13994    2.00000
   44     -6.02582    2.00000
   45     -5.90527    2.00000
   46     -5.20614    1.99554
   47     -4.99431    1.96350
   48     -4.20906    0.04097
   49     -3.08068    0.00000
   50     -2.98383    0.00000
   51     -2.61397    0.00000
   52     -2.58175    0.00000
   53     -2.39620    0.00000
   54     -2.21825    0.00000
   55     -2.05513    0.00000
   56     -1.17440    0.00000
   57     -1.08074    0.00000
   58     -0.76894    0.00000
   59      0.56369    0.00000
[...]
   83      9.24394    0.00000
   84      9.36109    0.00000
   85      9.41880    0.00000
   86      9.65255    0.00000
   87      9.66060    0.00000
   88      9.72600    0.00000
   89      9.82480    0.00000
   90      9.87539    0.00000
   91      9.96541    0.00000
   92     10.25217    0.00000
   93     10.33553    0.00000
   94     10.42006    0.00000
   95     10.52831    0.00000
   96     10.56950    0.00000
   97     10.63308    0.00000

Forces in eV/Ang:
  0 C     0.05530    0.07939    0.01185
  1 C     0.09741   -0.01987   -0.04122
  2 C    -0.04475   -0.01934   -0.10745
  3 C    -0.03469    0.19740   -0.06338
  4 C    -0.11922    0.17960   -0.10442
  5 C    -0.80466    0.90100   -0.34735
  6 C    -1.50709   -1.95814   -0.55093
  7 C     1.09451   -3.88879   -1.54956
  8 C    -0.73457   -0.72617    0.22501
  9 C     2.05208    6.36646    1.85284
 10 C     0.50520   -7.43627   -1.47531
 11 C    -2.08092  -15.01368   -4.04314
 12 C     0.02809   -0.08549   -0.03028
 13 C     0.08637    0.00901   -0.00446
 14 C    -0.05263    0.04974   -0.09572
 15 C    -0.05861   -0.13998   -0.15073
 16 C    -0.14294   -0.06744   -0.17885
 17 C    -0.88470   -0.45625   -0.74046
 18 C    -1.23015    2.13891    0.64945
 19 C     1.66447    3.90868    0.69616
 20 C    -0.63990    0.56512    0.62364
 21 C     1.12672   -6.59249   -1.86477
 22 C     1.54709    6.97583    2.67242
 23 C     0.07573   14.99158    4.61361

System changes: positions

[...]

Density initialized from wave functions
    /      |          C     C                     |
   /       |       C     C    C                   |
  /        |     C                                |
 *         |  C     C   C    C                    |
 |         | C            C     C                 |
 |         .---C---C-C---C-C---C------------------.
 |        /    C    C     C                      /
 |       /       C     C                        /

[...]

Density initialized from wave functions
    /      |          C     C                     |
   /       |       C     C    C                   |
  /        |     C                                |
 *         |  C     C   C    C                    |
 |         | C            C     C                 |
 |         .---C---C-C---C-C---C------------------.
 |        /    C    C     C                      /
 |       /       C     C                        /

[...]

Density initialized from wave functions
    /      |          C     C                     |
   /       |       C     C    C                   |
  /        |     C                                |
 *         |  C     C   C     C                   |
 |         | C            C     C                 |
 |         .---C---C-C---C-----C------------------.
 |        /    C    C     CC                     /
 |       /       C     C                        /

[...]

Density initialized from wave functions
    /      |          C     C                     |
   /       |       C     C    C                   |
  /        |     C                                |
 *         |  C     C   C     C                   |
 |         | C            C     C                 |
 |         .---C---C-C---C-----C------------------.
 |        /    C    C     C C                    /
 |       /       C     C                        /

[...]

Density initialized from wave functions
    /      |          C     C                     |
   /       |       C     C    C                   |
  /        |     C                                |
 *         |  C     C   C     C                   |
 |         | C            C     C                 |
 |         .---C---C-C---C-----C------------------.
 |        /    C    C     C C                    /
 |       /       C     C                        /

[...]

Density initialized from wave functions
    /      |          C     C                     |
   /       |       C     C    C                   |
  /        |     C                                |
 *         |  C     C   C     C                   |
 |         | C            C     C                 |
 |         .---C---C-C---C-----C------------------.
 |        /    C    C      C                     /
 |       /       C     C  C                     /

[...]

Density initialized from wave functions
    /      |          C     C                     |
   /       |       C     C    C                   |
  /        |     C                                |
 *         |  C     C   C     C                   |
 |         | C            C     C                 |
 |         .---C---C-C---C-----C------------------.
 |        /    C    C      C                     /
 |       /       C     C  C                     /

[...]

Density initialized from wave functions
    /      |          C     C                     |
   /       |       C     C    C                   |
  /        |     C                                |
 *         |  C     C   C C   C                   |
 |         | C                  C                 |
 |         .---C---C-C---C-----C------------------.
 |        /    C    C      C                     /
 |       /       C     C  C                     /

[...]

Density initialized from wave functions
    /      |          C     C                     |
   /       |       C     C    C                   |
  /        |      C                               |
 *         |  C     C   C C   C                   |
 |         | C                  C                 |
 |         .---C---C-C---C-----C------------------.
 |        /    C    C      C                     /
 |       /       C     C  C                     /

[...]

Density initialized from wave functions
    /      |          C     C                     |
   /       |       C     C    C                   |
  /        |      C     C                         |
 *         |  C     C     C   C                   |
 |         | C                  C                 |
 |         .---C---C-C---C-----C------------------.
 |        /    C    C      C                     /
 |       /       C     C  C                     /

[...]

Density initialized from wave functions
    /      |          C                           |
   /       |       C     C  C C                   |
  /        |      C     C                         |
 *         |  C     C     C   C                   |
 |         | C     C            C                 |
 |         .---C-----C---C-----C------------------.
 |        /    C    C      C                     /
 |       /       C     C  C                     /

[...]

Density initialized from wave functions
    /      |          C                           |
   /       |       C     C  C C                   |
  /        |     C      C                         |
 *         |  C     C     C   C                   |
 |         | C     C            C                 |
 |         .---C-----C---C-----C------------------.
 |        /    C    C      C                     /
 |       /       C     C  C                     /

[...]

Density initialized from wave functions
    /      |          C                           |
   /       |       C     C  C C                   |
  /        |     C      C                         |
 *         |  C     C     C   C                   |
 |         | C     C            C                 |
 |         .---C-----C---C-----C------------------.
 |        /    C           C                     /
 |       /       C  C  C  C                     /

[...]

Density initialized from wave functions
    /      |          C                           |
   /       |       C     C  C C                   |
  /        |     C      C                         |
 *         |  C     C     C   C                   |
 |         | C     C            C                 |
 |         .---C-----C---C-----C------------------.
 |        /    C           C                     /
 |       /       C  C  C  C                     /

[...]

Density initialized from wave functions
    /      |          C                           |
   /       |       C     C  C C                   |
  /        |     C                                |
 *         |  C     C   C C   C                   |
 |         | C     C            C                 |
 |         .---C-----C---C-----C------------------.
 |        /    C           C                     /
 |       /       C  C  C  C                     /

[...]

System changes: positions

Initializing position-dependent things.

Density initialized from wave functions
    /      |          C                           |
   /       |       C     C  C C                   |
  /        |     C                                |
 *         |  C     C   C C   C                   |
 |         | C     C            C                 |
 |         .---C-----C---C-----C------------------.
 |        /    C           C                     /
 |       /       C  C  C  C                     /

Positions:
   0 C      5.548347    3.356786    4.939193
   1 C      8.125382    3.193699    4.772432
   2 C      6.878563    3.785099    5.003931
   3 C      4.509351    4.021253    5.177771
   4 C      9.254909    3.733691    4.872528
   5 C      6.994755    5.226605    5.413361
   6 C      4.436854    5.364954    5.565157
   7 C      9.547810    5.049461    5.246283
   8 C      5.792656    6.002502    5.695625
   9 C      3.396027    6.249711    5.869571
  10 C      8.308609    5.846477    5.541365
  11 C     10.715932    5.805012    5.393940
  12 C      6.081774   10.034463    6.912614
  13 C      8.658455    9.887700    6.722931
  14 C      7.330424    9.452124    6.667602
  15 C      4.949593    9.500842    6.807264
  16 C      9.694564    9.229946    6.455859
  17 C      7.216732    8.018755    6.230304
  18 C      4.661639    8.191085    6.405778
  19 C      9.771382    7.891246    6.055786
  20 C      5.903413    7.396757    6.106901
  21 C      3.487354    7.449353    6.229489
  22 C      8.419114    7.244377    5.946798
  23 C     10.809828    7.008931    5.740239

Unit cell:
           periodic     x           y           z      points  spacing
  1. axis:    yes   16.000000    0.000000    0.000000    80     0.2000
  2. axis:    yes    0.000000   16.000000    0.000000    80     0.2000
  3. axis:    yes    0.000000    0.000000   10.000000    48     0.2083

Effective grid spacing dv^(1/3) = 0.2027

                     log10-error:    total        iterations:
           time      wfs    density  energy       fermi  poisson
iter:   1  10:27:48          +inf  -188.456462    1      4
iter:   2  10:27:49         -3.35  -188.456485    1      1
iter:   3  10:27:50         -3.42  -188.456825    1      1
iter:   4  10:27:50         -3.67  -188.456585    1      1
iter:   5  10:27:51         -3.94  -188.456417    1      1
iter:   6  10:27:52         -4.04  -188.456096    1      1

Converged after 6 iterations.

Dipole moment: (0.005535, -0.001476, -0.000723) |e|*Ang

Energy contributions relative to reference atoms: (reference = -24663.074771)

Kinetic:       +116.174611
Potential:     -125.448973
External:        +0.000000
XC:            -182.237356
Entropy (-ST):   -0.000394
Local:           +3.055819
Free energy:   -188.456293
Extrapolated:  -188.456096

Fermi level: -4.17305

 Band  Eigenvalues  Occupancy
    0    -22.45218    2.00000
    1    -21.66001    2.00000
    2    -21.65593    2.00000
    3    -20.53663    2.00000
    4    -20.53450    2.00000
    5    -19.82210    2.00000
    6    -19.42792    2.00000
    7    -18.85241    2.00000
    8    -17.99832    2.00000
    9    -17.99582    2.00000
   10    -17.65522    2.00000
   11    -17.64822    2.00000
   12    -15.65720    2.00000
   13    -15.65130    2.00000
   14    -15.08576    2.00000
   15    -14.84452    2.00000
   16    -14.84054    2.00000
   17    -13.29895    2.00000
   18    -12.51010    2.00000
   19    -12.47543    2.00000
   20    -12.46410    2.00000
   21    -12.43258    2.00000
   22    -12.11223    2.00000
   23    -11.36453    2.00000
   24    -11.35654    2.00000
   25    -10.83156    2.00000
   26    -10.83021    2.00000
   27    -10.35456    2.00000
   28     -9.75632    2.00000
   29     -9.49965    2.00000
   30     -9.49534    2.00000
   31     -9.35633    2.00000
   32     -9.35241    2.00000
   33     -8.28612    2.00000
   34     -8.28303    2.00000
   35     -7.82046    2.00000
   36     -6.89837    2.00000
   37     -6.69602    2.00000
   38     -6.49429    2.00000
   39     -6.41708    2.00000
   40     -6.41327    2.00000
   41     -6.29313    2.00000
   42     -6.28994    2.00000
   43     -6.17245    2.00000
   44     -6.17106    2.00000
   45     -6.14433    2.00000
   46     -5.17713    1.99991
   47     -5.17545    1.99991
   48     -3.17707    0.00009
   49     -3.09381    0.00004
   50     -3.08995    0.00004
   51     -2.64901    0.00000
   52     -2.46231    0.00000
   53     -2.45149    0.00000
   54     -2.20327    0.00000
   55     -2.20138    0.00000
   56     -1.06843    0.00000
   57     -1.06491    0.00000
   58     -0.90351    0.00000
   59      0.60148    0.00000
[...]
   83      9.36163    0.00000
   84      9.36309    0.00000
   85      9.38419    0.00000
   86      9.39408    0.00000
   87      9.49459    0.00000
   88      9.83612    0.00000
   89      9.83798    0.00000
   90      9.94628    0.00000
   91      9.95924    0.00000
   92      9.98087    0.00000
   93     10.25007    0.00000
   94     10.51927    0.00000
   95     10.52073    0.00000
   96     10.55357    0.00000
   97     10.88163    0.00000

Forces in eV/Ang:
  0 C    -0.02248   -0.02049   -0.02809
  1 C     0.00765   -0.01201    0.00139
  2 C    -0.00838    0.06272   -0.01675
  3 C     0.05931    0.03493   -0.01352
  4 C    -0.00731   -0.03131    0.00831
  5 C    -0.00209    0.01138    0.08545
  6 C     0.00496   -0.02480    0.01690
  7 C    -0.02994    0.03040   -0.03885
  8 C    -0.01426    0.01713   -0.02019
  9 C     0.04366   -0.00697   -0.00113
 10 C    -0.01249    0.07378   -0.01608
 11 C     0.01342    0.03785    0.03691
 12 C     0.00087    0.00262    0.01075
 13 C     0.02282    0.00390   -0.01622
 14 C    -0.00892   -0.02337   -0.04074
 15 C     0.04535   -0.01268   -0.01792
 16 C    -0.01587   -0.00111    0.02699
 17 C    -0.01980   -0.04820    0.07194
 18 C     0.01645    0.01341    0.02916
 19 C    -0.03871   -0.02216    0.02042
 20 C    -0.02897   -0.01341   -0.00564
 21 C     0.04817    0.00999    0.00542
 22 C    -0.04382   -0.02670   -0.07964
 23 C     0.00165   -0.04587   -0.01118