User:   esb@s65n32.grendel.cscaa.dk
Date:   Thu Nov  9 12:18:44 2017
Arch:   x86_64
Pid:    24941
Python: 2.7.13
gpaw:   /home/esb/DFT/gpaw_git/gpaw
_gpaw:  /home/esb/DFT/gpaw_git/build/bin.linux-x86_64-2.7/gpaw-python
ase:    /home/esb/DFT/ase_git/ase (version 3.15.0b1)
numpy:  /comm/swstack/core/python/2.7.13/lib/python2.7/site-packages/numpy (version 1.13.3)
scipy:  /comm/swstack/core/python/2.7.13/lib/python2.7/site-packages/scipy (version 0.19.1)
units:  Angstrom and eV
cores:  16
Extra parameters: {'blacs': True}

Input parameters:
  basis: dzp
  gpts: [80 80 48]
  kpts: [1 1 1]
  maxiter: 99
  mixer: {backend: pulay,
          beta: 0.05,
          method: separate,
          nmaxold: 5,
          weight: 75}
  mode: lcao
  nbands: -50
  occupations: {name: fermi-dirac,
                width: 0.1}
  poissonsolver: {eps: 1e-07,
                  name: fd,
                  nn: 3,
                  relax: GS}
  xc: PBE

System changes: positions, numbers, cell, pbc, initial_charges, initial_magmoms

Initialize ...

C-setup:
  name: Carbon
  id: 4aa54d4b901d75f77cc0ea3eec22967b
  Z: 6
  valence: 4
  core: 2
  charge: 0.0
  file: /home/esb/DFT/gpaw-setups-0.8.7929/C.PBE.gz
  cutoffs: 0.64(comp), 1.14(filt), 1.14(core), lmax=2
  valence states:
                energy  radius
    2s(2.00)   -13.751   0.635
    2p(2.00)    -5.284   0.635
    *s          13.461   0.635
    *p          21.927   0.635
    *d           0.000   0.635

  LCAO basis set for C:
    Name: dzp
    File: /home/esb/DFT/gpaw-setups-0.8.7929/C.dzp.basis.gz
    Number of radial functions: 5
    Number of spherical harmonics: 13
      l=0, rc=5.5469 Bohr: 2s-sz confined orbital
      l=1, rc=6.6719 Bohr: 2p-sz confined orbital
      l=0, rc=3.0312 Bohr: 2s-dz split-valence wave
      l=1, rc=3.7500 Bohr: 2p-dz split-valence wave
      l=2, rc=6.6719 Bohr: d-type Gaussian polarization

Reference energy: -24663.074771

Spin-paired calculation

Occupation numbers:
  Fermi-Dirac: width=0.1000 eV

Convergence criteria:
  Maximum total energy change: 0.0005 eV / electron
  Maximum integral of absolute density change: 0.0001 electrons
  Maximum integral of absolute eigenstate change: 4e-08 eV^2
  Maximum number of iterations: 99

Symmetries present (total): 1

  ( 1  0  0)
  ( 0  1  0)
  ( 0  0  1)

1 k-point (Gamma)
1 k-point in the irreducible part of the Brillouin zone
       k-points in crystal coordinates                weights
   0:     0.00000000    0.00000000    0.00000000          1/1

Wave functions: LCAO
  Diagonalizer: Serial LAPACK
  Atomic Correction: dense with blas
  Datatype: float
  Eigensolver: None

LCAO using direct dense diagonalizer

Densities:
  Coarse grid: 80*80*48 grid
  Fine grid: 160*160*96 grid
  Total Charge: 0.000000

Density mixing:
  Method: separate
  Backend: pulay
  Linear mixing parameter: 0.05
  Mixing with 5 old densities
  Damping of long wave oscillations: 75

Hamiltonian:
  XC and Coulomb potentials evaluated on a 160*160*96 grid
  Using the PBE Exchange-Correlation functional
  Interpolation: tri-quintic (5. degree polynomial)
  Poisson solver: Gauss-Seidel solver with 6 multi-grid levels
    Coarsest grid: 5 x 5 x 3 points
    Stencil: 6*3+1=19 point O(h^6) finite-difference Laplacian
    Max iterations: 1000
    Tolerance: 1.000000e-07

Total number of cores used: 16
Domain decomposition: 2 x 4 x 2

Number of atoms: 24
Number of atomic orbitals: 312
Number of bands in calculation: 98
Bands to converge: occupied states only
Number of valence electrons: 96

... initialized

Initializing position-dependent things.

Density initialized from atomic densities
   /       |       C  C C                         |
 *         |  C  C  C   C C   C  C                |
 |         | C       C         CC                 |
 |         .---C---C-C---C--C---------------------.
 |        /    C    C  C  C                      /
 |       /       C                              /

Positions:
   0 C      9.644548    4.963294    5.710608
   1 C      8.387290    5.767807    5.739398
   2 C      9.325852    3.600795    5.620624
   3 C      6.076450   10.028271    6.405105
   4 C      7.202682    9.440296    6.355272
   5 C      7.347650    8.020837    6.139902
   6 C      8.499610    7.221027    5.905503
   7 C     10.861554    5.678438    5.808082
   8 C     11.060165    6.944995    5.620661
   9 C     10.976895    8.380292    5.419584
  10 C      9.790447    7.794679    5.739512
  11 C      4.701446   10.032858    6.419206
  12 C      5.476498    8.663424    5.469577
  13 C      5.734965    6.061961    5.476717
  14 C      6.143599    7.460102    5.647753
  15 C      6.913151    5.270855    5.515602
  16 C      3.395840    6.555813    5.470555
  17 C      4.543724    4.118332    5.250547
  18 C      4.391481    5.522692    5.375846
  19 C      5.607596    3.415962    5.249252
  20 C      3.303562    7.801998    5.647414
  21 C      6.956709    3.831346    5.385978
  22 C      8.304040    3.323138    5.459763
  23 C      4.068121    8.990518    5.680862

Unit cell:
           periodic     x           y           z      points  spacing
  1. axis:    yes   16.000000    0.000000    0.000000    80     0.2000
  2. axis:    yes    0.000000   16.000000    0.000000    80     0.2000
  3. axis:    yes    0.000000    0.000000   10.000000    48     0.2083

Effective grid spacing dv^(1/3) = 0.2027

                     log10-error:    total        iterations:
           time      wfs    density  energy       fermi  poisson
iter:   1  12:18:45          +inf  -183.237068    2      6
iter:   2  12:18:46         -0.90  -182.379596    4      3
iter:   3  12:18:47         -0.93  -178.788909    31     4
iter:   4  12:18:47         -1.24  -178.563616    32     3
iter:   5  12:18:48         -1.48  -178.522571    4      3
iter:   6  12:18:49         -1.63  -178.467881    2      3
iter:   7  12:18:49         -1.80  -178.445260    3      3
iter:   8  12:18:50         -2.00  -178.423106    3      2
iter:   9  12:18:51         -2.24  -178.413666    3      2
iter:  10  12:18:51         -2.47  -178.408135    2      2
iter:  11  12:18:52         -2.56  -178.408378    2      2
iter:  12  12:18:53         -2.67  -178.411025    2      2
iter:  13  12:18:53         -2.80  -178.409473    2      2
iter:  14  12:18:54         -2.92  -178.416036    2      1
iter:  15  12:18:54         -3.08  -178.410578    2      1
iter:  16  12:18:55         -3.15  -178.412332    2      1
iter:  17  12:18:56         -3.24  -178.410595    2      1
iter:  18  12:18:56         -3.30  -178.403055    2      1
iter:  19  12:18:57         -3.37  -178.404389    2      1
iter:  20  12:18:57         -3.44  -178.409746    2      1
iter:  21  12:18:58         -3.61  -178.406994    2      1
iter:  22  12:18:59         -3.83  -178.408540    2      1
iter:  23  12:18:59         -3.96  -178.408690    2      1
iter:  24  12:19:00         -4.09  -178.407497    2      1

Converged after 24 iterations.

Dipole moment: (-0.186306, -0.422138, -0.077191) |e|*Ang

Energy contributions relative to reference atoms: (reference = -24663.074771)

Kinetic:       +143.213567
Potential:     -139.765882
External:        +0.000000
XC:            -184.788601
Entropy (-ST):   -0.114474
Local:           +2.990656
Free energy:   -178.464734
Extrapolated:  -178.407497

Fermi level: -3.70207

 Band  Eigenvalues  Occupancy
    0    -23.46866    2.00000
    1    -23.10390    2.00000
    2    -22.49600    2.00000
    3    -21.64930    2.00000
    4    -21.20624    2.00000
    5    -20.23598    2.00000
    6    -19.65134    2.00000
    7    -19.40034    2.00000
    8    -18.88632    2.00000
    9    -18.48409    2.00000
   10    -18.15379    2.00000
   11    -16.86250    2.00000
   12    -16.28401    2.00000
   13    -15.68688    2.00000
   14    -15.58670    2.00000
   15    -15.45539    2.00000
   16    -14.14975    2.00000
   17    -13.58059    2.00000
   18    -13.03513    2.00000
   19    -12.79592    2.00000
   20    -12.75130    2.00000
   21    -12.33199    2.00000
   22    -12.00402    2.00000
   23    -11.25657    2.00000
   24    -11.01377    2.00000
   25    -10.80932    2.00000
   26    -10.69942    2.00000
   27    -10.45918    2.00000
   28    -10.16952    2.00000
   29     -9.90315    2.00000
   30     -9.83433    2.00000
   31     -9.33574    2.00000
   32     -9.17346    2.00000
   33     -9.05968    2.00000
   34     -8.72941    2.00000
   35     -8.24726    2.00000
   36     -7.83206    2.00000
   37     -7.20078    2.00000
   38     -7.16309    2.00000
   39     -6.87488    2.00000
   40     -6.65407    2.00000
   41     -6.52972    2.00000
   42     -6.31305    2.00000
   43     -6.11112    2.00000
   44     -5.74652    2.00000
   45     -5.56158    2.00000
   46     -4.18989    1.98489
   47     -3.96620    1.86695
   48     -3.44336    0.13995
   49     -3.09423    0.00457
   50     -3.06668    0.00347
   51     -2.75818    0.00016
   52     -2.32156    0.00000
   53     -2.03052    0.00000
   54     -1.80008    0.00000
   55     -1.66769    0.00000
   56     -1.64520    0.00000
   57     -0.84270    0.00000
   58     -0.17498    0.00000
   59      0.45068    0.00000
[...]
   83      9.00636    0.00000
   84      9.02686    0.00000
   85      9.09137    0.00000
   86      9.32223    0.00000
   87      9.37110    0.00000
   88      9.40681    0.00000
   89      9.47970    0.00000
   90      9.58444    0.00000
   91      9.88367    0.00000
   92      9.94828    0.00000
   93      9.97514    0.00000
   94     10.10925    0.00000
   95     10.19983    0.00000
   96     10.25167    0.00000
   97     10.47682    0.00000

Forces in eV/Ang:
  0 C    -0.12590    2.38067    0.23146
  1 C    -1.24234    1.40659   -0.87848
  2 C    23.26275    6.13415    3.50583
  3 C    -2.56733   -1.62155   -2.61977
  4 C     4.02984   -0.79703    1.54839
  5 C     3.03081   -0.58345   -0.67443
  6 C     0.70097    0.26567    0.71282
  7 C     0.07879   -0.55827    0.17496
  8 C    -0.03413    0.25120   -0.04828
  9 C     0.16186   -0.04779   -0.14452
 10 C    -0.31988   -0.12908    0.48664
 11 C    -2.39152    1.40624    1.43882
 12 C    -3.94013   -0.25200   -0.83287
 13 C     1.84563    1.35156    0.21622
 14 C    -1.68679    1.09720    0.49646
 15 C     4.60230   -1.11055    0.58875
 16 C    -0.42840   -0.54922   -0.04860
 17 C     0.00250   -0.04605    0.04154
 18 C     0.10631    0.37866   -0.04288
 19 C     0.02862    0.03432    0.02746
 20 C     0.05320    0.33906   -0.16846
 21 C    -0.90806   -0.88928   -0.19254
 22 C   -26.16999   -8.31596   -3.90180
 23 C     1.88801   -0.16283    0.05380

System changes: positions

[...]

Density initialized from wave functions
   /       |       C  C C                         |
 *         |  C  C  C   C C   C  C                |
 |         | C       C         CC                 |
 |         .---C---C-C---C--C---------------------.
 |        /    C    C  C  C                      /
 |       /       C                              /

[...]

Density initialized from wave functions
   /       |       C  C  C                        |
 *         |  C C  C    C C   C  C                |
 |         | C       C         CC                 |
 |         .---C---C-C---C--C---------------------.
 |        /    C    C  C  C                      /
 |       /       C                              /

[...]

Density initialized from wave functions
   /       |       C     C                        |
  /        |          C                           |
 *         |  C C  C    C C   C  C                |
 |         | C       C         CC                 |
 |         .---C---C-C---C--C---------------------.
 |        /    C    C     C                      /
 |       /       C     C                        /

[...]

Density initialized from wave functions
   /       |      C      C                        |
  /        |          C                           |
 *         |  C C  C    C C   C  C                |
 |         | C       C         CC                 |
 |         .---C---C--C--C--C---------------------.
 |        /    C    C     C                      /
 |       /       C     C                        /

[...]

Density initialized from wave functions
   /       |      C      C                        |
  /        |          C                           |
 *         |  C C  C    C C   C  C                |
 |         | C       C         CC                 |
 |         .---C---C--C--C--C---------------------.
 |        /    C    C     C                      /
 |       /       C     C                        /

[...]

Density initialized from wave functions
   /       |      C      C                        |
  /        |          C                           |
 *         |  C C  C    C C   C  C                |
 |         | C       C          C                 |
 |         .---C---C--C--C--C--C------------------.
 |        /    C    C     C                      /
 |       /       C     C                        /

[...]

Density initialized from wave functions
   /       |      C      C                        |
  /        |          C                           |
 *         |  C C  C    C C   C  C                |
 |         | C       C          C                 |
 |         .----C--C--C--C--C--C------------------.
 |        /    C    C     C                      /
 |       /       C     C                        /

[...]

Density initialized from wave functions
   /       |      C      C                        |
  /        |          C                           |
 *         |  C C  C    C C   C  C                |
 |         | C       C          C                 |
 |         .----C--C--C--C--C--C------------------.
 |        /    C    C     C                      /
 |       /       C     C                        /

[...]

Density initialized from wave functions
   /       |      C      C                        |
  /        |          C                           |
 *         |  C C  C    C C   C  C                |
 |         | C       C          C                 |
 |         .---C---C--C--C--C--C------------------.
 |        /    C    C     C                      /
 |       /       C     C                        /

[...]

Density initialized from wave functions
   /       |      C      C                        |
  /        |    C     C                           |
 *         |  C    C    C C   C  C                |
 |         | C       C          C                 |
 |         .---C---C--C--C--C--C------------------.
 |        /    C    C     C                      /
 |       /       C     C                        /

[...]

Density initialized from wave functions
   /       |      C      C                        |
  /        |    C     C                           |
 *         |  C    C    C C   C  C                |
 |         | C       C          C                 |
 |         .---C---C--C--C--C--C------------------.
 |        /    C    C     C                      /
 |       /       C     C                        /

[...]

Density initialized from wave functions
   /       |      C                               |
  /        |    C     C  C                        |
 *         |  C    C    C C   C  C                |
 |         | C       C          C                 |
 |         .---C---C--C--C--C--C------------------.
 |        /    C C  C     C                      /
 |       /             C                        /

[...]

Density initialized from wave functions
   /       |      C                               |
  /        |    C     C  C                        |
 *         |  C    C    C     C  C                |
 |         | C       C    C    CC                 |
 |         .---C---C--C--C--C---------------------.
 |        /    C C  C     C                      /
 |       /             C                        /

[...]

System changes: positions

Initializing position-dependent things.

Density initialized from wave functions
   /       |      C                               |
  /        |    C     C  C                        |
 *         |  C    C    C     C  C                |
 |         | C       C    C    CC                 |
 |         .---C---C--C--C--C---------------------.
 |        /    C C  C     C                      /
 |       /             C                        /

Positions:
   0 C      9.629360    5.006721    5.623177
   1 C      8.396527    5.852459    5.559812
   2 C      9.273596    3.643924    5.548805
   3 C      5.930448    9.861388    6.017806
   4 C      7.238961    9.530332    6.253662
   5 C      7.424214    8.146875    5.827085
   6 C      8.566394    7.298107    5.773176
   7 C     10.873166    5.627427    5.827652
   8 C     11.124708    6.906321    5.843333
   9 C     11.141897    8.343225    5.841774
  10 C      9.884593    7.803604    5.872176
  11 C      4.595983    9.986323    6.615142
  12 C      5.268478    8.648049    5.413640
  13 C      5.889892    6.132870    5.415636
  14 C      6.145307    7.538251    5.510116
  15 C      7.067019    5.267776    5.423057
  16 C      3.408802    6.508738    5.586116
  17 C      4.554594    4.201800    5.354748
  18 C      4.492461    5.598710    5.434160
  19 C      5.544318    3.416604    5.313394
  20 C      3.211750    7.726025    5.836037
  21 C      6.892685    3.787658    5.366234
  22 C      8.136754    3.122861    5.427532
  23 C      3.934927    8.940134    5.824557

Unit cell:
           periodic     x           y           z      points  spacing
  1. axis:    yes   16.000000    0.000000    0.000000    80     0.2000
  2. axis:    yes    0.000000   16.000000    0.000000    80     0.2000
  3. axis:    yes    0.000000    0.000000   10.000000    48     0.2083

Effective grid spacing dv^(1/3) = 0.2027

                     log10-error:    total        iterations:
           time      wfs    density  energy       fermi  poisson
iter:   1  12:24:20          +inf  -183.212034    2      5
iter:   2  12:24:20         -2.63  -183.214223    2      1
iter:   3  12:24:21         -2.90  -183.215831    2      1
iter:   4  12:24:21         -3.13  -183.214545    2      1
iter:   5  12:24:22         -3.27  -183.214573    2      1
iter:   6  12:24:23         -3.46  -183.215059    2      1
iter:   7  12:24:23         -3.51  -183.213695    2      1
iter:   8  12:24:24         -3.61  -183.214595    2      1
iter:   9  12:24:24         -3.87  -183.215115    2      1
iter:  10  12:24:25         -3.96  -183.214549    2      1
iter:  11  12:24:26         -4.27  -183.215093    2      1

Converged after 11 iterations.

Dipole moment: (0.002921, -0.636033, -0.262548) |e|*Ang

Energy contributions relative to reference atoms: (reference = -24663.074771)

Kinetic:       +115.191214
Potential:     -121.878335
External:        +0.000000
XC:            -179.420352
Entropy (-ST):   -0.183642
Local:           +2.984201
Free energy:   -183.306914
Extrapolated:  -183.215093

Fermi level: -4.01192

 Band  Eigenvalues  Occupancy
    0    -23.52122    2.00000
    1    -23.08734    2.00000
    2    -22.34767    2.00000
    3    -21.33694    2.00000
    4    -21.06373    2.00000
    5    -20.21947    2.00000
    6    -19.45361    2.00000
    7    -19.39930    2.00000
    8    -18.99581    2.00000
    9    -18.24300    2.00000
   10    -17.53729    2.00000
   11    -17.23930    2.00000
   12    -16.09890    2.00000
   13    -15.82926    2.00000
   14    -15.29697    2.00000
   15    -15.27419    2.00000
   16    -14.23489    2.00000
   17    -13.28029    2.00000
   18    -13.01478    2.00000
   19    -12.67176    2.00000
   20    -12.40321    2.00000
   21    -12.38405    2.00000
   22    -11.57519    2.00000
   23    -11.14544    2.00000
   24    -10.95269    2.00000
   25    -10.81770    2.00000
   26    -10.69782    2.00000
   27    -10.18878    2.00000
   28    -10.11959    2.00000
   29    -10.06108    2.00000
   30     -9.80160    2.00000
   31     -9.42888    2.00000
   32     -9.34454    2.00000
   33     -8.92653    2.00000
   34     -8.76693    2.00000
   35     -8.47340    2.00000
   36     -7.86268    2.00000
   37     -7.15622    2.00000
   38     -6.93611    2.00000
   39     -6.69663    2.00000
   40     -6.62890    2.00000
   41     -6.58207    2.00000
   42     -6.30118    2.00000
   43     -6.10392    2.00000
   44     -5.58627    2.00000
   45     -5.38254    2.00000
   46     -4.67968    1.99749
   47     -4.17910    1.68361
   48     -3.84004    0.30404
   49     -3.51662    0.01403
   50     -3.21708    0.00071
   51     -3.03478    0.00011
   52     -2.85984    0.00002
   53     -2.61169    0.00000
   54     -2.21510    0.00000
   55     -1.80035    0.00000
   56     -1.67352    0.00000
   57     -0.67674    0.00000
   58      0.03023    0.00000
   59      0.48869    0.00000
[...]
   83      8.91839    0.00000
   84      9.01973    0.00000
   85      9.09274    0.00000
   86      9.22023    0.00000
   87      9.27972    0.00000
   88      9.49268    0.00000
   89      9.65708    0.00000
   90      9.71122    0.00000
   91      9.77527    0.00000
   92     10.00285    0.00000
   93     10.10067    0.00000
   94     10.20767    0.00000
   95     10.26535    0.00000
   96     10.35746    0.00000
   97     10.46370    0.00000

Forces in eV/Ang:
  0 C     0.01280   -0.02803    0.02519
  1 C     0.02620    0.01685    0.02896
  2 C    -0.03422   -0.06630   -0.04659
  3 C    -0.01499   -0.00166   -0.03110
  4 C    -0.01147    0.00755   -0.00925
  5 C    -0.05343    0.01179   -0.03315
  6 C    -0.04030    0.02131    0.02395
  7 C     0.02256   -0.01648   -0.01128
  8 C    -0.02061   -0.02847    0.01214
  9 C     0.01329    0.07020   -0.01239
 10 C    -0.02487   -0.06652    0.06444
 11 C    -0.01809   -0.00750   -0.01702
 12 C     0.01164    0.02224   -0.06464
 13 C     0.01214   -0.00689    0.01538
 14 C    -0.02695   -0.00081   -0.03476
 15 C     0.05732    0.00961    0.00711
 16 C     0.00280    0.01103    0.05236
 17 C     0.01679   -0.00257   -0.00062
 18 C    -0.00720   -0.02082   -0.02833
 19 C    -0.00895   -0.02583    0.00035
 20 C     0.03777    0.01145    0.01541
 21 C     0.02149   -0.00524   -0.00025
 22 C    -0.00205   -0.00598   -0.02705
 23 C     0.00448   -0.01235    0.04499