User:   esb@s65n22.grendel.cscaa.dk
Date:   Thu Nov  9 10:32:42 2017
Arch:   x86_64
Pid:    68119
Python: 2.7.13
gpaw:   /home/esb/DFT/gpaw_git/gpaw
_gpaw:  /home/esb/DFT/gpaw_git/build/bin.linux-x86_64-2.7/gpaw-python
ase:    /home/esb/DFT/ase_git/ase (version 3.15.0b1)
numpy:  /comm/swstack/core/python/2.7.13/lib/python2.7/site-packages/numpy (version 1.13.3)
scipy:  /comm/swstack/core/python/2.7.13/lib/python2.7/site-packages/scipy (version 0.19.1)
units:  Angstrom and eV
cores:  16
Extra parameters: {'blacs': True}

Input parameters:
  basis: dzp
  gpts: [80 80 48]
  kpts: [1 1 1]
  maxiter: 99
  mixer: {backend: pulay,
          beta: 0.05,
          method: separate,
          nmaxold: 5,
          weight: 75}
  mode: lcao
  nbands: -50
  occupations: {name: fermi-dirac,
                width: 0.1}
  poissonsolver: {eps: 1e-07,
                  name: fd,
                  nn: 3,
                  relax: GS}
  xc: PBE

System changes: positions, numbers, cell, pbc, initial_charges, initial_magmoms

Initialize ...

C-setup:
  name: Carbon
  id: 4aa54d4b901d75f77cc0ea3eec22967b
  Z: 6
  valence: 4
  core: 2
  charge: 0.0
  file: /home/esb/DFT/gpaw-setups-0.8.7929/C.PBE.gz
  cutoffs: 0.64(comp), 1.14(filt), 1.14(core), lmax=2
  valence states:
                energy  radius
    2s(2.00)   -13.751   0.635
    2p(2.00)    -5.284   0.635
    *s          13.461   0.635
    *p          21.927   0.635
    *d           0.000   0.635

  LCAO basis set for C:
    Name: dzp
    File: /home/esb/DFT/gpaw-setups-0.8.7929/C.dzp.basis.gz
    Number of radial functions: 5
    Number of spherical harmonics: 13
      l=0, rc=5.5469 Bohr: 2s-sz confined orbital
      l=1, rc=6.6719 Bohr: 2p-sz confined orbital
      l=0, rc=3.0312 Bohr: 2s-dz split-valence wave
      l=1, rc=3.7500 Bohr: 2p-dz split-valence wave
      l=2, rc=6.6719 Bohr: d-type Gaussian polarization

Reference energy: -24663.074771

Spin-paired calculation

Occupation numbers:
  Fermi-Dirac: width=0.1000 eV

Convergence criteria:
  Maximum total energy change: 0.0005 eV / electron
  Maximum integral of absolute density change: 0.0001 electrons
  Maximum integral of absolute eigenstate change: 4e-08 eV^2
  Maximum number of iterations: 99

Symmetries present (total): 1

  ( 1  0  0)
  ( 0  1  0)
  ( 0  0  1)

1 k-point (Gamma)
1 k-point in the irreducible part of the Brillouin zone
       k-points in crystal coordinates                weights
   0:     0.00000000    0.00000000    0.00000000          1/1

Wave functions: LCAO
  Diagonalizer: Serial LAPACK
  Atomic Correction: dense with blas
  Datatype: float
  Eigensolver: None

LCAO using direct dense diagonalizer

Densities:
  Coarse grid: 80*80*48 grid
  Fine grid: 160*160*96 grid
  Total Charge: 0.000000

Density mixing:
  Method: separate
  Backend: pulay
  Linear mixing parameter: 0.05
  Mixing with 5 old densities
  Damping of long wave oscillations: 75

Hamiltonian:
  XC and Coulomb potentials evaluated on a 160*160*96 grid
  Using the PBE Exchange-Correlation functional
  Interpolation: tri-quintic (5. degree polynomial)
  Poisson solver: Gauss-Seidel solver with 6 multi-grid levels
    Coarsest grid: 5 x 5 x 3 points
    Stencil: 6*3+1=19 point O(h^6) finite-difference Laplacian
    Max iterations: 1000
    Tolerance: 1.000000e-07

Total number of cores used: 16
Domain decomposition: 2 x 4 x 2

Number of atoms: 24
Number of atomic orbitals: 312
Number of bands in calculation: 98
Bands to converge: occupied states only
Number of valence electrons: 96

... initialized

Initializing position-dependent things.

Density initialized from atomic densities
   /       |            C                         |
  /        |      C  C   C                        |
 *         |  C CC        C                       |
 |         | C       C   C C   C                  |
 |         .---C---C-C---C------C-----------------.
 |        /    C    C     C    C  C              /
 |       /             C                        /

Positions:
   0 C     11.052407    5.231061    4.462846
   1 C     12.041217    6.180850    4.463145
   2 C      3.868716   11.542594    4.966501
   3 C     11.075207    7.158035    4.579437
   4 C     10.068601    7.950586    4.695056
   5 C      4.040120   10.184405    5.011006
   6 C      7.656935   10.241733    4.775335
   7 C      7.654213    8.858196    4.828001
   8 C      6.312542   12.498341    4.745992
   9 C      5.041381   12.134258    4.838565
  10 C      8.701647    7.859182    4.774697
  11 C      7.079111   11.370885    4.744714
  12 C      9.289009    3.933811    5.174407
  13 C      3.537909    7.528178    5.687544
  14 C      5.833599    6.079579    5.484298
  15 C      8.244528    3.229307    5.229574
  16 C      4.474201    5.498887    5.461761
  17 C      8.217251    6.019402    5.321390
  18 C      6.313855    7.469667    5.597377
  19 C      6.950910    3.769821    5.309245
  20 C      4.071908    8.709465    5.847802
  21 C      4.616837    4.088007    5.355297
  22 C      3.259175    6.251518    5.560335
  23 C      7.010492    5.237664    5.381104

Unit cell:
           periodic     x           y           z      points  spacing
  1. axis:    yes   16.000000    0.000000    0.000000    80     0.2000
  2. axis:    yes    0.000000   16.000000    0.000000    80     0.2000
  3. axis:    yes    0.000000    0.000000   10.000000    48     0.2083

Effective grid spacing dv^(1/3) = 0.2027

                     log10-error:    total        iterations:
           time      wfs    density  energy       fermi  poisson
iter:   1  10:32:43          +inf  -168.356467    2      6
iter:   2  10:32:44         -0.90  -167.195696    3      3
iter:   3  10:32:45         -0.94  -165.261223    4      3
iter:   4  10:32:45         -1.08  -164.585905    33     3
iter:   5  10:32:46         -1.24  -164.437124    32     3
iter:   6  10:32:46         -1.46  -164.322735    4      3
iter:   7  10:32:47         -1.70  -164.297844    3      3
iter:   8  10:32:47         -1.86  -164.280902    3      2
iter:   9  10:32:48         -2.00  -164.270689    3      2
iter:  10  10:32:48         -2.11  -164.255815    3      2
iter:  11  10:32:49         -2.33  -164.253316    3      2
iter:  12  10:32:49         -2.45  -164.255613    3      2
iter:  13  10:32:50         -2.79  -164.250171    3      2
iter:  14  10:32:50         -2.92  -164.250178    2      1
iter:  15  10:32:51         -3.03  -164.246323    1      1
iter:  16  10:32:51         -3.21  -164.247390    2      1
iter:  17  10:32:52         -3.35  -164.246617    2      1
iter:  18  10:32:52         -3.52  -164.243601    2      1
iter:  19  10:32:53         -3.62  -164.246233    2      1
iter:  20  10:32:54         -3.65  -164.249529    2      1
iter:  21  10:32:54         -3.91  -164.246200    2      1
iter:  22  10:32:55         -4.02  -164.246778    2      1

Converged after 22 iterations.

Dipole moment: (0.032368, 0.710599, -0.044330) |e|*Ang

Energy contributions relative to reference atoms: (reference = -24663.074771)

Kinetic:        +57.795217
Potential:      -76.462599
External:        +0.000000
XC:            -148.283725
Entropy (-ST):   -0.287380
Local:           +2.848019
Free energy:   -164.390468
Extrapolated:  -164.246778

Fermi level: -4.60352

 Band  Eigenvalues  Occupancy
    0    -21.68886    2.00000
    1    -21.59552    2.00000
    2    -21.36175    2.00000
    3    -20.67444    2.00000
    4    -20.39149    2.00000
    5    -19.84651    2.00000
    6    -19.60539    2.00000
    7    -18.80524    2.00000
    8    -18.68931    2.00000
    9    -17.61037    2.00000
   10    -17.04571    2.00000
   11    -16.82385    2.00000
   12    -15.96761    2.00000
   13    -15.46980    2.00000
   14    -15.08997    2.00000
   15    -14.10465    2.00000
   16    -13.59937    2.00000
   17    -12.97945    2.00000
   18    -12.74791    2.00000
   19    -12.34700    2.00000
   20    -12.03350    2.00000
   21    -11.59664    2.00000
   22    -11.33240    2.00000
   23    -10.42165    2.00000
   24     -9.82406    2.00000
   25     -9.70947    2.00000
   26     -9.55538    2.00000
   27     -9.48771    2.00000
   28     -9.21965    2.00000
   29     -8.80533    2.00000
   30     -8.69090    2.00000
   31     -8.60929    2.00000
   32     -8.46291    2.00000
   33     -8.32855    2.00000
   34     -7.82720    2.00000
   35     -7.69408    2.00000
   36     -7.52307    2.00000
   37     -7.29035    2.00000
   38     -6.69249    2.00000
   39     -6.56300    2.00000
   40     -6.31454    2.00000
   41     -6.14225    2.00000
   42     -5.86614    1.99999
   43     -5.72960    1.99997
   44     -5.48661    1.99971
   45     -5.24799    1.99683
   46     -5.05104    1.97748
   47     -4.69412    1.42436
   48     -4.50045    0.52592
   49     -4.23932    0.05106
   50     -4.16514    0.02465
   51     -3.43029    0.00002
   52     -3.29903    0.00000
   53     -3.12219    0.00000
   54     -2.87525    0.00000
   55     -2.59966    0.00000
   56     -2.47618    0.00000
   57     -2.28844    0.00000
   58     -1.93204    0.00000
   59     -1.69233    0.00000
[...]
   83      8.01034    0.00000
   84      8.29801    0.00000
   85      8.61753    0.00000
   86      8.72917    0.00000
   87      8.78548    0.00000
   88      8.96039    0.00000
   89      9.17798    0.00000
   90      9.22938    0.00000
   91      9.26697    0.00000
   92      9.54137    0.00000
   93      9.60089    0.00000
   94      9.78553    0.00000
   95      9.84398    0.00000
   96      9.94920    0.00000
   97     10.07773    0.00000

Forces in eV/Ang:
  0 C     1.28196   -0.65315   -0.35014
  1 C    -1.61433   -1.05997    0.11981
  2 C     0.20163   -3.37030    0.39667
  3 C    -0.26310    0.45113    0.24774
  4 C    -0.41669   -0.17886   -0.59381
  5 C    -1.40653   -3.43282    2.97529
  6 C    -0.07950   -3.17674    0.02159
  7 C     0.53727   -1.79548    0.92348
  8 C    -0.29327   -1.02979   -0.23773
  9 C     1.51685    1.24899    0.00709
 10 C    -1.02438   -0.62358    1.39826
 11 C    -0.73255    1.65847    0.20835
 12 C     2.96273    2.91955    0.43516
 13 C    -0.76734    0.12812   -0.18753
 14 C     1.37383    4.08422   -0.19797
 15 C    -2.35860   -2.08594   -0.60591
 16 C     0.87925   -2.17162    0.07352
 17 C    -0.32568    0.36088   -0.58157
 18 C    -1.11357   -0.79608   -0.96258
 19 C    -0.35025    2.48897    0.38651
 20 C     0.83612    5.97585   -3.27062
 21 C     0.20765   -0.09616   -0.07296
 22 C     0.58612    0.16891    0.12615
 23 C     0.34978    0.92273   -0.29397

System changes: positions

[...]

Density initialized from wave functions
   /       |            C                         |
  /        |      C  C   C                        |
 *         |  C CC        C                       |
 |         | C       C   C C   C                  |
 |         .---C---C-C---C------C-----------------.
 |        /    C    C     C    C  C              /
 |       /             C                        /

[...]

Density initialized from wave functions
  /        |      C  C  CC                        |
 *         |  C CC        C                       |
 |         | C       C   C C  C                   |
[...]
 |       /             C                        /

[...]

Density initialized from wave functions
  /        |     CC  C  CC                        |
 *         |  C C         C                       |
 |         | C       C   C C  C                   |
 |         .---C---C--C--C------C-----------------.
 |        /    C    C     C    C  C              /
 |       /             C                        /

[...]

Density initialized from wave functions
  /        |     CC  C  CC                        |
 *         |  C C         C                       |
 |         | C       C   C C  C                   |
 |         .---C---C--C--C------C-----------------.
 |        /    C    C     C    C  C              /
 |       /             C                        /

[...]

Density initialized from wave functions
  /        |     CC  C  CC                        |
 *         |  C C         C                       |
 |         | C       C   C C  C                   |
 |         .---C---C--C--C------C-----------------.
 |        /    C    C     C       C              /
 |       /             C       C                /

[...]

Density initialized from wave functions
  /        |     CC  C  CC                        |
 *         |  C C         C                       |
 |         | C       C   C C  C                   |
 |         .----C--C--C--C------C-----------------.
 |        /    C     C    C       C              /
 |       /             C       C                /

[...]

Density initialized from wave functions
  /        |     CC  C  CC                        |
 *         |  C C         C                       |
 |         | C       C   C C  C                   |
 |         .----C--C--C--C------C-----------------.
 |        /    C     C    C       C              /
 |       /             C       C                /

[...]

Density initialized from wave functions
  /        |     CC  C  CC                        |
 *         |  C C         C                       |
 |         |  C    C C   C C  C                   |
 |         .----C-----C--C------C-----------------.
 |        /    C     C    C      C               /
 |       /             C       C                /

[...]

Density initialized from wave functions
  /        |     CC  C  CC                        |
 *         |  C C        C                        |
 |         |  C     CC   C C  C                   |
 |         .----C-----C--C------C-----------------.
 |        /    C     C    C      C               /
 |       /             C       C                /

[...]

Density initialized from wave functions
  /        |     CC  C  CC                        |
 *         |  C C        C                        |
 |         |  C     CC  C  C  C                   |
 |         .----C-----C--C------C-----------------.
 |        /     C    C    C      C               /
 |       /             C       C                /

[...]

Density initialized from wave functions
  /        |    C C  C  CC                        |
 *         |  C C        C                        |
 |         |  C     CC  C  C  C                   |
 |         .----C-----C--C------C-----------------.
 |        /     C    C    C      C               /
 |       /             C       C                /

[...]

Density initialized from wave functions
  /        |    C C  C  CC                        |
 *         |  C C        C                        |
 |         |  C     CC  C  C  C                   |
 |         .----C-----C--C------C-----------------.
 |        /     C    C     C    C                /
 |       /             C      C                 /

[...]

Density initialized from wave functions
  /        |    C C  C  CC                        |
 *         |  C C        C                        |
 |         |  C     CC  C  C  C                   |
 |         .----C-----C--C------C-----------------.
 |        /     C    C     C  C C                /
 |       /             C                        /

[...]

Density initialized from wave functions
  /        |    C C  C  CC                        |
 *         |    C        C                        |
 |         |  C     CC  C  C  C                   |
 |         .----C-----C--C------C-----------------.
 |        /     C    C     C  C C                /
 |       /             C                        /

[...]

Density initialized from wave functions
  /        |    C C  C  CC                        |
 *         |    C        C                        |
 |         |  C     CC  C  C  C                   |
 |         .----C-----C--C------C-----------------.
 |        /      C  C      C  C C                /
 |       /             C                        /

[...]

Density initialized from wave functions
  /        |    C C  C  C C                       |
 *         |    C        C                        |
 |         |  C     CC  C  C  C                   |
 |         .----C-----C--C------C-----------------.
 |        /      C  C     C   C C                /
 |       /             C                        /

[...]

Density initialized from wave functions
  /        |    C C  C  C C                       |
 *         |    C        C                        |
 |         |  C      C  C  C  C                   |
 |         .----C---C-C--C------C-----------------.
 |        /      C  C     C   C C                /
 |       /             C                        /

[...]

Density initialized from wave functions
  /        |    C C  C  C C                       |
 *         |     C        C                       |
 |         |  C      C  C  C  C                   |
 |         .----C---C-C--C------C-----------------.
 |        /      C  C     C   C C                /
 |       /             C                        /

[...]

Density initialized from wave functions
  /        |     CC  C  C C                       |
 *         |     C        C                       |
 |         |  C      C  C  C  C                   |
 |         .----C---C-C--C------C-----------------.
 |        /      C  C     C   C C                /
 |       /             C                        /

[...]

Density initialized from wave functions
  /        |     CC  C  C C                       |
 *         |     C        C                       |
 |         |  C     C   C  C  C                   |
 |         .----C---C-C--C------C-----------------.
 |        /      C  C     C   C C                /
 |       /             C                        /

[...]

Density initialized from wave functions
  /        |     CC  C  C C                       |
 *         |     C        C                       |
 |         |  C     C   C  C  C                   |
 |         .----C-----C--C------C-----------------.
 |        /      C  C     C   C C                /
 |       /             C                        /

[...]

Density initialized from wave functions
  /        |     CC  C  C C                       |
 *         |     C        C                       |
 |         |  C     C   C C   C                   |
 |         .----C-----C--C------C-----------------.
 |        /      C  C     C   C C                /
 |       /             C                        /

[...]

Density initialized from wave functions
  /        |     CC  C  C C                       |
 *         |     C        C                       |
 |         |  C    CC   C C   C                   |
 |         .----C-----C--C------C-----------------.
 |        /      C  C     C   C C                /
 |       /             C                        /

[...]

Density initialized from wave functions
  /        |      C  C  C C                       |
 *         |     C       C                        |
 |         |  C    CC   C C   C                   |
 |         .----C-----C--C------C-----------------.
 |        /      C  C     C   C C                /
 |       /             C                        /

[...]

Density initialized from wave functions
  /        |      CC C  C C                       |
 *         |     C       C                        |
 |         |  C    CC   C C   C                   |
 |         .----C-----C--C------C-----------------.
 |        /      C  C     C   C C                /
 |       /             C                        /

[...]

Density initialized from wave functions
  /        |      CC C  C C                       |
 *         |     C       C                        |
 |         |  C     C   C C   C                   |
 |         .----C--C--C--C------C-----------------.
 |        /      C  C     C   C C                /
 |       /             C                        /

[...]

Density initialized from wave functions
  /        |      CC C  C C                       |
 *         |     C       C                        |
 |         |  C     C   C C   C                   |
 |         .----C--C--C--C------C-----------------.
 |        /      C  C     C   C C                /
 |       /             C                        /

[...]

Density initialized from wave functions
  /        |       C C  C C                       |
 *         |     CC      C                        |
 |         |  C     C   C C   C                   |
 |         .----C--C--C--C------C-----------------.
 |        /      C  C     C   C C                /
 |       /             C                        /

[...]

Density initialized from wave functions
   /       |         C                            |
  /        |       C    C C                       |
 *         |     CC      C                        |
 |         |  C     C   C C   C                   |
 |         .----C--C--C--C------C-----------------.
 |        /      C  C     C   C C                /
 |       /             C                        /

[...]

Density initialized from wave functions
   /       |         C                            |
  /        |       C    C C                       |
 *         |     CC      C                        |
 |         |  C     C   C C   C                   |
 |         .----C--C--C--C------C-----------------.
 |        /      C  C     C   C C                /
 |       /             C                        /

[...]

Density initialized from wave functions
   /       |         C                            |
  /        |       C    C C                       |
 *         |     CC      C                        |
 |         |  C    CC   C C   C                   |
 |         .----C-----C--C------C-----------------.
 |        /      C  C     C   C C                /
 |       /             C                        /

[...]

System changes: positions

Initializing position-dependent things.

Density initialized from wave functions
   /       |         C                            |
  /        |       C    C C                       |
 *         |     CC      C                        |
 |         |  C    CC   C C   C                   |
 |         .----C-----C--C------C-----------------.
 |        /      C  C     C   C C                /
 |       /             C                        /

Positions:
   0 C     10.486459    5.016086    4.714107
   1 C     11.211015    6.057839    4.639721
   2 C      4.449652   11.113887    5.093536
   3 C     10.787728    7.351967    4.541084
   4 C      9.761772    8.076870    4.706313
   5 C      4.339759    9.874896    5.249214
   6 C      7.373965    9.815374    4.899789
   7 C      7.218196    8.411488    5.062982
   8 C      6.477199   12.064456    4.740466
   9 C      5.226181   12.240251    4.885411
  10 C      8.412316    7.584552    4.956171
  11 C      7.403044   11.066569    4.746576
  12 C      9.095463    4.828134    4.953643
  13 C      3.552642    7.476312    5.560722
  14 C      5.886144    6.427313    5.407618
  15 C      8.170770    3.771281    5.054252
  16 C      4.826527    5.435002    5.532305
  17 C      8.317345    6.147753    5.094961
  18 C      5.882047    7.828701    5.285486
  19 C      6.842802    4.199416    5.354229
  20 C      4.517900    8.483880    5.369292
  21 C      5.465243    4.101427    5.487940
  22 C      3.665292    6.200130    5.612699
  23 C      7.059040    5.676543    5.368332

Unit cell:
           periodic     x           y           z      points  spacing
  1. axis:    yes   16.000000    0.000000    0.000000    80     0.2000
  2. axis:    yes    0.000000   16.000000    0.000000    80     0.2000
  3. axis:    yes    0.000000    0.000000   10.000000    48     0.2083

Effective grid spacing dv^(1/3) = 0.2027

                     log10-error:    total        iterations:
           time      wfs    density  energy       fermi  poisson
iter:   1  10:43:18          +inf  -182.245091    3      4
iter:   2  10:43:18         -2.82  -182.245748    3      1
iter:   3  10:43:19         -3.02  -182.247506    3      1
iter:   4  10:43:19         -3.29  -182.246874    2      1
iter:   5  10:43:20         -3.53  -182.247367    2      1
iter:   6  10:43:20         -3.59  -182.246783    2      1
iter:   7  10:43:21         -3.69  -182.246412    2      1
iter:   8  10:43:22         -3.83  -182.246733    2      1
iter:   9  10:43:22         -4.09  -182.246531    2      1

Converged after 9 iterations.

Dipole moment: (0.249539, 0.191293, -0.025418) |e|*Ang

Energy contributions relative to reference atoms: (reference = -24663.074771)

Kinetic:       +109.764825
Potential:     -117.201848
External:        +0.000000
XC:            -177.734104
Entropy (-ST):   -0.217655
Local:           +3.033423
Free energy:   -182.355359
Extrapolated:  -182.246531

Fermi level: -4.26869

 Band  Eigenvalues  Occupancy
    0    -22.97342    2.00000
    1    -21.68717    2.00000
    2    -21.31553    2.00000
    3    -20.68525    2.00000
    4    -20.50140    2.00000
    5    -20.03992    2.00000
    6    -19.19957    2.00000
    7    -18.99937    2.00000
    8    -18.73781    2.00000
    9    -18.00648    2.00000
   10    -17.49820    2.00000
   11    -17.00309    2.00000
   12    -16.77486    2.00000
   13    -15.43881    2.00000
   14    -15.32311    2.00000
   15    -14.91405    2.00000
   16    -14.59750    2.00000
   17    -13.98070    2.00000
   18    -13.08686    2.00000
   19    -12.86204    2.00000
   20    -12.41651    2.00000
   21    -12.22398    2.00000
   22    -11.83129    2.00000
   23    -11.30685    2.00000
   24    -11.14685    2.00000
   25    -10.93307    2.00000
   26    -10.56731    2.00000
   27    -10.40555    2.00000
   28     -9.52407    2.00000
   29     -9.24746    2.00000
   30     -9.18597    2.00000
   31     -9.08358    2.00000
   32     -8.87332    2.00000
   33     -8.61848    2.00000
   34     -8.48765    2.00000
   35     -8.14341    2.00000
   36     -7.77595    2.00000
   37     -7.30260    2.00000
   38     -6.77706    2.00000
   39     -6.70016    2.00000
   40     -6.45871    2.00000
   41     -6.34790    2.00000
   42     -5.75518    2.00000
   43     -5.66891    2.00000
   44     -5.31499    1.99994
   45     -5.11190    1.99956
   46     -5.00472    1.99873
   47     -4.41343    1.61921
   48     -4.09579    0.30142
   49     -3.95233    0.08112
   50     -3.06163    0.00001
   51     -2.90532    0.00000
   52     -2.81900    0.00000
   53     -2.54215    0.00000
   54     -2.13063    0.00000
   55     -1.76601    0.00000
   56     -1.30883    0.00000
   57     -0.97371    0.00000
   58     -0.52069    0.00000
   59     -0.32148    0.00000
[...]
   83      9.11622    0.00000
   84      9.15655    0.00000
   85      9.31090    0.00000
   86      9.42160    0.00000
   87      9.46636    0.00000
   88      9.53729    0.00000
   89      9.71335    0.00000
   90      9.75472    0.00000
   91      9.84149    0.00000
   92      9.98575    0.00000
   93     10.25340    0.00000
   94     10.37425    0.00000
   95     10.43808    0.00000
   96     10.54254    0.00000
   97     10.73964    0.00000

Forces in eV/Ang:
  0 C    -0.05040    0.05585   -0.01702
  1 C     0.00135   -0.01481   -0.01590
  2 C     0.02641    0.00410    0.00060
  3 C    -0.02625   -0.02766   -0.00614
  4 C    -0.01249   -0.00349   -0.00060
  5 C    -0.02040    0.00219   -0.00665
  6 C     0.00168   -0.00090   -0.01434
  7 C     0.03970    0.02785   -0.01585
  8 C    -0.00133   -0.03720    0.00738
  9 C     0.01392    0.00957   -0.01222
 10 C     0.00908    0.02522   -0.01535
 11 C    -0.01393   -0.01010    0.03515
 12 C    -0.00385   -0.00352    0.00399
 13 C    -0.01388    0.00833   -0.01594
 14 C     0.01456    0.01520    0.02851
 15 C    -0.01120   -0.00451   -0.00192
 16 C     0.01925    0.00214    0.01525
 17 C    -0.01030    0.01552    0.01722
 18 C     0.02660    0.02752    0.00750
 19 C    -0.01125   -0.01425    0.01887
 20 C     0.00553    0.00948   -0.00952
 21 C     0.01751   -0.04042   -0.03188
 22 C     0.00564    0.01567   -0.00515
 23 C    -0.00500    0.01142    0.02702