User:   esb@s65n62.grendel.cscaa.dk
Date:   Wed Nov  8 15:13:06 2017
Arch:   x86_64
Pid:    41723
Python: 2.7.13
gpaw:   /home/esb/DFT/gpaw_git/gpaw
_gpaw:  /home/esb/DFT/gpaw_git/build/bin.linux-x86_64-2.7/gpaw-python
ase:    /home/esb/DFT/ase_git/ase (version 3.15.0b1)
numpy:  /comm/swstack/core/python/2.7.13/lib/python2.7/site-packages/numpy (version 1.13.3)
scipy:  /comm/swstack/core/python/2.7.13/lib/python2.7/site-packages/scipy (version 0.19.1)
units:  Angstrom and eV
cores:  16
Extra parameters: {'blacs': True}

Input parameters:
  basis: dzp
  gpts: [80 80 48]
  kpts: [1 1 1]
  maxiter: 99
  mixer: {backend: pulay,
          beta: 0.05,
          method: separate,
          nmaxold: 5,
          weight: 75}
  mode: lcao
  nbands: -50
  occupations: {name: fermi-dirac,
                width: 0.1}
  poissonsolver: {eps: 1e-07,
                  name: fd,
                  nn: 3,
                  relax: GS}
  xc: PBE

System changes: positions, numbers, cell, pbc, initial_charges, initial_magmoms

Initialize ...

C-setup:
  name: Carbon
  id: 4aa54d4b901d75f77cc0ea3eec22967b
  Z: 6
  valence: 4
  core: 2
  charge: 0.0
  file: /home/esb/DFT/gpaw-setups-0.8.7929/C.PBE.gz
  cutoffs: 0.64(comp), 1.14(filt), 1.14(core), lmax=2
  valence states:
                energy  radius
    2s(2.00)   -13.751   0.635
    2p(2.00)    -5.284   0.635
    *s          13.461   0.635
    *p          21.927   0.635
    *d           0.000   0.635

  LCAO basis set for C:
    Name: dzp
    File: /home/esb/DFT/gpaw-setups-0.8.7929/C.dzp.basis.gz
    Number of radial functions: 5
    Number of spherical harmonics: 13
      l=0, rc=5.5469 Bohr: 2s-sz confined orbital
      l=1, rc=6.6719 Bohr: 2p-sz confined orbital
      l=0, rc=3.0312 Bohr: 2s-dz split-valence wave
      l=1, rc=3.7500 Bohr: 2p-dz split-valence wave
      l=2, rc=6.6719 Bohr: d-type Gaussian polarization

Reference energy: -24663.074771

Spin-paired calculation

Occupation numbers:
  Fermi-Dirac: width=0.1000 eV

Convergence criteria:
  Maximum total energy change: 0.0005 eV / electron
  Maximum integral of absolute density change: 0.0001 electrons
  Maximum integral of absolute eigenstate change: 4e-08 eV^2
  Maximum number of iterations: 99

Symmetries present (total): 1

  ( 1  0  0)
  ( 0  1  0)
  ( 0  0  1)

1 k-point (Gamma)
1 k-point in the irreducible part of the Brillouin zone
       k-points in crystal coordinates                weights
   0:     0.00000000    0.00000000    0.00000000          1/1

Wave functions: LCAO
  Diagonalizer: Serial LAPACK
  Atomic Correction: dense with blas
  Datatype: float
  Eigensolver: None

LCAO using direct dense diagonalizer

Densities:
  Coarse grid: 80*80*48 grid
  Fine grid: 160*160*96 grid
  Total Charge: 0.000000

Density mixing:
  Method: separate
  Backend: pulay
  Linear mixing parameter: 0.05
  Mixing with 5 old densities
  Damping of long wave oscillations: 75

Hamiltonian:
  XC and Coulomb potentials evaluated on a 160*160*96 grid
  Using the PBE Exchange-Correlation functional
  Interpolation: tri-quintic (5. degree polynomial)
  Poisson solver: Gauss-Seidel solver with 6 multi-grid levels
    Coarsest grid: 5 x 5 x 3 points
    Stencil: 6*3+1=19 point O(h^6) finite-difference Laplacian
    Max iterations: 1000
    Tolerance: 1.000000e-07

Total number of cores used: 16
Domain decomposition: 2 x 4 x 2

Number of atoms: 24
Number of atomic orbitals: 312
Number of bands in calculation: 98
Bands to converge: occupied states only
Number of valence electrons: 96

... initialized

Initializing position-dependent things.

Density initialized from atomic densities
  /        |        C  C     C   C                |
 *         |  C  C        C    C                  |
 |         | C            CCCC                    |
 |         .-C-------C--CC------------------------.
 |        /     CCC C                            /

Positions:
   0 C      4.020475    9.233331    5.424068
   1 C      3.321391    8.181232    5.451071
   2 C      5.126119   10.011067    5.330030
   3 C      3.130963    6.847976    5.319013
   4 C      6.301023   10.443037    5.223881
   5 C      3.494879    5.646947    5.157590
   6 C      7.695759   10.379813    4.989030
   7 C      8.751582   11.266791    5.208853
   8 C      7.277075    7.948014    4.297466
   9 C      4.763503    5.073603    4.772189
  10 C      5.650033    5.950698    4.196641
  11 C      8.154275    8.995749    4.521513
  12 C      9.484119    4.624706    6.728233
  13 C      8.564716    3.758448    6.702646
  14 C     10.106669    5.809935    6.518881
  15 C      7.353456    3.286271    6.326918
  16 C     10.393585    6.990930    6.200771
  17 C      6.203688    3.362046    5.804179
  18 C     10.214080    8.255589    5.590150
  19 C     10.862637    9.486100    5.712759
  20 C      8.135802    7.223671    4.502444
  21 C      5.594714    4.372470    4.970598
  22 C      6.470714    5.258447    4.392536
  23 C      8.959955    8.316152    4.713828

Unit cell:
           periodic     x           y           z      points  spacing
  1. axis:    yes   16.000000    0.000000    0.000000    80     0.2000
  2. axis:    yes    0.000000   16.000000    0.000000    80     0.2000
  3. axis:    yes    0.000000    0.000000   10.000000    48     0.2083

Effective grid spacing dv^(1/3) = 0.2027

                     log10-error:    total        iterations:
           time      wfs    density  energy       fermi  poisson
iter:   1  15:13:08          +inf  -163.677238    2      6
iter:   2  15:13:08         -0.85  -161.919234    30     3
iter:   3  15:13:09         -0.88  -158.020264    32     3
iter:   4  15:13:10         -1.00  -155.837393    34     3
iter:   5  15:13:10         -1.20  -155.570502    33     3
iter:   6  15:13:11         -1.37  -155.415122    32     3
iter:   7  15:13:11         -1.47  -155.145164    4      3
iter:   8  15:13:12         -1.73  -155.165965    2      3
iter:   9  15:13:12         -1.83  -155.136253    3      3
iter:  10  15:13:13         -2.08  -155.124201    3      2
iter:  11  15:13:13         -2.21  -155.105169    3      2
iter:  12  15:13:14         -2.53  -155.108755    3      2
iter:  13  15:13:15         -2.66  -155.106280    3      2
iter:  14  15:13:15         -2.77  -155.103930    2      2
iter:  15  15:13:16         -2.83  -155.099223    3      2
iter:  16  15:13:16         -3.03  -155.098606    2      1
iter:  17  15:13:17         -3.16  -155.102002    2      2
iter:  18  15:13:17         -3.45  -155.101775    2      1
iter:  19  15:13:18         -3.53  -155.100167    2      1
iter:  20  15:13:18         -3.80  -155.102043    2      1
iter:  21  15:13:19         -3.84  -155.103039    2      1
iter:  22  15:13:19         -3.93  -155.101463    2      1
iter:  23  15:13:20         -4.07  -155.102076    2      1

Converged after 23 iterations.

Dipole moment: (-0.386565, -0.467379, -0.015765) |e|*Ang

Energy contributions relative to reference atoms: (reference = -24663.074771)

Kinetic:       +244.183204
Potential:     -210.968568
External:        +0.000000
XC:            -191.330576
Entropy (-ST):   -0.275945
Local:           +3.151837
Free energy:   -155.240048
Extrapolated:  -155.102076

Fermi level: -4.49471

 Band  Eigenvalues  Occupancy
    0    -26.61893    2.00000
    1    -26.48628    2.00000
    2    -20.61673    2.00000
    3    -20.57512    2.00000
    4    -20.22382    2.00000
    5    -20.20478    2.00000
    6    -19.41202    2.00000
    7    -19.32850    2.00000
    8    -18.42161    2.00000
    9    -18.17165    2.00000
   10    -17.73712    2.00000
   11    -16.94870    2.00000
   12    -16.57821    2.00000
   13    -16.10598    2.00000
   14    -15.45095    2.00000
   15    -15.00913    2.00000
   16    -14.81500    2.00000
   17    -13.88041    2.00000
   18    -13.83588    2.00000
   19    -13.23328    2.00000
   20    -13.00679    2.00000
   21    -12.66471    2.00000
   22    -12.20909    2.00000
   23    -11.85806    2.00000
   24    -11.71343    2.00000
   25    -11.39771    2.00000
   26    -10.49893    2.00000
   27    -10.19334    2.00000
   28     -9.13069    2.00000
   29     -9.02443    2.00000
   30     -8.92163    2.00000
   31     -8.89885    2.00000
   32     -8.34097    2.00000
   33     -8.14175    2.00000
   34     -7.57834    2.00000
   35     -7.55520    2.00000
   36     -7.25774    2.00000
   37     -7.16950    2.00000
   38     -7.09298    2.00000
   39     -6.68046    2.00000
   40     -6.30019    2.00000
   41     -5.93823    2.00000
   42     -5.73792    1.99999
   43     -5.55903    1.99995
   44     -5.45278    1.99986
   45     -5.15106    1.99718
   46     -5.08963    1.99480
   47     -4.57590    1.38502
   48     -4.40034    0.56031
   49     -4.15193    0.06288
   50     -3.18237    0.00000
   51     -3.01577    0.00000
   52     -2.88147    0.00000
   53     -2.44971    0.00000
   54     -2.42556    0.00000
   55     -2.16551    0.00000
   56     -1.69569    0.00000
   57     -1.03657    0.00000
   58     -0.93023    0.00000
   59     -0.47391    0.00000
[...]
   83      8.90002    0.00000
   84      9.04324    0.00000
   85      9.30848    0.00000
   86      9.36121    0.00000
   87      9.40542    0.00000
   88      9.42927    0.00000
   89      9.67844    0.00000
   90      9.74883    0.00000
   91      9.87489    0.00000
   92     10.01445    0.00000
   93     10.05660    0.00000
   94     10.08002    0.00000
   95     10.18692    0.00000
   96     10.33332    0.00000
   97     10.50219    0.00000

Forces in eV/Ang:
  0 C     0.14954    0.14454    0.07103
  1 C    -0.14978   -0.32506   -0.15047
  2 C     0.00421   -0.14553    0.00602
  3 C     0.02254    0.32619    0.22126
  4 C     0.12730    0.11384   -0.07420
  5 C     0.21989   -0.59541    0.07116
  6 C     1.00419    0.54027    0.15932
  7 C    -0.68770   -0.95270   -0.24189
  8 C   -17.27764    4.82297   -4.80466
  9 C   -28.90920   14.18599   -1.41235
 10 C   -12.76910   20.87670   -8.60624
 11 C   -22.14399   28.83949   -4.39151
 12 C     0.09000    0.18851    0.04191
 13 C    -0.22143   -0.21908   -0.14343
 14 C    -0.15279   -0.02610   -0.03973
 15 C     0.20894    0.08521    0.25089
 16 C     0.11463    0.13702   -0.06925
 17 C    -0.63669    0.09347   -0.14909
 18 C     0.32257    1.07774   -0.01213
 19 C    -0.73479   -0.90262   -0.25245
 20 C     8.16914  -16.66207    1.26749
 21 C    17.69179  -25.12410    9.69827
 22 C    23.91317  -10.06351    0.11979
 23 C    31.59119  -16.47123    8.44459

System changes: positions

[...]

Density initialized from wave functions
  /        |        C  C     C   C                |
 *         |  C  C        C    C                  |
 |         | C            CCCC                    |
 |         .-C-------C--CC------------------------.
 |        /     CCC C                            /

[...]

Density initialized from wave functions
  /        |        C  C     C   C                |
 *         |  C  C        C    C                  |
 |         | C            CCCC                    |
 |         .-C-------C--CC------------------------.
 |        /     CCC C                            /

[...]

Density initialized from wave functions
  /        |        C  C     C   C                |
 *         |  C  C        C    C                  |
 |         | C            CCCC                    |
 |         .-C-------C--CC------------------------.
 |        /     CCCCC                            /

[...]

Density initialized from wave functions
  /        |        C  C     C   C                |
 *         |  C  C        C    C                  |
 |         | C            CCCC                    |
 |         .-C-------C-CCC------------------------.
 |        /     CCCCC                            /

[...]

Density initialized from wave functions
  /        |        C  C  C  C   C                |
 *         |  C  C             C                  |
 |         | C            CCCC                    |
 |         .-C-------C-CCC------------------------.
 |        /     CCCCC                            /

[...]

Density initialized from wave functions
  /        |        C  C  C  C   C                |
 *         |  C  C             C                  |
 |         | C            CCCC                    |
 |         .-C-------C-CCC------------------------.
 |        /     C CC C                           /

[...]

Density initialized from wave functions
  /        |        C  C  C   C  C                |
 *         |  C  C             C                  |
 |         | C            CCCC                    |
 |         .-C-------C-CCC------------------------.
 |        /     C CC C                           /

[...]

Density initialized from wave functions
  /        |        C  C      C  C                |
 *         |  C  C        C    C                  |
 |         | C            CCCC                    |
 |         .-C-------C-CCC------------------------.
 |        /     C CC C                           /

[...]

Density initialized from wave functions
  /        |        C  C      C  C                |
 *         |  C  C        C    C                  |
 |         | C            CCCC                    |
 |         .-C-------C-CC-------------------------.
 |        /     C CC C   C                       /

[...]

Density initialized from wave functions
  /        |        C  C      C  C                |
 *         |  C  C        C    C                  |
 |         | C            CCCC                    |
 |         .-C-------C-CC-------------------------.
 |        /     C CC C   C                       /

[...]

Density initialized from wave functions
  /        |        C  C      C  C                |
 *         |  C  C        C    C                  |
 |         | C            CCCC                    |
 |         .-C-------CC-C-------------------------.
 |        /     C CC  C  C                       /

[...]

Density initialized from wave functions
  /        |        C  C      C  C                |
 *         |  C  C        C  C C                  |
 |         | C            CCC                     |
 |         .-C-------CC-C-------------------------.
 |        /     C CC  C C                        /

[...]

Density initialized from wave functions
  /        |        C  C      C  C                |
 *         |  C  C        C  C C                  |
 |         | C           C CC                     |
 |         .-C-------CC-C-------------------------.
 |        /     C CC  C C                        /

[...]

Density initialized from wave functions
  /        |        C  C      C  C                |
 *         |  C  C        C  C C                  |
 |         | C           C CC                     |
 |         .-C-------CC-C-------------------------.
 |        /     C CC  C C                        /

[...]

Density initialized from wave functions
  /        |        C  C      C  C                |
 *         |  C  C        C  C C                  |
 |         | C           C C                      |
 |         .-C-------CC-C-------------------------.
 |        /     C CC  C C                        /

[...]

Density initialized from wave functions
  /        |        C  C      C C                 |
 *         |  C  C        C  C C                  |
 |         | C           C C                      |
 |         .-C-------CC-C-------------------------.
 |        /      C CC C  C                       /

[...]

Density initialized from wave functions
  /        |        C  C      C C                 |
 *         |  C  C        C  CCC                  |
 |         | C           C C                      |
 |         .-C-------CC-C-------------------------.
 |        /      C CC C  C                       /

[...]

Density initialized from wave functions
  /        |        C  C      C C                 |
 *         |  C  C        C  CCC                  |
 |         | C           C C                      |
 |         .-C-------CC-C-------------------------.
 |        /      C CC C  C                       /

[...]

Density initialized from wave functions
  /        |        C  C      CC                  |
 *         |  C  C        C  CCC                  |
 |         | C           C C                      |
 |         .--C------CC-C-------------------------.
 |        /      C CC C  C                       /

[...]

Density initialized from wave functions
  /        |        C  C      CC                  |
 *         |  C  C        C  CCC                  |
 |         | C           C C                      |
 |         .--C------CC-C-------------------------.
 |        /      C CC C  C                       /

[...]

Density initialized from wave functions
  /        |        C  C     C C                  |
 *         |  C  C        C  CCC                  |
 |         | C           C C                      |
 |         .--C------CC-C-------------------------.
 |        /      C CC C  C                       /

[...]

Density initialized from wave functions
  /        |        C  C     C C                  |
 *         |  C  C        C  CCC                  |
 |         | C           C C                      |
 |         .--C------CC--C------------------------.
 |        /      C CC C  C                       /

[...]

Density initialized from wave functions
  /        |        C  C     C C                  |
 *         |  C  C        C  CCC                  |
 |         | C           C C                      |
 |         .--C------CC---------------------------.
 |        /      C CC C  C                       /

[...]

Density initialized from wave functions
  /        |        C  C     C C                  |
 *         |  C  C        C  CCC                  |
 |         | C           C C                      |
 |         .--C------CC---------------------------.
 |        /      C CC C  C                       /

[...]

Density initialized from wave functions
  /        |        C  C     C C                  |
 *         |  C  C        C  CCC                  |
 |         | C           C C                      |
 |         .--C------CC---------------------------.
 |        /      C C  C  C                       /

[...]

Density initialized from wave functions
  /        |        C  C     C C                  |
 *         |  C  C        C  CCC                  |
 |         | C           C C                      |
 |         .--C------CC---------------------------.
 |        /     C  C  C  C                       /

[...]

Density initialized from wave functions
  /        |        C  C     C C                  |
 *         |  C  C        C   CC                  |
 |         | C           C  C                     |
 |         .--C------CC----C----------------------.
 |        /     C  C  C C                        /

[...]

Density initialized from wave functions
  /        |     C  C  C     C C                  |
 *         |  C           C   CC                  |
 |         | C           C  C                     |
 |         .--C-------C----C----------------------.
 |        /     C  C  C C                        /

[...]

Density initialized from wave functions
  /        |     C  C  C     C C                  |
 *         |  C           C   CC                  |
 |         | C           C  C                     |
 |         .--C-------C----C----------------------.
 |        /      C C  C C                        /

[...]

Density initialized from wave functions
  /        |    C   C  C     C C                  |
 *         |  C           C   CC                  |
 |         | C           C  C                     |
 |         .--C-------C----C----------------------.
 |        /      C C  C C                        /
 |       /            C                         /

[...]

Density initialized from wave functions
  /        |    C   C  C     C C                  |
 *         |  C          C    CC                  |
 |         | C           C  C                     |
 |         .--C-------C----C----------------------.
 |        /      C C  C C                        /
 |       /            C                         /

[...]

Density initialized from wave functions
  /        |    C   C  C     CC                   |
 *         |  C          C    CC                  |
 |         | C           C  C                     |
 |         .--C-------C----C----------------------.
 |        /      C CC C C                        /
 |       /            C                         /

[...]

Density initialized from wave functions
  /        |    C   C  C     CC                   |
 *         |  C          C    CC                  |
 |         | C           C  C                     |
 |         .--C-------C----C----------------------.
 |        /      C CC C C                        /
 |       /            C                         /

[...]

Density initialized from wave functions
  /        |    C   C  C    C C                   |
 *         |  C          C    CC                  |
 |         | C           C  C                     |
 |         .--C-----C-C----C----------------------.
 |        /      C C  C  C                       /
 |       /            C                         /

[...]

System changes: positions

Initializing position-dependent things.

Density initialized from wave functions
  /        |    C   C  C    C C                   |
 *         |  C          C    CC                  |
 |         | C           C  C                     |
 |         .--C-----C-C----C----------------------.
 |        /      C C  C  C                       /
 |       /            C                         /

Positions:
   0 C      3.738868    9.753215    5.559174
   1 C      3.254739    8.578535    5.619586
   2 C      4.956079   10.317818    5.368125
   3 C      3.184679    7.247643    5.431690
   4 C      6.181076   10.530965    5.157235
   5 C      3.894658    6.206526    5.259086
   6 C      7.433542    9.885691    5.047738
   7 C      8.668672   10.101004    5.717851
   8 C      6.818571    7.532055    3.708141
   9 C      5.024650    5.647637    4.664863
  10 C      5.905748    6.451393    3.771839
  11 C      7.595645    8.605082    4.378795
  12 C      9.985191    4.490825    7.060063
  13 C      8.915557    3.808268    6.972799
  14 C     10.412300    5.719967    6.681629
  15 C      7.706691    3.437780    6.509269
  16 C     10.502907    6.882596    6.201961
  17 C      6.668514    3.873962    5.918090
  18 C      9.756382    7.924533    5.608263
  19 C      9.619518    9.297190    5.948474
  20 C      7.958922    6.570902    3.980670
  21 C      6.143453    4.708045    4.932752
  22 C      7.031779    5.503978    4.041924
  23 C      8.697496    7.675659    4.642982

Unit cell:
           periodic     x           y           z      points  spacing
  1. axis:    yes   16.000000    0.000000    0.000000    80     0.2000
  2. axis:    yes    0.000000   16.000000    0.000000    80     0.2000
  3. axis:    yes    0.000000    0.000000   10.000000    48     0.2083

Effective grid spacing dv^(1/3) = 0.2027

                     log10-error:    total        iterations:
           time      wfs    density  energy       fermi  poisson
iter:   1  15:21:28          +inf  -181.634836    2      5
iter:   2  15:21:28         -2.54  -181.631783    2      1
iter:   3  15:21:29         -2.69  -181.629984    2      1
iter:   4  15:21:29         -3.02  -181.628028    2      2
iter:   5  15:21:30         -3.18  -181.628973    1      1
iter:   6  15:21:30         -3.18  -181.629807    1      1
iter:   7  15:21:31         -3.67  -181.628693    2      1
iter:   8  15:21:31         -3.27  -181.627442    1      1
iter:   9  15:21:32         -4.19  -181.627416    1      1

Converged after 9 iterations.

Dipole moment: (-0.015090, -0.030315, -0.048339) |e|*Ang

Energy contributions relative to reference atoms: (reference = -24663.074771)

Kinetic:       +104.753251
Potential:     -112.400697
External:        +0.000000
XC:            -177.045101
Entropy (-ST):   -0.010463
Local:           +3.070362
Free energy:   -181.632648
Extrapolated:  -181.627416

Fermi level: -4.03718

 Band  Eigenvalues  Occupancy
    0    -23.47065    2.00000
    1    -21.99503    2.00000
    2    -20.82860    2.00000
    3    -20.44487    2.00000
    4    -20.13985    2.00000
    5    -19.99200    2.00000
    6    -19.35282    2.00000
    7    -19.14207    2.00000
    8    -18.55555    2.00000
    9    -17.80455    2.00000
   10    -17.78428    2.00000
   11    -16.77447    2.00000
   12    -16.71272    2.00000
   13    -15.67465    2.00000
   14    -15.30947    2.00000
   15    -14.89328    2.00000
   16    -14.73411    2.00000
   17    -13.84764    2.00000
   18    -13.26062    2.00000
   19    -13.24378    2.00000
   20    -12.95349    2.00000
   21    -12.38932    2.00000
   22    -11.89297    2.00000
   23    -11.22882    2.00000
   24    -11.10714    2.00000
   25    -10.45800    2.00000
   26    -10.13922    2.00000
   27     -9.74626    2.00000
   28     -9.49903    2.00000
   29     -8.96724    2.00000
   30     -8.87387    2.00000
   31     -8.75293    2.00000
   32     -8.72941    2.00000
   33     -8.36932    2.00000
   34     -8.17198    2.00000
   35     -7.84375    2.00000
   36     -7.41698    2.00000
   37     -7.28919    2.00000
   38     -7.03314    2.00000
   39     -6.96469    2.00000
   40     -6.90241    2.00000
   41     -6.16150    2.00000
   42     -5.98444    2.00000
   43     -5.48219    2.00000
   44     -5.23654    1.99999
   45     -4.94955    1.99978
   46     -4.86486    1.99949
   47     -4.60702    1.99332
   48     -3.45444    0.00587
   49     -3.32038    0.00154
   50     -2.73912    0.00000
   51     -2.46985    0.00000
   52     -2.32980    0.00000
   53     -1.82037    0.00000
   54     -1.71342    0.00000
   55     -0.75685    0.00000
   56     -0.71647    0.00000
   57     -0.51535    0.00000
   58     -0.46817    0.00000
   59     -0.20854    0.00000
[...]
   83      8.90249    0.00000
   84      9.09192    0.00000
   85      9.19415    0.00000
   86      9.47163    0.00000
   87      9.62407    0.00000
   88      9.63289    0.00000
   89      9.76801    0.00000
   90      9.90300    0.00000
   91      9.92485    0.00000
   92     10.04048    0.00000
   93     10.16099    0.00000
   94     10.21943    0.00000
   95     10.33348    0.00000
   96     10.55173    0.00000
   97     10.62354    0.00000

Forces in eV/Ang:
  0 C    -0.02287   -0.00867   -0.07582
  1 C    -0.01659   -0.06366    0.01544
  2 C     0.05414    0.00450   -0.01438
  3 C    -0.01003   -0.05401    0.07575
  4 C    -0.08114   -0.02188    0.02114
  5 C     0.05433    0.02855    0.01909
  6 C     0.02418   -0.04152    0.07996
  7 C     0.02198    0.00072   -0.00555
  8 C    -0.06488    0.04934   -0.02706
  9 C     0.07540    0.01594   -0.03028
 10 C    -0.05876    0.03865    0.01241
 11 C     0.05469   -0.01958   -0.05768
 12 C     0.01549   -0.06941   -0.04814
 13 C    -0.05625   -0.03803    0.02525
 14 C    -0.00152    0.07437   -0.04240
 15 C    -0.08186    0.01164    0.04165
 16 C    -0.01982   -0.03387    0.02183
 17 C     0.00749    0.06721    0.01558
 18 C    -0.04750    0.00679    0.06074
 19 C    -0.00324    0.03965   -0.01718
 20 C     0.06212   -0.01457    0.01224
 21 C     0.00595    0.05155   -0.04754
 22 C     0.03429   -0.04693    0.02187
 23 C    -0.01348    0.03615   -0.06981