User:   esb@s65n62.grendel.cscaa.dk
Date:   Wed Nov  8 16:14:58 2017
Arch:   x86_64
Pid:    42295
Python: 2.7.13
gpaw:   /home/esb/DFT/gpaw_git/gpaw
_gpaw:  /home/esb/DFT/gpaw_git/build/bin.linux-x86_64-2.7/gpaw-python
ase:    /home/esb/DFT/ase_git/ase (version 3.15.0b1)
numpy:  /comm/swstack/core/python/2.7.13/lib/python2.7/site-packages/numpy (version 1.13.3)
scipy:  /comm/swstack/core/python/2.7.13/lib/python2.7/site-packages/scipy (version 0.19.1)
units:  Angstrom and eV
cores:  16
Extra parameters: {'blacs': True}

Input parameters:
  basis: dzp
  gpts: [80 80 48]
  kpts: [1 1 1]
  maxiter: 99
  mixer: {backend: pulay,
          beta: 0.05,
          method: separate,
          nmaxold: 5,
          weight: 75}
  mode: lcao
  nbands: -50
  occupations: {name: fermi-dirac,
                width: 0.1}
  poissonsolver: {eps: 1e-07,
                  name: fd,
                  nn: 3,
                  relax: GS}
  xc: PBE

System changes: positions, numbers, cell, pbc, initial_charges, initial_magmoms

Initialize ...

C-setup:
  name: Carbon
  id: 4aa54d4b901d75f77cc0ea3eec22967b
  Z: 6
  valence: 4
  core: 2
  charge: 0.0
  file: /home/esb/DFT/gpaw-setups-0.8.7929/C.PBE.gz
  cutoffs: 0.64(comp), 1.14(filt), 1.14(core), lmax=2
  valence states:
                energy  radius
    2s(2.00)   -13.751   0.635
    2p(2.00)    -5.284   0.635
    *s          13.461   0.635
    *p          21.927   0.635
    *d           0.000   0.635

  LCAO basis set for C:
    Name: dzp
    File: /home/esb/DFT/gpaw-setups-0.8.7929/C.dzp.basis.gz
    Number of radial functions: 5
    Number of spherical harmonics: 13
      l=0, rc=5.5469 Bohr: 2s-sz confined orbital
      l=1, rc=6.6719 Bohr: 2p-sz confined orbital
      l=0, rc=3.0312 Bohr: 2s-dz split-valence wave
      l=1, rc=3.7500 Bohr: 2p-dz split-valence wave
      l=2, rc=6.6719 Bohr: d-type Gaussian polarization

Reference energy: -24663.074771

Spin-paired calculation

Occupation numbers:
  Fermi-Dirac: width=0.1000 eV

Convergence criteria:
  Maximum total energy change: 0.0005 eV / electron
  Maximum integral of absolute density change: 0.0001 electrons
  Maximum integral of absolute eigenstate change: 4e-08 eV^2
  Maximum number of iterations: 99

Symmetries present (total): 1

  ( 1  0  0)
  ( 0  1  0)
  ( 0  0  1)

1 k-point (Gamma)
1 k-point in the irreducible part of the Brillouin zone
       k-points in crystal coordinates                weights
   0:     0.00000000    0.00000000    0.00000000          1/1

Wave functions: LCAO
  Diagonalizer: Serial LAPACK
  Atomic Correction: dense with blas
  Datatype: float
  Eigensolver: None

LCAO using direct dense diagonalizer

Densities:
  Coarse grid: 80*80*48 grid
  Fine grid: 160*160*96 grid
  Total Charge: 0.000000

Density mixing:
  Method: separate
  Backend: pulay
  Linear mixing parameter: 0.05
  Mixing with 5 old densities
  Damping of long wave oscillations: 75

Hamiltonian:
  XC and Coulomb potentials evaluated on a 160*160*96 grid
  Using the PBE Exchange-Correlation functional
  Interpolation: tri-quintic (5. degree polynomial)
  Poisson solver: Gauss-Seidel solver with 6 multi-grid levels
    Coarsest grid: 5 x 5 x 3 points
    Stencil: 6*3+1=19 point O(h^6) finite-difference Laplacian
    Max iterations: 1000
    Tolerance: 1.000000e-07

Total number of cores used: 16
Domain decomposition: 2 x 4 x 2

Number of atoms: 24
Number of atomic orbitals: 312
Number of bands in calculation: 98
Bands to converge: occupied states only
Number of valence electrons: 96

... initialized

Initializing position-dependent things.

Density initialized from atomic densities
  /        |           C  C        C              |
 *         |               C   C  C               |
 |         C      C  C   C       C                |
 |         .--CCC--C-C---C-C---C-C----------------.
 |        /         C     C                      /
 |       /             C                        /

Positions:
   0 C     10.747157    6.005169    5.043671
   1 C     11.269447    7.134263    4.957308
   2 C     11.113106    8.505769    4.934269
   3 C     10.978126    9.956465    4.854680
   4 C      9.289009    3.933811    5.174407
   5 C      9.501709    5.328032    5.187972
   6 C      9.873213    9.080310    5.151590
   7 C      7.622854    9.807095    5.802140
   8 C      6.375922    9.789677    5.940044
   9 C      5.833599    6.079579    5.484298
  10 C      8.244528    3.229307    5.229574
  11 C      7.778894    7.476540    5.450777
  12 C      8.217251    6.019402    5.321390
  13 C      6.313855    7.469667    5.597377
  14 C      6.950910    3.769821    5.309245
  15 C      8.496992    8.748068    5.468537
  16 C      7.010492    5.237664    5.381104
  17 C      3.718805    5.616047    5.533008
  18 C     11.690298    9.451809    5.751752
  19 C      4.564239    9.177128    4.440093
  20 C      4.884440    7.846261    4.745929
  21 C      3.831377    6.956203    5.083859
  22 C      2.550468    6.441692    5.508433
  23 C      4.859544    4.865189    5.630928

Unit cell:
           periodic     x           y           z      points  spacing
  1. axis:    yes   16.000000    0.000000    0.000000    80     0.2000
  2. axis:    yes    0.000000   16.000000    0.000000    80     0.2000
  3. axis:    yes    0.000000    0.000000   10.000000    48     0.2083

Effective grid spacing dv^(1/3) = 0.2027

                     log10-error:    total        iterations:
           time      wfs    density  energy       fermi  poisson
iter:   1  16:15:00          +inf  -172.580127    3      6
iter:   2  16:15:01         -0.89  -171.655463    3      3
iter:   3  16:15:01         -0.92  -170.178189    33     4
iter:   4  16:15:02         -1.11  -170.829905    3      2
iter:   5  16:15:03         -1.08  -170.384778    3      3
iter:   6  16:15:03         -1.11  -168.957574    3      3
iter:   7  16:15:04         -1.41  -168.714184    3      2
iter:   8  16:15:04         -1.47  -168.412919    3      3
iter:   9  16:15:05         -1.60  -168.308500    3      3
iter:  10  16:15:06         -1.79  -168.238549    3      2
iter:  11  16:15:06         -1.93  -168.227060    3      2
iter:  12  16:15:07         -2.01  -168.209716    3      2
iter:  13  16:15:07         -2.12  -168.214483    4      3
iter:  14  16:15:08         -2.58  -168.214100    3      2
iter:  15  16:15:09         -2.71  -168.209440    2      1
iter:  16  16:15:09         -2.78  -168.213031    2      2
iter:  17  16:15:10         -3.01  -168.221471    2      1
iter:  18  16:15:10         -3.16  -168.217358    2      1
iter:  19  16:15:11         -3.30  -168.215959    2      1
iter:  20  16:15:11         -3.42  -168.215407    2      1
iter:  21  16:15:12         -3.56  -168.212289    2      1
iter:  22  16:15:13         -3.90  -168.213325    2      1
iter:  23  16:15:13         -4.00  -168.213299    2      1

Converged after 23 iterations.

Dipole moment: (0.841236, -0.745972, -0.246362) |e|*Ang

Energy contributions relative to reference atoms: (reference = -24663.074771)

Kinetic:       +129.887648
Potential:     -127.636495
External:        +0.000000
XC:            -173.261371
Entropy (-ST):   -0.288297
Local:           +2.941068
Free energy:   -168.357447
Extrapolated:  -168.213299

Fermi level: -4.73012

 Band  Eigenvalues  Occupancy
    0    -27.49578    2.00000
    1    -23.62215    2.00000
    2    -22.40547    2.00000
    3    -21.32394    2.00000
    4    -20.72966    2.00000
    5    -20.18969    2.00000
    6    -19.69397    2.00000
    7    -19.30319    2.00000
    8    -18.61255    2.00000
    9    -18.10073    2.00000
   10    -17.56665    2.00000
   11    -16.88686    2.00000
   12    -16.73701    2.00000
   13    -15.95384    2.00000
   14    -15.27189    2.00000
   15    -15.12771    2.00000
   16    -14.31399    2.00000
   17    -13.54629    2.00000
   18    -12.90513    2.00000
   19    -12.72614    2.00000
   20    -12.29840    2.00000
   21    -12.03299    2.00000
   22    -11.69306    2.00000
   23    -11.12982    2.00000
   24    -10.94721    2.00000
   25    -10.65140    2.00000
   26    -10.58281    2.00000
   27    -10.04124    2.00000
   28     -9.82955    2.00000
   29     -9.48754    2.00000
   30     -9.26582    2.00000
   31     -8.92778    2.00000
   32     -8.37258    2.00000
   33     -8.30586    2.00000
   34     -8.00076    2.00000
   35     -7.68276    2.00000
   36     -7.46696    2.00000
   37     -7.12014    2.00000
   38     -6.92774    2.00000
   39     -6.75795    2.00000
   40     -6.56394    2.00000
   41     -6.43620    2.00000
   42     -6.05625    2.00000
   43     -5.75262    1.99993
   44     -5.45097    1.99852
   45     -5.23773    1.98759
   46     -5.01790    1.89347
   47     -4.84082    1.50312
   48     -4.64879    0.61436
   49     -4.07059    0.00273
   50     -3.84412    0.00028
   51     -3.40822    0.00000
   52     -3.25213    0.00000
   53     -2.68801    0.00000
   54     -2.38166    0.00000
   55     -2.20880    0.00000
   56     -2.09663    0.00000
   57     -1.49603    0.00000
   58     -1.00132    0.00000
   59     -0.13805    0.00000
[...]
   83      8.20463    0.00000
   84      8.40236    0.00000
   85      8.71902    0.00000
   86      8.92487    0.00000
   87      9.08747    0.00000
   88      9.11939    0.00000
   89      9.30987    0.00000
   90      9.31692    0.00000
   91      9.57467    0.00000
   92      9.59894    0.00000
   93      9.77296    0.00000
   94      9.85748    0.00000
   95      9.96329    0.00000
   96     10.06474    0.00000
   97     10.27271    0.00000

Forces in eV/Ang:
  0 C    -0.93123    0.16257   -0.00051
  1 C     0.19159   -0.98706   -1.32503
  2 C     0.01843   -9.68619    0.29167
  3 C    -4.76617    9.98888   -6.07074
  4 C     0.88895    0.44914   -0.23911
  5 C     0.76858   -0.36403    0.10276
  6 C    -4.85000   -1.11439   -0.36057
  7 C     1.80568   -0.04943   -0.56660
  8 C    -4.05200    1.14978   -0.39951
  9 C     3.73820   -6.50580    1.90704
 10 C    -2.29593   -0.08751    0.29848
 11 C    -0.29046   -1.74474   -0.42836
 12 C    -0.23095    0.57221    0.08622
 13 C    -2.80625   -1.77107   -2.57838
 14 C     0.65937    2.10415    0.17221
 15 C     1.81159    1.10526   -0.23570
 16 C     2.11387   -0.99244   -0.19710
 17 C    -2.44298   -0.75515    0.60131
 18 C     7.72976    0.73412    7.94696
 19 C     1.04975    0.13079    0.76921
 20 C     1.36751    2.14095    2.00826
 21 C    -2.05537    1.84879   -0.59835
 22 C     0.86561    0.08541   -0.52294
 23 C     1.67977    3.44280   -0.63036

System changes: positions

[...]

Density initialized from wave functions
  /        |           C  C        C              |
 *         |               C   C  C               |
 |         C      C  C   C       C                |
 |         .--CCC--C-C---C-C---C-C----------------.
 |        /         C     C                      /
 |       /             C                        /

[...]

Density initialized from wave functions
  /        |           C  C        C              |
 *         |               C   C  C               |
 |         C      C  C   C       C                |
 |         .--CCC--C-C---C--C--C-C----------------.
 |        /         C     C                      /
 |       /             C                        /

[...]

Density initialized from wave functions
  /        |           C  C         C             |
 *         |               C   C  C               |
 |         C      C  C   C       C                |
 |         .--CCC--C-C---C--C--C-C----------------.
 |        /         C     C                      /
 |       /             C                        /

[...]

Density initialized from wave functions
  /        |           C  C         C             |
 *         |               C   C  C               |
 |         C      C  C   C       C                |
 |         .-C-CC--C--C--C-C---C-C----------------.
 |        /         C     C                      /
 |       /             C                        /

[...]

Density initialized from wave functions
  /        |          C  C          C             |
 *         |               C   C  C               |
 |         C      C  C  C        C                |
 |         .-C-CC--C--C--C-C---C-C----------------.
 |        /         C     C                      /
 |       /             C                        /

[...]

Density initialized from wave functions
  /        |          C  C          C             |
 *         |               C   C  C               |
 |         C   C  C  C  C        C                |
 |         .-C--C--C--C--C--C--C-C----------------.
 |        /         C     C                      /
 |       /             C                        /

[...]

Density initialized from wave functions
  /        |          C  C          C             |
 *         |               C   C  C               |
 |         C   C  C  C  C        C                |
 |         .-C--C--C--C--C--C--C-C----------------.
 |        /         C     C                      /
 |       /             C                        /

[...]

Density initialized from wave functions
  /        |          C  C          C             |
 *         |               C   C  C               |
 |         C   C  CC C  C        C                |
 |         .-C--C--C--C--C--C--C-C----------------.
 |        /         C     C                      /
 |       /             C                        /

[...]

Density initialized from wave functions
  /        |          C  C          C             |
 *         |               C   C  C               |
 |         C   C  CC C  C        C                |
 |         .-C--C--C--C--C--C--C-C----------------.
 |        /         C     C                      /
 |       /             C                        /

[...]

Density initialized from wave functions
  /        |          C  C          C             |
 *         |       C       C   C  C               |
 |         C   C  C  C  C        C                |
 |         .-C--C--C--C--C--C--C-C----------------.
 |        /         C     C                      /
 |       /             C                        /

[...]

Density initialized from wave functions
  /        |          C  C          C             |
 *         |       C       C   C  C               |
 |         C   C  C  C  C        C                |
 |         .-C--C--C--C--C--C--C-C----------------.
 |        /         C     C                      /
 |       /             C                        /

[...]

Density initialized from wave functions
  /        |          C  C          C             |
 *         |       C       C   C CC               |
 |         C   C  C  C  C                         |
 |         .-C--C--C--C--C--C--C-C----------------.
 |        /         C     C                      /
 |       /             C                        /

[...]

Density initialized from wave functions
  /        |          C  C         C              |
 *         |       C       C   C CC               |
 |         C   C  C  C  C                         |
 |         .-C--C--C--C--C-----C-C----------------.
 |        /         C     C C                    /
 |       /             C                        /

[...]

Density initialized from wave functions
  /        |          C  C         C              |
 *         |       C       C   C CC               |
 |         C   C  C  C  C                         |
 |         .-C--C--C--C--C-----C-C----------------.
 |        /         C     C C                    /
 |       /             C                        /

[...]

Density initialized from wave functions
  /        |          C  C         C              |
 *         |       C       C   C C                |
 |         C   C  C  C  C                         |
 |         .-C--C--C--C--C-----C-C----------------.
 |        /         C     C C                    /
 |       /             C                        /

[...]

Density initialized from wave functions
  /        |          C  C         C              |
 *         |       C       C   C C                |
 |         C   C  C  C  C                         |
 |         .-C--C--C--C--C-----C-C----------------.
 |        /         C       C                    /
 |       /             C  C                     /

[...]

Density initialized from wave functions
  /        |          C  C         C              |
 *         |       C       C  C  C                |
 |         C   C  C  C  C                         |
 |         .-C--C--C--C--C-----C-C----------------.
 |        /         C       C                    /
 |       /              C  C                    /

[...]

Density initialized from wave functions
  /        |             C         C              |
 *         |       C  C    C  C  C                |
 |         C   C  C  C  C                         |
 |         .-C--C--C--C--C-----C-C----------------.
 |        /          C      C                    /
 |       /              C  C                    /

[...]

Density initialized from wave functions
  /        |              C        C              |
 *         |       C  C    C  C  C                |
 |         C   C  C  C  C                         |
 |         .-C--C--C--C--C-----C-C----------------.
 |        /          C      C                    /
 |       /              C  C                    /

[...]

Density initialized from wave functions
  /        |              C        C              |
 *         |       C  C    C  C  C                |
 |         C   C  C  C  C                         |
 |         .-C--C--C-C---C-----C-C----------------.
 |        /          C     CC                    /
 |       /              C                       /

[...]

Density initialized from wave functions
  /        |              C        C              |
 *         |       C  C    C  C  C                |
 |         C   C  C  C  C                         |
 |         .-C--C--C-C---C-----C-C----------------.
 |        /          C     CC                    /
 |       /              C                       /

[...]

Density initialized from wave functions
  /        |          C   C        C              |
 *         |       C       C  C  C                |
 |         C   C  C  C  C                         |
 |         .-C--C--C-C---C-----C-C----------------.
 |        /          C     CC                    /
 |       /              C                       /

[...]

System changes: positions

Initializing position-dependent things.

Density initialized from wave functions
  /        |          C   C        C              |
 *         |       C       C  C  C                |
 |         C   C  C  C  C                         |
 |         .-C--C--C-C---C-----C-C----------------.
 |        /          C     CC                    /
 |       /              C                       /

Positions:
   0 C     10.712957    6.067380    4.919997
   1 C     11.445246    7.079915    4.923792
   2 C     11.070246    8.376713    5.306207
   3 C     10.418840   10.205482    4.831769
   4 C      9.705574    3.799407    5.122814
   5 C      9.587076    5.236975    5.097008
   6 C      9.770343    8.906517    5.125739
   7 C      7.600508    9.777549    5.372180
   8 C      6.308831    9.786553    5.327116
   9 C      5.932440    5.669122    5.480534
  10 C      8.516093    3.288063    5.307049
  11 C      7.700903    7.258866    5.310385
  12 C      8.259807    5.846655    5.300338
  13 C      6.217842    7.113127    5.366945
  14 C      7.219414    3.480397    5.496928
  15 C      8.366560    8.576226    5.309651
  16 C      7.147518    4.923380    5.467410
  17 C      3.493055    5.883064    5.394172
  18 C     11.323880    9.706766    5.856984
  19 C      5.023486    9.460859    5.314478
  20 C      5.057898    8.010648    5.327459
  21 C      3.770079    7.381673    5.319897
  22 C      2.492329    6.900655    5.225484
  23 C      4.614460    5.237944    5.529455

Unit cell:
           periodic     x           y           z      points  spacing
  1. axis:    yes   16.000000    0.000000    0.000000    80     0.2000
  2. axis:    yes    0.000000   16.000000    0.000000    80     0.2000
  3. axis:    yes    0.000000    0.000000   10.000000    48     0.2083

Effective grid spacing dv^(1/3) = 0.2027

                     log10-error:    total        iterations:
           time      wfs    density  energy       fermi  poisson
iter:   1  16:22:01          +inf  -179.719909    2      4
iter:   2  16:22:02         -3.26  -179.719551    2      1
iter:   3  16:22:02         -3.37  -179.719424    2      1
iter:   4  16:22:03         -3.51  -179.719245    2      1
iter:   5  16:22:03         -3.67  -179.718768    2      1
iter:   6  16:22:04         -3.91  -179.719397    2      1
iter:   7  16:22:04         -4.12  -179.719645    2      1

Converged after 7 iterations.

Dipole moment: (-0.290306, -0.369883, 0.001516) |e|*Ang

Energy contributions relative to reference atoms: (reference = -24663.074771)

Kinetic:       +113.266418
Potential:     -120.694486
External:        +0.000000
XC:            -175.092650
Entropy (-ST):   -0.257203
Local:           +2.929674
Free energy:   -179.848247
Extrapolated:  -179.719645

Fermi level: -4.61007

 Band  Eigenvalues  Occupancy
    0    -24.11092    2.00000
    1    -23.57713    2.00000
    2    -22.67342    2.00000
    3    -21.62703    2.00000
    4    -20.98877    2.00000
    5    -20.47852    2.00000
    6    -20.11130    2.00000
    7    -19.57858    2.00000
    8    -18.90690    2.00000
    9    -18.49703    2.00000
   10    -17.51292    2.00000
   11    -17.35860    2.00000
   12    -16.51144    2.00000
   13    -16.25369    2.00000
   14    -15.20205    2.00000
   15    -15.13993    2.00000
   16    -14.34428    2.00000
   17    -13.85610    2.00000
   18    -13.13897    2.00000
   19    -12.76882    2.00000
   20    -12.51314    2.00000
   21    -12.03961    2.00000
   22    -11.40883    2.00000
   23    -11.22773    2.00000
   24    -11.17765    2.00000
   25    -10.98438    2.00000
   26    -10.63223    2.00000
   27    -10.23523    2.00000
   28    -10.08268    2.00000
   29     -9.97333    2.00000
   30     -9.87743    2.00000
   31     -9.69182    2.00000
   32     -9.30796    2.00000
   33     -9.20098    2.00000
   34     -8.63806    2.00000
   35     -8.04742    2.00000
   36     -7.80708    2.00000
   37     -7.41417    2.00000
   38     -7.27238    2.00000
   39     -7.03898    2.00000
   40     -6.73195    2.00000
   41     -6.49548    2.00000
   42     -6.20619    2.00000
   43     -6.11630    2.00000
   44     -5.72775    1.99997
   45     -5.08572    1.98295
   46     -4.86564    1.85590
   47     -4.79159    1.71996
   48     -4.47833    0.42248
   49     -4.12598    0.01568
   50     -3.96177    0.00305
   51     -2.83651    0.00000
   52     -2.73631    0.00000
   53     -2.32578    0.00000
   54     -1.99114    0.00000
   55     -1.86348    0.00000
   56     -1.58281    0.00000
   57     -1.10703    0.00000
   58     -0.91950    0.00000
   59     -0.22852    0.00000
[...]
   83      8.30831    0.00000
   84      8.53303    0.00000
   85      8.64156    0.00000
   86      8.69226    0.00000
   87      8.97272    0.00000
   88      9.11158    0.00000
   89      9.28423    0.00000
   90      9.48831    0.00000
   91      9.51862    0.00000
   92      9.63396    0.00000
   93      9.75892    0.00000
   94      9.94962    0.00000
   95      9.98868    0.00000
   96      9.99793    0.00000
   97     10.20706    0.00000

Forces in eV/Ang:
  0 C     0.00645   -0.02400    0.07971
  1 C     0.01418   -0.05386    0.01138
  2 C     0.01123   -0.00175   -0.00104
  3 C     0.03462   -0.00313   -0.02638
  4 C    -0.04391    0.01044    0.03790
  5 C    -0.01555    0.00342    0.00803
  6 C     0.01737    0.03397   -0.00284
  7 C    -0.02737   -0.00829   -0.00938
  8 C    -0.00400   -0.00671    0.02145
  9 C    -0.01529    0.01052    0.00639
 10 C    -0.00980    0.02067   -0.01530
 11 C     0.04129   -0.03488    0.02112
 12 C     0.02602    0.00902   -0.04343
 13 C     0.02425   -0.00854   -0.03021
 14 C     0.05587    0.04223   -0.00200
 15 C    -0.07344    0.02052    0.00069
 16 C     0.02278    0.01757   -0.08998
 17 C     0.05563    0.03825   -0.00644
 18 C    -0.07181   -0.00234   -0.00798
 19 C     0.03300    0.03705    0.07178
 20 C    -0.01026    0.01838    0.00124
 21 C     0.04714   -0.03301   -0.01851
 22 C    -0.06538   -0.00083    0.04016
 23 C    -0.00414   -0.03444   -0.02996