User:   esb@s65n64.grendel.cscaa.dk
Date:   Wed Nov  8 16:14:54 2017
Arch:   x86_64
Pid:    81226
Python: 2.7.13
gpaw:   /home/esb/DFT/gpaw_git/gpaw
_gpaw:  /home/esb/DFT/gpaw_git/build/bin.linux-x86_64-2.7/gpaw-python
ase:    /home/esb/DFT/ase_git/ase (version 3.15.0b1)
numpy:  /comm/swstack/core/python/2.7.13/lib/python2.7/site-packages/numpy (version 1.13.3)
scipy:  /comm/swstack/core/python/2.7.13/lib/python2.7/site-packages/scipy (version 0.19.1)
units:  Angstrom and eV
cores:  16
Extra parameters: {'blacs': True}

Input parameters:
  basis: dzp
  gpts: [80 80 48]
  kpts: [1 1 1]
  maxiter: 99
  mixer: {backend: pulay,
          beta: 0.05,
          method: separate,
          nmaxold: 5,
          weight: 75}
  mode: lcao
  nbands: -50
  occupations: {name: fermi-dirac,
                width: 0.1}
  poissonsolver: {eps: 1e-07,
                  name: fd,
                  nn: 3,
                  relax: GS}
  xc: PBE

System changes: positions, numbers, cell, pbc, initial_charges, initial_magmoms

Initialize ...

C-setup:
  name: Carbon
  id: 4aa54d4b901d75f77cc0ea3eec22967b
  Z: 6
  valence: 4
  core: 2
  charge: 0.0
  file: /home/esb/DFT/gpaw-setups-0.8.7929/C.PBE.gz
  cutoffs: 0.64(comp), 1.14(filt), 1.14(core), lmax=2
  valence states:
                energy  radius
    2s(2.00)   -13.751   0.635
    2p(2.00)    -5.284   0.635
    *s          13.461   0.635
    *p          21.927   0.635
    *d           0.000   0.635

  LCAO basis set for C:
    Name: dzp
    File: /home/esb/DFT/gpaw-setups-0.8.7929/C.dzp.basis.gz
    Number of radial functions: 5
    Number of spherical harmonics: 13
      l=0, rc=5.5469 Bohr: 2s-sz confined orbital
      l=1, rc=6.6719 Bohr: 2p-sz confined orbital
      l=0, rc=3.0312 Bohr: 2s-dz split-valence wave
      l=1, rc=3.7500 Bohr: 2p-dz split-valence wave
      l=2, rc=6.6719 Bohr: d-type Gaussian polarization

Reference energy: -24663.074771

Spin-paired calculation

Occupation numbers:
  Fermi-Dirac: width=0.1000 eV

Convergence criteria:
  Maximum total energy change: 0.0005 eV / electron
  Maximum integral of absolute density change: 0.0001 electrons
  Maximum integral of absolute eigenstate change: 4e-08 eV^2
  Maximum number of iterations: 99

Symmetries present (total): 1

  ( 1  0  0)
  ( 0  1  0)
  ( 0  0  1)

1 k-point (Gamma)
1 k-point in the irreducible part of the Brillouin zone
       k-points in crystal coordinates                weights
   0:     0.00000000    0.00000000    0.00000000          1/1

Wave functions: LCAO
  Diagonalizer: Serial LAPACK
  Atomic Correction: dense with blas
  Datatype: float
  Eigensolver: None

LCAO using direct dense diagonalizer

Densities:
  Coarse grid: 80*80*48 grid
  Fine grid: 160*160*96 grid
  Total Charge: 0.000000

Density mixing:
  Method: separate
  Backend: pulay
  Linear mixing parameter: 0.05
  Mixing with 5 old densities
  Damping of long wave oscillations: 75

Hamiltonian:
  XC and Coulomb potentials evaluated on a 160*160*96 grid
  Using the PBE Exchange-Correlation functional
  Interpolation: tri-quintic (5. degree polynomial)
  Poisson solver: Gauss-Seidel solver with 6 multi-grid levels
    Coarsest grid: 5 x 5 x 3 points
    Stencil: 6*3+1=19 point O(h^6) finite-difference Laplacian
    Max iterations: 1000
    Tolerance: 1.000000e-07

Total number of cores used: 16
Domain decomposition: 2 x 4 x 2

Number of atoms: 24
Number of atomic orbitals: 312
Number of bands in calculation: 98
Bands to converge: occupied states only
Number of valence electrons: 96

... initialized

Initializing position-dependent things.

Density initialized from atomic densities
  /        |        C  C        C                 |
 *         |     C        C      C                |
 |         |   C  C     C C   C  C                |
 |         .--C--C-C---CCC------------------------.
 |        /       C  C      C                    /
 |       /             C  C  C                  /

Positions:
   0 C      8.154275    8.995749    4.521513
   1 C      6.301023   10.443037    5.223881
   2 C      7.695759   10.379813    4.989030
   3 C     10.838546    8.281878    4.697688
   4 C     10.596033    9.708192    4.865049
   5 C      4.020475    9.233331    5.424068
   6 C      9.989359   10.902145    5.060117
   7 C      7.277075    7.948014    4.297466
   8 C      9.530624    8.761304    4.477195
   9 C      5.126119   10.011067    5.330030
  10 C      6.514374    6.932551    4.230498
  11 C      5.650033    5.950698    4.196641
  12 C      5.046574    7.363117    5.560126
  13 C      4.973726    5.916072    5.403558
  14 C      7.416336    7.588807    5.330246
  15 C     10.334750    4.483668    4.384499
  16 C      6.173372    5.220626    5.367358
  17 C      7.317255    6.156252    5.479013
  18 C      9.395154    3.594231    4.445904
  19 C      9.743938    5.767010    4.798098
  20 C      8.079911    3.958384    4.966523
  21 C      8.429532    5.376545    5.252974
  22 C      3.669618    6.279387    4.734094
  23 C      3.622345    7.610403    5.328322

Unit cell:
           periodic     x           y           z      points  spacing
  1. axis:    yes   16.000000    0.000000    0.000000    80     0.2000
  2. axis:    yes    0.000000   16.000000    0.000000    80     0.2000
  3. axis:    yes    0.000000    0.000000   10.000000    48     0.2083

Effective grid spacing dv^(1/3) = 0.2027

                     log10-error:    total        iterations:
           time      wfs    density  energy       fermi  poisson
iter:   1  16:14:56          +inf  -156.102860    3      6
iter:   2  16:14:56         -0.90  -154.928952    4      3
iter:   3  16:14:57         -0.95  -153.798919    4      3
iter:   4  16:14:57         -1.01  -152.509263    4      3
iter:   5  16:14:58         -1.16  -152.218289    35     4
iter:   6  16:14:59         -1.35  -152.035803    3      3
iter:   7  16:14:59         -1.49  -151.968308    4      3
iter:   8  16:15:00         -1.66  -151.939212    3      3
iter:   9  16:15:01         -1.82  -151.922422    3      3
iter:  10  16:15:01         -2.00  -151.915491    3      2
iter:  11  16:15:02         -2.16  -151.912654    3      2
iter:  12  16:15:02         -2.33  -151.909685    3      2
iter:  13  16:15:03         -2.52  -151.904605    3      2
iter:  14  16:15:03         -2.67  -151.903927    3      2
iter:  15  16:15:04         -2.78  -151.901778    3      2
iter:  16  16:15:05         -3.08  -151.903838    2      1
iter:  17  16:15:05         -3.17  -151.903414    2      1
iter:  18  16:15:06         -3.29  -151.900080    2      1
iter:  19  16:15:06         -3.41  -151.895738    2      1
iter:  20  16:15:07         -3.69  -151.899818    2      1
iter:  21  16:15:07         -3.81  -151.900994    2      1
iter:  22  16:15:08         -3.96  -151.900649    2      1
iter:  23  16:15:08         -4.08  -151.901698    2      1

Converged after 23 iterations.

Dipole moment: (-0.591950, -0.140764, -0.049652) |e|*Ang

Energy contributions relative to reference atoms: (reference = -24663.074771)

Kinetic:       +175.843394
Potential:     -151.783272
External:        +0.000000
XC:            -178.644882
Entropy (-ST):   -0.438469
Local:           +2.902297
Free energy:   -152.120932
Extrapolated:  -151.901698

Fermi level: -4.51842

 Band  Eigenvalues  Occupancy
    0    -28.32169    2.00000
    1    -26.16615    2.00000
    2    -23.17447    2.00000
    3    -22.80889    2.00000
    4    -21.88158    2.00000
    5    -21.32532    2.00000
    6    -20.36927    2.00000
    7    -19.70335    2.00000
    8    -18.29977    2.00000
    9    -18.13476    2.00000
   10    -17.15466    2.00000
   11    -16.84990    2.00000
   12    -16.72072    2.00000
   13    -16.24074    2.00000
   14    -15.89644    2.00000
   15    -15.74038    2.00000
   16    -15.22745    2.00000
   17    -14.54643    2.00000
   18    -13.73454    2.00000
   19    -13.09469    2.00000
   20    -12.55829    2.00000
   21    -11.93251    2.00000
   22    -11.73121    2.00000
   23    -11.21545    2.00000
   24    -10.61893    2.00000
   25    -10.52113    2.00000
   26    -10.35241    2.00000
   27     -9.88033    2.00000
   28     -9.84593    2.00000
   29     -9.46238    2.00000
   30     -9.29226    2.00000
   31     -9.06610    2.00000
   32     -8.82828    2.00000
   33     -8.77128    2.00000
   34     -8.22458    2.00000
   35     -7.86655    2.00000
   36     -7.67903    2.00000
   37     -7.26848    2.00000
   38     -7.08006    2.00000
   39     -6.80081    2.00000
   40     -6.29133    2.00000
   41     -5.93098    2.00000
   42     -5.88942    2.00000
   43     -5.49196    1.99988
   44     -5.19270    1.99764
   45     -4.78529    1.87031
   46     -4.70710    1.73679
   47     -4.64539    1.56140
   48     -4.43404    0.60148
   49     -4.29926    0.20101
   50     -4.08806    0.02668
   51     -3.87487    0.00320
   52     -3.80424    0.00158
   53     -3.39193    0.00003
   54     -2.64843    0.00000
   55     -2.32363    0.00000
   56     -2.09715    0.00000
   57     -2.00072    0.00000
   58     -1.30690    0.00000
   59     -0.81530    0.00000
[...]
   83      7.64749    0.00000
   84      7.76186    0.00000
   85      7.86391    0.00000
   86      8.24463    0.00000
   87      8.49560    0.00000
   88      8.73842    0.00000
   89      8.93047    0.00000
   90      9.00680    0.00000
   91      9.18836    0.00000
   92      9.52035    0.00000
   93      9.57179    0.00000
   94      9.70706    0.00000
   95      9.80448    0.00000
   96      9.93436    0.00000
   97     10.01399    0.00000

Forces in eV/Ang:
  0 C     1.32512    6.82434   -0.51704
  1 C     7.97335    1.24747   -0.86787
  2 C    -3.42618   -2.50772   -0.64971
  3 C    -1.44113   -0.98452   -0.69822
  4 C    -0.35636    2.64879    1.13092
  5 C     0.14054   -1.17926   -1.10101
  6 C     0.57880   -0.62188   -0.11660
  7 C     0.05845   14.59121  -25.89915
  8 C     1.71431   -0.56185   -0.19796
  9 C    -6.20696   -3.10156    0.45028
 10 C    -2.79413   -0.49835   -4.16307
 11 C    -0.00268   -4.31711   -7.78630
 12 C    -2.94229    0.36636    1.56665
 13 C    -4.78045   -1.23343    5.03846
 14 C     4.38722  -10.27023   28.29663
 15 C     1.01220    2.07315    0.88614
 16 C     0.23203   -3.00032    0.76379
 17 C     1.76250   -2.81628    3.24329
 18 C    -2.20351    0.31779   -0.01158
 19 C     1.61348   -2.29768   -1.54584
 20 C     1.29732   -0.09710    0.28465
 21 C     0.02040   -0.12846    0.34084
 22 C    -0.72795    0.13859    0.72954
 23 C     2.77602    5.34473    0.82949

System changes: positions

[...]

Density initialized from wave functions
  /        |        C  C        C                 |
 *         |     C        C      C                |
 |         |   C  C     C  C  C  C                |
 |         .--C--C-C---CCC------------------------.
 |        /       C  C      C                    /
 |       /             C  C  C                  /

[...]

Density initialized from wave functions
  /        |        C  C        C                 |
 *         |     C        C      C                |
 |         |   C  C     C  C  C C                 |
 |         .--C--C-C---CCC------------------------.
[...]
 |        /        C C      C                    /
 |       /         C   C  C   C                 /

[...]

Density initialized from wave functions
  /        |       C   C         C                |
 *         |    CCC      C       C                |
 |         |          C    C  C C                 |
 |         .---CC-----C-CC------------------------.
 |        /        C C      C                    /
 |       /         C    C C   C                 /

[...]

Density initialized from wave functions
  /        |       C   C         C                |
 *         |    CCC   C  C       C                |
 |         |              C   C C                 |
 |         .---CC-----CC-C------------------------.
 |        /        C C      C                    /
 |       /         C    C C   C                 /

[...]

Density initialized from wave functions
  /        |       C   C         C                |
 *         |    CCC   C  C       C                |
 |         |              C   C C                 |
 |         .---CC-----CCC-------------------------.
 |        /        C C      C                    /
 |       /         C    C C   C                 /

[...]

Density initialized from wave functions
  /        |       C   C          C               |
 *         |    CCC   C  C       C                |
 |         |    C         C   C C                 |
 |         .---C------CCC-------------------------.
 |        /        C C      C                    /
 |       /         C    C C   C                 /

[...]

Density initialized from wave functions
  /        |       C   C          C               |
 *         |    CCC   C  C       C                |
 |         |    C         C  C  C                 |
 |         .---C------CCC-------------------------.
 |        /        C C      C                    /
 |       /         C    C  C  C                 /

[...]

Density initialized from wave functions
  /        |       C   C          C               |
 *         |    CCC      C       C                |
 |         |    C     C   C  C  C                 |
 |         .---C------CCC---C---------------------.
 |        /        C C                           /
 |       /         C    C  C  C                 /

[...]

Density initialized from wave functions
  /        |       C   C          C               |
 *         |    CCC      C       C                |
 |         |    C     C   C  C  C                 |
 |         .---C------CCC---C---------------------.
 |        /        C C                           /
 |       /        C     C  C  C                 /

[...]

Density initialized from wave functions
  /        |       C              C               |
 *         |    CCC   C  C       C                |
 |         |    C     C   C  C  C                 |
 |         .---C------CCC---C---------------------.
 |        /        C C                           /
 |       /        C     C  C  C                 /

[...]

Density initialized from wave functions
  /        |       C              C               |
 *         |    CCC   C  C       C                |
 |         |          C   C  C  C                 |
 |         .---CC-----CCC---C---------------------.
 |        /        C C                           /
 |       /        C     C  C  C                 /

[...]

Density initialized from wave functions
  /        |       C              C               |
 *         |    CCC   C  C       C                |
 |         |          C   C  C  C                 |
 |         .----C-----CCC---C---------------------.
 |        /        C C                           /
 |       /        C     C  C  C                 /

[...]

Density initialized from wave functions
  /        |       C              C               |
 *         |    CCC   C  C       C                |
 |         |          C   C  C  C                 |
 |         .----C-----CCC---C---------------------.
 |        /        C C                           /
 |       /        C     C  C  C                 /

[...]

Density initialized from wave functions
  /        |       C              C               |
 *         |    CCC   C  C       C                |
 |         |          C   C  C  C                 |
 |         .---CC-----CCC---C---------------------.
 |        /        C C                           /
 |       /        C     C  C  C                 /

[...]

Density initialized from wave functions
  /        |       C              C               |
 *         |    CCC   C  C       C                |
 |         |    C     C   C  C  C                 |
 |         .---C------CCC---C---------------------.
 |        /        C C                           /
 |       /        C     C  C  C                 /

[...]

Density initialized from wave functions
  /        |       C              C               |
 *         |    CCC   C  C       C                |
 |         |    C     C   C  C  C                 |
 |         .---C------CCC---C---------------------.
 |        /       CC C                           /
 |       /              C  C  C                 /

[...]

Density initialized from wave functions
  /        |       C              C               |
 *         |    CC C  C  C       C                |
 |         |    C     C   C  C  C                 |
 |         .---C------CC----C---------------------.
 |        /       CC C  C                        /
 |       /              C  C  C                 /

[...]

Density initialized from wave functions
  /        |       C               C              |
 *         |    CC C   C C       C                |
 |         |    C     C   C  C  C                 |
 |         .---C------CC----C---------------------.
 |        /       CC C  C                        /
 |       /              C  C  C                 /

[...]

Density initialized from wave functions
  /        |                       C              |
 *         |    CC C   C C       C                |
 |         |    C     C   C  C  C                 |
 |         .---C------CC----C---------------------.
 |        /       C  C  C     C                  /
 |       /              C  C                    /

[...]

Density initialized from wave functions
  /        |                       C              |
 *         |     C C   C C       C                |
 |         |          C   C  C  C                 |
 |         .---CC-----CC----C---------------------.
 |        /       C  C  C     C                  /
 |       /              C  C                    /

[...]

Density initialized from wave functions
  /        |                       C              |
 *         |     C C   C C       C                |
 |         |          C   C  C  C                 |
 |         .---CC-----CC----C---------------------.
 |        /       C  C  C     C                  /
 |       /              C  C                    /

[...]

Density initialized from wave functions
  /        |                       C              |
 *         |    CC C   C C       C                |
 |         |          C   C  C  C                 |
 |         .---CC-----CC----C---------------------.
 |        /       C C   C      C                 /
 |       /              C  C                    /

[...]

Density initialized from wave functions
  /        |                       C              |
 *         |    CC C   C C       C                |
 |         |          C   C  C  C                 |
 |         .---CC-----CC----C---------------------.
 |        /       C C   C      C                 /
 |       /              C  C                    /

[...]

Density initialized from wave functions
  /        |                       C              |
 *         |     C C   C C       C                |
 |         |          C   C  C  C                 |
 |         .---CC-----CC----C---------------------.
 |        /      CC C   C      C                 /
 |       /              C   C                   /

[...]

Density initialized from wave functions
  /        |                       C              |
 *         |     C C   C C       C                |
 |         |          C   C  C  C                 |
 |         .---CC-----CC----C---------------------.
 |        /      CC C   C      C                 /
 |       /              C   C                   /

[...]

Density initialized from wave functions
  /        |        C              C              |
 *         |     C C   C C       C                |
 |         |          C   C  C  C                 |
 |         .---CC-----CC----C---------------------.
 |        /      CC C   C      C                 /
 |       /              C   C                   /

[...]

Density initialized from wave functions
  /        |        C              C              |
 *         |     CCC  C  C       C                |
 |         |          C   C  C C                  |
 |         .---CC-----CC----C---------------------.
 |        /      CC C   C      C                 /
 |       /              C   C                   /

[...]

Density initialized from wave functions
  /        |        C              C              |
 *         |     CCC   C C       C                |
 |         |          C   C  C C                  |
 |         .---CC-----CC----C---------------------.
 |        /      CC C   C      C                 /
 |       /              C   C                   /

[...]

Density initialized from wave functions
  /        |        C              C              |
 *         |     C C   C C       C                |
 |         |          C   C  C C                  |
 |         .---CC-----CC----C---------------------.
 |        /      CC C   C      C                 /
 |       /              C   C                   /

[...]

Density initialized from wave functions
  /        |        C                             |
 *         |     CCC   C C       C C              |
 |         |          C   C  C C                  |
 |         .---CC-----CC----C---------------------.
 |        /      CC C   C      C                 /
 |       /              C   C                   /

[...]

Density initialized from wave functions
  /        |      C C                             |
 *         |     C C   C C       C C              |
 |         |          C   C  C C                  |
 |         .---CC-----CC----C---------------------.
 |        /      CC C   C      C                 /
 |       /              C   C                   /

[...]

System changes: positions

Initializing position-dependent things.

Density initialized from wave functions
  /        |        C                             |
 *         |     CCC   C C       C C              |
 |         |          C   C  C C                  |
 |         .---CC-----CC----C---------------------.
 |        /      CC C   C      C                 /
 |       /              C   C                   /

Positions:
   0 C      7.893306    9.147880    4.417425
   1 C      6.065902   10.755561    4.570415
   2 C      7.244641   10.397766    4.273021
   3 C     10.330769    8.186526    5.120573
   4 C     10.564359    9.626871    4.852964
   5 C      4.439854    9.219730    5.598542
   6 C     10.989305   10.884664    4.705468
   7 C      6.967050    7.956075    4.520188
   8 C      9.238737    8.941846    4.693221
   9 C      4.949851   10.300356    5.186137
  10 C      6.022649    7.457250    3.675941
  11 C      5.069492    6.448179    3.834168
  12 C      5.482441    6.963536    6.338903
  13 C      4.864551    5.737494    5.729336
  14 C      6.852628    7.008984    5.720780
  15 C     10.934629    4.862619    4.997899
  16 C      5.763954    5.358473    4.652436
  17 C      7.128129    5.621176    5.168582
  18 C      9.967937    3.920998    4.524534
  19 C      9.711909    5.230995    5.486838
  20 C      8.682051    3.576780    4.567135
  21 C      8.268866    4.895573    5.079745
  22 C      4.099233    6.730713    4.980891
  23 C      4.399820    7.865175    5.865578

Unit cell:
           periodic     x           y           z      points  spacing
  1. axis:    yes   16.000000    0.000000    0.000000    80     0.2000
  2. axis:    yes    0.000000   16.000000    0.000000    80     0.2000
  3. axis:    yes    0.000000    0.000000   10.000000    48     0.2083

Effective grid spacing dv^(1/3) = 0.2027

                     log10-error:    total        iterations:
           time      wfs    density  energy       fermi  poisson
iter:   1  16:27:51          +inf  -171.616629    2      5
iter:   2  16:27:51         -2.57  -171.614405    2      1
iter:   3  16:27:52         -2.67  -171.612980    2      2
iter:   4  16:27:52         -2.94  -171.613902    2      2
iter:   5  16:27:53         -2.87  -171.613772    2      2
iter:   6  16:27:53         -3.00  -171.612284    2      1
iter:   7  16:27:54         -3.44  -171.612703    2      1
iter:   8  16:27:55         -3.27  -171.612871    2      1
iter:   9  16:27:55         -3.87  -171.612948    1      1
iter:  10  16:27:56         -3.91  -171.612910    2      1
iter:  11  16:27:56         -4.09  -171.612891    1      1

Converged after 11 iterations.

Dipole moment: (-1.054996, -0.033559, 0.007311) |e|*Ang

Energy contributions relative to reference atoms: (reference = -24663.074771)

Kinetic:       +106.775193
Potential:     -110.493457
External:        +0.000000
XC:            -170.787237
Entropy (-ST):   -0.047155
Local:           +2.916187
Free energy:   -171.636468
Extrapolated:  -171.612891

Fermi level: -4.72549

 Band  Eigenvalues  Occupancy
    0    -25.00146    2.00000
    1    -23.69574    2.00000
    2    -22.64519    2.00000
    3    -21.54052    2.00000
    4    -21.31460    2.00000
    5    -20.16211    2.00000
    6    -20.00532    2.00000
    7    -19.63985    2.00000
    8    -19.00724    2.00000
    9    -18.11431    2.00000
   10    -17.50291    2.00000
   11    -17.22000    2.00000
   12    -16.61103    2.00000
   13    -15.66037    2.00000
   14    -15.11719    2.00000
   15    -14.94604    2.00000
   16    -14.48256    2.00000
   17    -13.43074    2.00000
   18    -13.14983    2.00000
   19    -12.80186    2.00000
   20    -12.47176    2.00000
   21    -12.16979    2.00000
   22    -11.28368    2.00000
   23    -10.89230    2.00000
   24    -10.68615    2.00000
   25    -10.45582    2.00000
   26    -10.20949    2.00000
   27    -10.05446    2.00000
   28     -9.97206    2.00000
   29     -9.69224    2.00000
   30     -9.46160    2.00000
   31     -9.35731    2.00000
   32     -9.05207    2.00000
   33     -8.96120    2.00000
   34     -8.54657    2.00000
   35     -8.23971    2.00000
   36     -7.47508    2.00000
   37     -7.23679    2.00000
   38     -6.96520    2.00000
   39     -6.43620    2.00000
   40     -6.30669    2.00000
   41     -6.03356    2.00000
   42     -5.86443    1.99998
   43     -5.77571    1.99995
   44     -5.64953    1.99981
   45     -5.61624    1.99973
   46     -5.32754    1.99515
   47     -5.11238    1.95909
   48     -4.34374    0.04302
   49     -4.08285    0.00323
   50     -3.65873    0.00005
   51     -3.31004    0.00000
   52     -3.05278    0.00000
   53     -2.77250    0.00000
   54     -2.55349    0.00000
   55     -2.38981    0.00000
   56     -2.03509    0.00000
   57     -1.68984    0.00000
   58     -1.25286    0.00000
   59     -0.93706    0.00000
[...]
   83      7.95931    0.00000
   84      8.01270    0.00000
   85      8.21322    0.00000
   86      8.36684    0.00000
   87      8.52569    0.00000
   88      8.63295    0.00000
   89      8.82683    0.00000
   90      9.05338    0.00000
   91      9.12398    0.00000
   92      9.22122    0.00000
   93      9.38754    0.00000
   94      9.44835    0.00000
   95      9.63739    0.00000
   96      9.71831    0.00000
   97      9.81850    0.00000

Forces in eV/Ang:
  0 C    -0.00901   -0.01860   -0.02844
  1 C     0.00821   -0.01535    0.00750
  2 C    -0.02109    0.08110   -0.01361
  3 C    -0.02993   -0.02465    0.00547
  4 C    -0.01061   -0.03165    0.05423
  5 C     0.01166   -0.01071    0.02141
  6 C     0.00888   -0.00660   -0.03321
  7 C    -0.02795   -0.00064   -0.01704
  8 C    -0.00914    0.00693    0.01415
  9 C    -0.00211   -0.01276   -0.01882
 10 C     0.01560    0.01458   -0.00294
 11 C    -0.00558    0.01072    0.02197
 12 C     0.00253    0.02159   -0.01839
 13 C     0.02807    0.01432    0.01912
 14 C    -0.03690    0.00459   -0.02464
 15 C    -0.00050   -0.02378   -0.00137
 16 C     0.01048    0.00732    0.00195
 17 C    -0.00425    0.00644   -0.02256
 18 C     0.05098   -0.00625    0.02420
 19 C     0.01681    0.02803   -0.00258
 20 C    -0.01434   -0.00956   -0.01203
 21 C     0.03072    0.00626   -0.00006
 22 C     0.00465    0.00926   -0.01864
 23 C     0.02373    0.02974    0.00230