User:   esb@s65n33.grendel.cscaa.dk
Date:   Thu Nov  9 10:12:38 2017
Arch:   x86_64
Pid:    74498
Python: 2.7.13
gpaw:   /home/esb/DFT/gpaw_git/gpaw
_gpaw:  /home/esb/DFT/gpaw_git/build/bin.linux-x86_64-2.7/gpaw-python
ase:    /home/esb/DFT/ase_git/ase (version 3.15.0b1)
numpy:  /comm/swstack/core/python/2.7.13/lib/python2.7/site-packages/numpy (version 1.13.3)
scipy:  /comm/swstack/core/python/2.7.13/lib/python2.7/site-packages/scipy (version 0.19.1)
units:  Angstrom and eV
cores:  16
Extra parameters: {'blacs': True}

Input parameters:
  basis: dzp
  gpts: [80 80 48]
  kpts: [1 1 1]
  maxiter: 99
  mixer: {backend: pulay,
          beta: 0.05,
          method: separate,
          nmaxold: 5,
          weight: 75}
  mode: lcao
  nbands: -50
  occupations: {name: fermi-dirac,
                width: 0.1}
  poissonsolver: {eps: 1e-07,
                  name: fd,
                  nn: 3,
                  relax: GS}
  xc: PBE

System changes: positions, numbers, cell, pbc, initial_charges, initial_magmoms

Initialize ...

C-setup:
  name: Carbon
  id: 4aa54d4b901d75f77cc0ea3eec22967b
  Z: 6
  valence: 4
  core: 2
  charge: 0.0
  file: /home/esb/DFT/gpaw-setups-0.8.7929/C.PBE.gz
  cutoffs: 0.64(comp), 1.14(filt), 1.14(core), lmax=2
  valence states:
                energy  radius
    2s(2.00)   -13.751   0.635
    2p(2.00)    -5.284   0.635
    *s          13.461   0.635
    *p          21.927   0.635
    *d           0.000   0.635

  LCAO basis set for C:
    Name: dzp
    File: /home/esb/DFT/gpaw-setups-0.8.7929/C.dzp.basis.gz
    Number of radial functions: 5
    Number of spherical harmonics: 13
      l=0, rc=5.5469 Bohr: 2s-sz confined orbital
      l=1, rc=6.6719 Bohr: 2p-sz confined orbital
      l=0, rc=3.0312 Bohr: 2s-dz split-valence wave
      l=1, rc=3.7500 Bohr: 2p-dz split-valence wave
      l=2, rc=6.6719 Bohr: d-type Gaussian polarization

Reference energy: -24663.074771

Spin-paired calculation

Occupation numbers:
  Fermi-Dirac: width=0.1000 eV

Convergence criteria:
  Maximum total energy change: 0.0005 eV / electron
  Maximum integral of absolute density change: 0.0001 electrons
  Maximum integral of absolute eigenstate change: 4e-08 eV^2
  Maximum number of iterations: 99

Symmetries present (total): 1

  ( 1  0  0)
  ( 0  1  0)
  ( 0  0  1)

1 k-point (Gamma)
1 k-point in the irreducible part of the Brillouin zone
       k-points in crystal coordinates                weights
   0:     0.00000000    0.00000000    0.00000000          1/1

Wave functions: LCAO
  Diagonalizer: Serial LAPACK
  Atomic Correction: dense with blas
  Datatype: float
  Eigensolver: None

LCAO using direct dense diagonalizer

Densities:
  Coarse grid: 80*80*48 grid
  Fine grid: 160*160*96 grid
  Total Charge: 0.000000

Density mixing:
  Method: separate
  Backend: pulay
  Linear mixing parameter: 0.05
  Mixing with 5 old densities
  Damping of long wave oscillations: 75

Hamiltonian:
  XC and Coulomb potentials evaluated on a 160*160*96 grid
  Using the PBE Exchange-Correlation functional
  Interpolation: tri-quintic (5. degree polynomial)
  Poisson solver: Gauss-Seidel solver with 6 multi-grid levels
    Coarsest grid: 5 x 5 x 3 points
    Stencil: 6*3+1=19 point O(h^6) finite-difference Laplacian
    Max iterations: 1000
    Tolerance: 1.000000e-07

Total number of cores used: 16
Domain decomposition: 2 x 4 x 2

Number of atoms: 24
Number of atomic orbitals: 312
Number of bands in calculation: 98
Bands to converge: occupied states only
Number of valence electrons: 96

... initialized

Initializing position-dependent things.

Density initialized from atomic densities
  /        |           C        C                 |
 *         |     C  CC    C  C  CC                |
 |         |  C C       C  C   C                  |
 |         .------C--CC--C----C-------------------.
 |        /             C   C                    /
 |       /                 C                    /

Positions:
   0 C      7.545008    7.469398    5.484831
   1 C      7.252239    6.043942    5.461289
   2 C      8.744317    8.020017    5.153980
   3 C      6.569842   10.046205    5.224577
   4 C      9.626277    3.499931    4.446701
   5 C      9.646979    5.747938    4.760416
   6 C      8.269004    5.191823    5.106994
   7 C      7.809452   10.175471    4.986225
   8 C      9.016181    9.454922    4.850008
   9 C      5.511718    9.104155    5.462811
  10 C      6.146601    7.817678    5.591381
  11 C      4.067361    9.110587    5.528720
  12 C      9.898563   10.644923    5.599173
  13 C     10.434076    9.421653    5.216394
  14 C      3.509808    6.783443    5.873978
  15 C      8.562908    4.459614    6.259982
  16 C      7.353857    4.115191    6.367381
  17 C     10.731988    5.840759    6.458928
  18 C      6.013438    4.129071    6.449256
  19 C     11.284718    6.998066    6.380354
  20 C      4.869990    4.668988    6.329971
  21 C     10.963267    8.034841    5.513893
  22 C      3.951991    5.618181    6.124947
  23 C      9.949949    7.491084    4.585505

Unit cell:
           periodic     x           y           z      points  spacing
  1. axis:    yes   16.000000    0.000000    0.000000    80     0.2000
  2. axis:    yes    0.000000   16.000000    0.000000    80     0.2000
  3. axis:    yes    0.000000    0.000000   10.000000    48     0.2083

Effective grid spacing dv^(1/3) = 0.2027

                     log10-error:    total        iterations:
           time      wfs    density  energy       fermi  poisson
iter:   1  10:12:40          +inf  -164.165719    2      6
iter:   2  10:12:41         -0.88  -162.286303    3      3
iter:   3  10:12:41         -0.93  -161.497963    4      3
iter:   4  10:12:42         -0.93  -162.452588    3      2
iter:   5  10:12:42         -0.92  -160.504448    5      3
iter:   6  10:12:43         -0.99  -159.290997    4      3
iter:   7  10:12:44         -1.21  -158.989028    4      3
iter:   8  10:12:44         -1.37  -158.711554    3      3
iter:   9  10:12:45         -1.62  -158.609334    3      2
iter:  10  10:12:45         -1.72  -158.550335    3      3
iter:  11  10:12:46         -1.88  -158.543807    2      3
iter:  12  10:12:47         -2.01  -158.540690    3      2
iter:  13  10:12:47         -2.10  -158.528089    4      2
iter:  14  10:12:48         -2.42  -158.522322    3      2
iter:  15  10:12:48         -2.52  -158.522086    3      2
iter:  16  10:12:49         -2.74  -158.520310    3      2
iter:  17  10:12:49         -2.93  -158.529376    2      1
iter:  18  10:12:50         -3.07  -158.527591    2      1
iter:  19  10:12:50         -3.20  -158.512639    3      1
iter:  20  10:12:51         -3.41  -158.514166    2      1
iter:  21  10:12:52         -3.61  -158.515406    2      1
iter:  22  10:12:52         -3.89  -158.516643    2      1
iter:  23  10:12:53         -3.99  -158.517794    2      1
iter:  24  10:12:53         -4.13  -158.517317    2      1

Converged after 24 iterations.

Dipole moment: (0.406323, -0.303925, -0.240672) |e|*Ang

Energy contributions relative to reference atoms: (reference = -24663.074771)

Kinetic:       +110.377512
Potential:     -111.218529
External:        +0.000000
XC:            -160.372203
Entropy (-ST):   -0.268957
Local:           +2.830382
Free energy:   -158.651796
Extrapolated:  -158.517317

Fermi level: -4.29910

 Band  Eigenvalues  Occupancy
    0    -24.28153    2.00000
    1    -23.48085    2.00000
    2    -21.58246    2.00000
    3    -21.45464    2.00000
    4    -20.38943    2.00000
    5    -20.12025    2.00000
    6    -19.29354    2.00000
    7    -18.94251    2.00000
    8    -18.66647    2.00000
    9    -17.84811    2.00000
   10    -17.40403    2.00000
   11    -16.42515    2.00000
   12    -16.15633    2.00000
   13    -15.68886    2.00000
   14    -15.14228    2.00000
   15    -14.89182    2.00000
   16    -14.28802    2.00000
   17    -14.12770    2.00000
   18    -13.18366    2.00000
   19    -12.86941    2.00000
   20    -12.50019    2.00000
   21    -11.82365    2.00000
   22    -11.27879    2.00000
   23    -11.13541    2.00000
   24    -11.08662    2.00000
   25    -10.52833    2.00000
   26     -9.86059    2.00000
   27     -9.53966    2.00000
   28     -9.18705    2.00000
   29     -9.11230    2.00000
   30     -8.67061    2.00000
   31     -8.47224    2.00000
   32     -8.31167    2.00000
   33     -8.01515    2.00000
   34     -7.65181    2.00000
   35     -7.43318    2.00000
   36     -7.12645    2.00000
   37     -6.88146    2.00000
   38     -6.81680    2.00000
   39     -6.64732    2.00000
   40     -6.29355    2.00000
   41     -6.06620    2.00000
   42     -5.63250    2.00000
   43     -5.48261    1.99999
   44     -5.38196    1.99996
   45     -5.29591    1.99991
   46     -4.83270    1.99042
   47     -4.41036    1.50524
   48     -4.15427    0.38053
   49     -4.00841    0.10363
   50     -3.81581    0.01580
   51     -3.66748    0.00361
   52     -3.49098    0.00062
   53     -3.41351    0.00029
   54     -3.14052    0.00002
   55     -3.00494    0.00000
   56     -2.48605    0.00000
   57     -2.31211    0.00000
   58     -2.04375    0.00000
   59     -1.74050    0.00000
[...]
   83      8.28428    0.00000
   84      8.46755    0.00000
   85      8.59362    0.00000
   86      8.76388    0.00000
   87      8.84429    0.00000
   88      8.92340    0.00000
   89      9.20621    0.00000
   90      9.29167    0.00000
   91      9.50063    0.00000
   92      9.52591    0.00000
   93      9.62885    0.00000
   94      9.89664    0.00000
   95      9.92070    0.00000
   96     10.10417    0.00000
   97     10.16034    0.00000

Forces in eV/Ang:
  0 C    -5.05648   -2.92591   -0.08865
  1 C    -1.64257    5.43599   -0.66887
  2 C     2.40086    2.48255   -3.95112
  3 C     0.54417    0.20284   -0.04509
  4 C    -1.20010    3.70324    1.44535
  5 C     1.80491    0.61829    0.72070
  6 C     5.66017    1.44387   -3.95110
  7 C    -1.35088   -0.23192   -0.87055
  8 C    -3.35254   -1.16671    1.95113
  9 C    -1.24219   -1.18848   -0.09584
 10 C     1.90875   -0.33337    0.23311
 11 C     0.45768   -0.20454    0.03101
 12 C     2.71934   -0.39868    0.34171
 13 C     3.50347    3.05793    2.92756
 14 C     0.21473    2.35626   -0.47475
 15 C     3.76300   -3.92194    0.80201
 16 C    -5.82762   -2.93168    2.86799
 17 C    -0.70276   -0.69442   -0.94741
 18 C     0.63096   -0.53598    0.61996
 19 C     0.98980    0.67599    0.28080
 20 C    -0.57193    0.15780   -0.06661
 21 C    -1.72932    2.41511   -3.42492
 22 C     0.52523   -1.08707    0.33957
 23 C    -2.39950   -6.74850    1.92033

System changes: positions

[...]

Density initialized from wave functions
  /        |           C        C                 |
 *         |     C  CC    C  C  CC                |
 |         |  C C       C  C   C                  |
 |         .------C--CC--C----C-------------------.
 |        /             C   C                    /
 |       /                 C                    /

[...]

Density initialized from wave functions
  /        |           C        C                 |
 *         |     C  CC    C  C  CC                |
 |         |  C C       C  C   C                  |
[...]

[...]

Density initialized from wave functions
  /        |             C      C C               |
 *         |   CC  C  C     C    CC               |
 |         |   CC    C     C  C C                 |
 |         .------C-C--CC----C--------------------.
 |        /            C CC                      /

[...]

Density initialized from wave functions
  /        |             C      C C               |
 *         |   CC  C  C     C    CC               |
 |         |   CC    C      C C C                 |
 |         .------C-C--CC----C--------------------.
 |        /           C  CC                      /

[...]

Density initialized from wave functions
  /        |             C      C C               |
 *         |   CC  C  C     C     C               |
 |         |   CC    C      C C C                 |
 |         .------C-C--CC----C--------------------.
 |        /           C  CC                      /

[...]

Density initialized from wave functions
  /        |             C      C C               |
 *         |   CC  C  C     C     C               |
 |         |   CC    C      C C C                 |
 |         .------C-C--CC----C--------------------.
 |        /           C  CC                      /

[...]

Density initialized from wave functions
  /        |          C  C      C C               |
 *         |   CC  C        C     C               |
 |         |   CC    C      C C C                 |
 |         .------C-C--CC----C--------------------.
 |        /           C  CC                      /

[...]

Density initialized from wave functions
  /        |          C  C      C C               |
 *         |   CC  C        C     C               |
 |         |   CC    C      C C C                 |
 |         .------C-C--CC----C--------------------.
 |        /           C  CC                      /

[...]

Density initialized from wave functions
  /        |          C  C      C C               |
 *         |   CC   C       C    CC               |
 |         |   CC    C      C C C                 |
 |         .------C-C--CC----C--------------------.
 |        /           C  CC                      /

[...]

Density initialized from wave functions
  /        |          C  C      C C               |
 *         |   CC   C       C    CC               |
 |         |   CC    C      C C C                 |
 |         .------C-C--CC----C--------------------.
 |        /           C  CC                      /

[...]

Density initialized from wave functions
  /        |          C  C      C C               |
 *         |   CC   C       C    CC               |
 |         |   CC    C      C C C                 |
 |         .-----C-C---CC----C--------------------.
 |        /           C  CC                      /

[...]

Density initialized from wave functions
  /        |          C  C      C C               |
 *         |   CC   C        C   CC               |
 |         |   CC    C      C C C                 |
 |         .-----C-C---CC----C--------------------.
 |        /           C  CC                      /

[...]

Density initialized from wave functions
  /        |             C      C C               |
 *         |   CC   C C      C   CC               |
 |         |   CC    C      C C C                 |
 |         .-----C-C---C-C---C--------------------.
 |        /           C  CC                      /

[...]

Density initialized from wave functions
  /        |             C      C C               |
 *         |   CC   C C      C   CC               |
 |         |   CC    C      C C C                 |
 |         .-----C-C---C-C---C--------------------.
 |        /           C  CC                      /

[...]

Density initialized from wave functions
  /        |              C     C C               |
 *         |   CC   C C      C   CC               |
 |         |  C C           C C C                 |
 |         .-----C-C-C-C-C---C--------------------.
 |        /           C  CC                      /

[...]

Density initialized from wave functions
  /        |             C      C C               |
 *         |   CC   C C      C   CC               |
 |         |  CC            C C C                 |
 |         .-----C-C-C-C-C---C--------------------.
 |        /           C  CC                      /

[...]

Density initialized from wave functions
  /        |             C      C C               |
 *         |  CCC   C C      C   CC               |
 |         |   C            C C C                 |
 |         .-----C-C-C-C-C---C--------------------.
 |        /           C  CC                      /

[...]

Density initialized from wave functions
  /        |             C      C C               |
 *         |  CCC   C C      C   CC               |
 |         |   C            C C C                 |
 |         .-----C-C-C-C-CC--C--------------------.
 |        /           C  C                       /

[...]

Density initialized from wave functions
  /        |             C      C C               |
 *         |  CCC   C C      C   CC               |
 |         |   C            C C C                 |
 |         .-----C-C-C-C-CC--C--------------------.
 |        /           C  C                       /

[...]

Density initialized from wave functions
  /        |             C      C C               |
 *         |  CC C    C      C   CC               |
 |         |   C    C       C C C                 |
 |         .-----C-C-C-C-CC--C--------------------.
 |        /           C  C                       /

[...]

Density initialized from wave functions
  /        |             C      C C               |
 *         |  CC C    C      C   CC               |
 |         |   C    C       C C C                 |
 |         .-----C-C-C-C-CC--C--------------------.
 |        /           C  C                       /

[...]

Density initialized from wave functions
  /        |             C      C C               |
 *         |  CC C    C      C    C               |
 |         |   C    C       C C C                 |
 |         .-----C-C-C--CCC--C--------------------.
 |        /           C C                        /

[...]

Density initialized from wave functions
  /        |             C      C C               |
 *         |  CC C    C      C    CC              |
 |         |   C    C       C C C                 |
 |         .-----C-C-C--CCC--C--------------------.
 |        /           C C                        /

[...]

Density initialized from wave functions
  /        |             C      C C               |
 *         |  CC C    C      C    CC              |
 |         |   C    C       C C C                 |
 |         .-----C-C-C--CCC--C--------------------.
 |        /           C C                        /

[...]

Density initialized from wave functions
  /        |             C      C C               |
 *         |  CC C    C      C    CC              |
 |         |   C    C       C C C                 |
 |         .----C--C-C--CCC--C--------------------.
 |        /           C C                        /

[...]

Density initialized from wave functions
  /        |             C      C C               |
 *         |  CC C    C      C    CC              |
 |         |  C     C       C C C                 |
 |         .----C--C--C-CCC--C--------------------.
 |        /           C C                        /

[...]

Density initialized from wave functions
  /        |             C      C C               |
 *         |  CC C    C      C    CC              |
 |         |  C     C       C C C                 |
 |         .----C--C--C-CCC--C--------------------.
 |        /           C C                        /

[...]

Density initialized from wave functions
  /        |             C      C C               |
 *         |  CC C    C      C    CC              |
 |         |  C     C       C C C                 |
 |         .----C-C---C-CCC--C--------------------.
 |        /           C C                        /

[...]

Density initialized from wave functions
  /        |             C      C C               |
 *         |  CC C    C      C    CC              |
 |         |  C     C       C C C                 |
 |         .----C-C---C-CCC--C--------------------.
 |        /           C C                        /

[...]

Density initialized from wave functions
  /        |             C      C C               |
 *         |  CC C    C      C    CC              |
 |         |  C     C       C C C                 |
 |         .----C-C---C--CC--C--------------------.
 |        /           C C                        /

[...]

Density initialized from wave functions
  /        |             C      C C               |
 *         |  CC C    C      C    CC              |
 |         |  C     C       C  CC                 |
 |         .----C-C---C--CC--C--------------------.
 |        /          C  C                        /

[...]

Density initialized from wave functions
  /        |             C      C C               |
 *         |  CC C    C      C    CC              |
 |         |  C     C       C  CC                 |
 |         .----C-C--CC--CC--C--------------------.
 |        /             C                        /

[...]

Density initialized from wave functions
  /        |             C      C C               |
 *         |  CC C    C      C    CC              |
 |         |  C     C       C  CC                 |
 |         .----C-C---C--CC--C--------------------.
 |        /             C                        /

[...]

Density initialized from wave functions
  /        |             C      C C               |
 *         |  CC C    C      C    CC              |
 |         |  C     C       C  CC                 |
 |         .----C-C---C--CC--C--------------------.
 |        /             C                        /

[...]

Density initialized from wave functions
  /        |             C      C C               |
 *         |  CC C    C      C    C               |
 |         |  C     C       C  CC                 |
 |         .----C-C---C--CC--C--------------------.
 |        /             C                        /

[...]

Density initialized from wave functions
  /        |             C      C C               |
 *         |  CC C    C      C    C               |
 |         |  C     C       C  CC                 |
 |         .----C-C---C--CC--C--------------------.
 |        /             C                        /

[...]

Density initialized from wave functions
  /        |             C      C C               |
 *         | C C C    C      C    C               |
 |         |  C     C       C  CC                 |
 |         .----C-C---C--CC--C--------------------.
 |        /             C                        /

[...]

System changes: positions

Initializing position-dependent things.

Density initialized from wave functions
  /        |             C      C C               |
 *         | C C C    C      C    C               |
 |         |  C     C       C  CC                 |
 |         .----C-C---C--CC--C--------------------.
 |        /             C                        /

Positions:
   0 C      7.942275    7.842011    4.148689
   1 C      7.747574    6.489998    4.383566
   2 C      9.028655    8.661538    4.537366
   3 C      6.347096    9.643582    5.259908
   4 C      8.414511    4.415801    5.578088
   5 C     10.024185    6.356158    5.084872
   6 C      8.779234    5.661652    4.977603
   7 C      7.405746   10.316697    5.130760
   8 C      8.808542   10.019641    5.067143
   9 C      5.696332    8.358972    5.206471
  10 C      6.650104    7.513418    4.558877
  11 C      4.572409    7.817134    5.880339
  12 C     10.038595   10.448566    5.580338
  13 C     11.045433    9.703225    5.870317
  14 C      3.873176    6.856753    6.290809
  15 C      7.497235    3.713010    6.062380
  16 C      6.305560    3.255984    6.538759
  17 C     11.277866    6.080525    5.772718
  18 C      5.127929    3.580794    6.858142
  19 C     11.889296    7.139262    6.149698
  20 C      4.040367    4.394170    6.906392
  21 C     11.286809    8.356549    5.644256
  22 C      3.687644    5.603611    6.782611
  23 C     10.123050    7.850374    4.878244

Unit cell:
           periodic     x           y           z      points  spacing
  1. axis:    yes   16.000000    0.000000    0.000000    80     0.2000
  2. axis:    yes    0.000000   16.000000    0.000000    80     0.2000
  3. axis:    yes    0.000000    0.000000   10.000000    48     0.2083

Effective grid spacing dv^(1/3) = 0.2027

                     log10-error:    total        iterations:
           time      wfs    density  energy       fermi  poisson
iter:   1  10:26:08          +inf  -182.677452    2      4
iter:   2  10:26:08         -3.21  -182.677503    2      1
iter:   3  10:26:09         -3.29  -182.678293    2      1
iter:   4  10:26:09         -3.52  -182.677567    2      1
iter:   5  10:26:10         -3.69  -182.677475    2      1
iter:   6  10:26:10         -3.93  -182.677777    2      1
iter:   7  10:26:11         -4.08  -182.677515    2      1

Converged after 7 iterations.

Dipole moment: (-0.084574, 0.123076, -0.180176) |e|*Ang

Energy contributions relative to reference atoms: (reference = -24663.074771)

Kinetic:       +106.528458
Potential:     -114.078841
External:        +0.000000
XC:            -178.172125
Entropy (-ST):   -0.060137
Local:           +3.075060
Free energy:   -182.707583
Extrapolated:  -182.677515

Fermi level: -4.04883

 Band  Eigenvalues  Occupancy
    0    -23.47447    2.00000
    1    -22.20392    2.00000
    2    -21.22363    2.00000
    3    -20.51770    2.00000
    4    -20.30420    2.00000
    5    -19.87392    2.00000
    6    -19.43508    2.00000
    7    -19.31923    2.00000
    8    -18.58486    2.00000
    9    -18.15442    2.00000
   10    -17.71888    2.00000
   11    -17.17007    2.00000
   12    -16.38864    2.00000
   13    -15.53615    2.00000
   14    -15.44732    2.00000
   15    -14.91917    2.00000
   16    -14.59139    2.00000
   17    -13.48545    2.00000
   18    -13.36354    2.00000
   19    -13.18447    2.00000
   20    -12.94208    2.00000
   21    -12.31090    2.00000
   22    -12.23132    2.00000
   23    -11.79350    2.00000
   24    -11.43558    2.00000
   25    -10.72785    2.00000
   26    -10.45272    2.00000
   27     -9.83893    2.00000
   28     -9.55080    2.00000
   29     -9.10451    2.00000
   30     -8.94572    2.00000
   31     -8.89141    2.00000
   32     -8.53066    2.00000
   33     -8.34491    2.00000
   34     -8.25672    2.00000
   35     -7.82681    2.00000
   36     -7.70464    2.00000
   37     -7.19309    2.00000
   38     -7.09980    2.00000
   39     -6.62991    2.00000
   40     -6.55354    2.00000
   41     -6.40421    2.00000
   42     -6.33721    2.00000
   43     -5.88250    2.00000
   44     -5.49476    2.00000
   45     -5.26057    1.99999
   46     -5.03554    1.99990
   47     -4.38452    1.93266
   48     -3.70954    0.06504
   49     -3.37623    0.00240
   50     -2.84630    0.00001
   51     -2.74735    0.00000
   52     -2.59743    0.00000
   53     -2.17048    0.00000
   54     -1.70736    0.00000
   55     -1.34547    0.00000
   56     -0.97790    0.00000
   57     -0.60414    0.00000
   58     -0.44759    0.00000
   59      0.01282    0.00000
[...]
   83      9.12959    0.00000
   84      9.20039    0.00000
   85      9.30225    0.00000
   86      9.53169    0.00000
   87      9.65972    0.00000
   88      9.76581    0.00000
   89      9.86640    0.00000
   90      9.93424    0.00000
   91      9.95061    0.00000
   92     10.05610    0.00000
   93     10.16449    0.00000
   94     10.34655    0.00000
   95     10.41577    0.00000
   96     10.48431    0.00000
   97     10.60464    0.00000

Forces in eV/Ang:
  0 C    -0.03485    0.01182   -0.03457
  1 C    -0.04311    0.03464   -0.01445
  2 C    -0.00988    0.02879   -0.03638
  3 C     0.01914   -0.01394    0.01799
  4 C    -0.02560   -0.02737   -0.07975
  5 C    -0.03483    0.02414    0.02682
  6 C    -0.02254   -0.00071   -0.00657
  7 C    -0.03166    0.05370   -0.00711
  8 C     0.01415    0.00230    0.03144
  9 C    -0.01870    0.00058   -0.01394
 10 C    -0.00860    0.04015   -0.02540
 11 C     0.01918   -0.06610    0.00490
 12 C     0.02043    0.00757    0.02191
 13 C     0.04413    0.04198    0.00908
 14 C     0.06215    0.01423   -0.00696
 15 C     0.04183    0.01383    0.00813
 16 C    -0.05726   -0.04168    0.04368
 17 C    -0.02688   -0.03649    0.05008
 18 C     0.00599    0.02525    0.00233
 19 C     0.02749   -0.04567   -0.01651
 20 C     0.00482    0.01623    0.02452
 21 C    -0.00642    0.02986    0.03132
 22 C     0.05805    0.00154   -0.01845
 23 C     0.00718   -0.04099   -0.00241