User:   esb@s65n74.grendel.cscaa.dk
Date:   Thu Nov  9 11:23:13 2017
Arch:   x86_64
Pid:    100768
Python: 2.7.13
gpaw:   /home/esb/DFT/gpaw_git/gpaw
_gpaw:  /home/esb/DFT/gpaw_git/build/bin.linux-x86_64-2.7/gpaw-python
ase:    /home/esb/DFT/ase_git/ase (version 3.15.0b1)
numpy:  /comm/swstack/core/python/2.7.13/lib/python2.7/site-packages/numpy (version 1.13.3)
scipy:  /comm/swstack/core/python/2.7.13/lib/python2.7/site-packages/scipy (version 0.19.1)
units:  Angstrom and eV
cores:  16
Extra parameters: {'blacs': True}

Input parameters:
  basis: dzp
  gpts: [80 80 48]
  kpts: [1 1 1]
  maxiter: 99
  mixer: {backend: pulay,
          beta: 0.05,
          method: separate,
          nmaxold: 5,
          weight: 75}
  mode: lcao
  nbands: -50
  occupations: {name: fermi-dirac,
                width: 0.1}
  poissonsolver: {eps: 1e-07,
                  name: fd,
                  nn: 3,
                  relax: GS}
  xc: PBE

System changes: positions, numbers, cell, pbc, initial_charges, initial_magmoms

Initialize ...

C-setup:
  name: Carbon
  id: 4aa54d4b901d75f77cc0ea3eec22967b
  Z: 6
  valence: 4
  core: 2
  charge: 0.0
  file: /home/esb/DFT/gpaw-setups-0.8.7929/C.PBE.gz
  cutoffs: 0.64(comp), 1.14(filt), 1.14(core), lmax=2
  valence states:
                energy  radius
    2s(2.00)   -13.751   0.635
    2p(2.00)    -5.284   0.635
    *s          13.461   0.635
    *p          21.927   0.635
    *d           0.000   0.635

  LCAO basis set for C:
    Name: dzp
    File: /home/esb/DFT/gpaw-setups-0.8.7929/C.dzp.basis.gz
    Number of radial functions: 5
    Number of spherical harmonics: 13
      l=0, rc=5.5469 Bohr: 2s-sz confined orbital
      l=1, rc=6.6719 Bohr: 2p-sz confined orbital
      l=0, rc=3.0312 Bohr: 2s-dz split-valence wave
      l=1, rc=3.7500 Bohr: 2p-dz split-valence wave
      l=2, rc=6.6719 Bohr: d-type Gaussian polarization

Reference energy: -24663.074771

Spin-paired calculation

Occupation numbers:
  Fermi-Dirac: width=0.1000 eV

Convergence criteria:
  Maximum total energy change: 0.0005 eV / electron
  Maximum integral of absolute density change: 0.0001 electrons
  Maximum integral of absolute eigenstate change: 4e-08 eV^2
  Maximum number of iterations: 99

Symmetries present (total): 1

  ( 1  0  0)
  ( 0  1  0)
  ( 0  0  1)

1 k-point (Gamma)
1 k-point in the irreducible part of the Brillouin zone
       k-points in crystal coordinates                weights
   0:     0.00000000    0.00000000    0.00000000          1/1

Wave functions: LCAO
  Diagonalizer: Serial LAPACK
  Atomic Correction: dense with blas
  Datatype: float
  Eigensolver: None

LCAO using direct dense diagonalizer

Densities:
  Coarse grid: 80*80*48 grid
  Fine grid: 160*160*96 grid
  Total Charge: 0.000000

Density mixing:
  Method: separate
  Backend: pulay
  Linear mixing parameter: 0.05
  Mixing with 5 old densities
  Damping of long wave oscillations: 75

Hamiltonian:
  XC and Coulomb potentials evaluated on a 160*160*96 grid
  Using the PBE Exchange-Correlation functional
  Interpolation: tri-quintic (5. degree polynomial)
  Poisson solver: Gauss-Seidel solver with 6 multi-grid levels
    Coarsest grid: 5 x 5 x 3 points
    Stencil: 6*3+1=19 point O(h^6) finite-difference Laplacian
    Max iterations: 1000
    Tolerance: 1.000000e-07

Total number of cores used: 16
Domain decomposition: 2 x 4 x 2

Number of atoms: 24
Number of atomic orbitals: 312
Number of bands in calculation: 98
Bands to converge: occupied states only
Number of valence electrons: 96

... initialized

Initializing position-dependent things.

Density initialized from atomic densities
     /     |        C                             |
    /      |                 C                    |
   /       |   C  C                               |
  /        |            C                  C  C   |
 *         |  C               C     C             |
 |         |    C  C   C   C  C C                 |
 |         .---------C----------------------------.
 |        /    C      C                          /
 |       /       C    C                         /
 |      /          C  C                        /

Positions:
   0 C      8.840903    9.566706    7.392013
   1 C     14.489020   10.277494    5.146169
   2 C     10.811222    7.104521    5.404637
   3 C      7.436440    7.646826    6.979654
   4 C     15.796336   10.186026    5.302523
   5 C     11.954845    9.956724    4.720559
   6 C      9.844170    7.819532    6.118883
   7 C      8.056090    1.899608    4.625320
   8 C      7.144349    5.803821    4.487939
   9 C      6.741196    2.264913    5.007565
  10 C      7.742349    3.284970    4.556233
  11 C      7.606997    4.626565    4.444737
  12 C      6.475197    7.006545    4.592228
  13 C      9.499476    9.196423    4.361138
  14 C      8.327668    8.733507    4.318860
  15 C      6.997554    8.371475    4.410588
  16 C      5.708739    3.158161    5.223853
  17 C      5.357577    8.754561    8.426104
  18 C      3.906197    6.683597    7.870640
  19 C      5.037905    7.507867    7.875647
  20 C      3.775784    5.574255    7.298115
  21 C      4.726908    4.880772    6.543396
  22 C      6.031018    5.618635    6.452140
  23 C      4.748184    3.663144    5.855929

Unit cell:
           periodic     x           y           z      points  spacing
  1. axis:    yes   16.000000    0.000000    0.000000    80     0.2000
  2. axis:    yes    0.000000   16.000000    0.000000    80     0.2000
  3. axis:    yes    0.000000    0.000000   10.000000    48     0.2083

Effective grid spacing dv^(1/3) = 0.2027

                     log10-error:    total        iterations:
           time      wfs    density  energy       fermi  poisson
iter:   1  11:23:15          +inf  -153.695105    2      6
iter:   2  11:23:16         -0.80  -147.553617    4      3
iter:   3  11:23:16         -0.87  -148.005393    4      3
iter:   4  11:23:17         -0.77  -143.781473    2      3
iter:   5  11:23:18         -0.97  -143.541108    3      2
iter:   6  11:23:18         -1.01  -144.017226    3      3
iter:   7  11:23:19         -1.03  -143.164063    3      3
iter:   8  11:23:20         -1.01  -142.664754    3      3
iter:   9  11:23:20         -1.21  -142.185949    3      3
iter:  10  11:23:21         -1.40  -142.050882    4      3
iter:  11  11:23:22         -1.49  -142.061273    3      3
iter:  12  11:23:22         -1.65  -141.971336    3      2
iter:  13  11:23:23         -1.82  -141.941655    3      2
iter:  14  11:23:24         -1.89  -141.923830    3      2
iter:  15  11:23:24         -2.04  -141.930124    3      2
iter:  16  11:23:25         -2.15  -141.913072    3      2
iter:  17  11:23:25         -2.39  -141.911926    2      2
iter:  18  11:23:26         -2.56  -141.907427    2      2
iter:  19  11:23:27         -2.71  -141.911497    2      1
iter:  20  11:23:27         -2.78  -141.906119    2      2
iter:  21  11:23:28         -2.96  -141.907694    2      1
iter:  22  11:23:29         -3.11  -141.907228    2      1
iter:  23  11:23:29         -3.21  -141.905820    2      1
iter:  24  11:23:30         -3.31  -141.906260    2      1
iter:  25  11:23:30         -3.44  -141.906228    2      1
iter:  26  11:23:31         -3.56  -141.906403    2      1
iter:  27  11:23:32         -3.70  -141.906101    2      1
iter:  28  11:23:32         -3.86  -141.905708    2      1
iter:  29  11:23:33         -3.97  -141.905335    2      1
iter:  30  11:23:33         -4.10  -141.905283    2      1

Converged after 30 iterations.

Dipole moment: (15.569786, -0.744480, 0.114450) |e|*Ang

Energy contributions relative to reference atoms: (reference = -24663.074771)

Kinetic:        +55.003941
Potential:      -72.954682
External:        +0.000000
XC:            -126.293963
Entropy (-ST):   -0.669963
Local:           +2.674402
Free energy:   -142.240264
Extrapolated:  -141.905283

Fermi level: -5.15753

 Band  Eigenvalues  Occupancy
    0    -24.11031    2.00000
    1    -21.90379    2.00000
    2    -20.98629    2.00000
    3    -20.51949    2.00000
    4    -20.14059    2.00000
    5    -18.97520    2.00000
    6    -18.82360    2.00000
    7    -17.79009    2.00000
    8    -17.64983    2.00000
    9    -17.10147    2.00000
   10    -16.87342    2.00000
   11    -16.42997    2.00000
   12    -15.66120    2.00000
   13    -15.06969    2.00000
   14    -14.51118    2.00000
   15    -13.71783    2.00000
   16    -13.69896    2.00000
   17    -13.06666    2.00000
   18    -12.86024    2.00000
   19    -12.76449    2.00000
   20    -11.14479    2.00000
   21    -10.92449    2.00000
   22    -10.70390    2.00000
   23    -10.15536    2.00000
   24     -9.86111    2.00000
   25     -9.57875    2.00000
   26     -9.17154    2.00000
   27     -8.80611    2.00000
   28     -8.49987    2.00000
   29     -8.38622    2.00000
   30     -8.27995    2.00000
   31     -8.20284    2.00000
   32     -7.89271    2.00000
   33     -7.57940    2.00000
   34     -7.45780    2.00000
   35     -7.05352    2.00000
   36     -6.86365    2.00000
   37     -6.61780    2.00000
   38     -6.48097    2.00000
   39     -6.35727    1.99999
   40     -6.29631    1.99998
   41     -5.83368    1.99769
   42     -5.65264    1.98595
   43     -5.49070    1.93100
   44     -5.45567    1.90346
   45     -5.39077    1.82305
   46     -5.32702    1.68973
   47     -5.24737    1.42126
   48     -5.06120    0.55245
   49     -5.01696    0.39384
   50     -4.94137    0.20650
   51     -4.84891    0.08736
   52     -4.59860    0.00745
   53     -4.26874    0.00028
   54     -4.02125    0.00002
   55     -3.92536    0.00001
   56     -3.71053    0.00000
   57     -3.55616    0.00000
   58     -3.29218    0.00000
   59     -3.17195    0.00000
[...]
   83      6.81889    0.00000
   84      7.41340    0.00000
   85      7.83717    0.00000
   86      8.16088    0.00000
   87      8.27431    0.00000
   88      8.32661    0.00000
   89      8.62789    0.00000
   90      8.76262    0.00000
   91      8.81275    0.00000
   92      8.85229    0.00000
   93      9.09723    0.00000
   94      9.17321    0.00000
   95      9.23875    0.00000
   96      9.37121    0.00000
   97      9.48540    0.00000

Forces in eV/Ang:
  0 C    -0.26752   -3.38018   -1.74738
  1 C    -1.64232   -0.32425   -0.33380
  2 C    -2.01573    1.86410    1.07223
  3 C     0.07951    1.10680    0.24852
  4 C    -0.58963    0.03412   -0.06807
  5 C     0.92964   -0.45732    0.45259
  6 C     0.50254    1.33058   -0.90316
  7 C     0.49966    0.04815   -0.27196
  8 C    -1.44530    1.40381    0.90393
  9 C    -1.74859    1.65520   -0.22367
 10 C     1.64787    0.47002   -0.38309
 11 C     0.88512   -1.37666   -0.45678
 12 C     2.55033    3.84876   -0.30970
 13 C     5.06266    0.88410    1.46973
 14 C    -6.03935   -1.41816    0.06251
 15 C     0.85353   -4.49075    0.41840
 16 C     0.85771   -4.35625   -0.62379
 17 C     0.58890   -2.93070   -1.82934
 18 C     1.87567    1.68065    0.32771
 19 C    -1.07800    3.73162    2.39799
 20 C    -0.44423   -1.38741   -0.59192
 21 C     0.34742    1.23503   -0.34528
 22 C    -0.81243   -0.39380   -0.26591
 23 C    -0.59363    1.15682    1.02943

System changes: positions

[...]

[...]
 |      /           C                          /
 |     /      C  C C                          /

[...]

Density initialized from wave functions
     /     |              C                       |
    /      |           C     C                    |
   /       |        C          C   C  C           |
  /        |      C                      C  C     |
 *         |    C              C                  |
 |         |                 C                    |
 |         .----C----------C----------------------.
 |        /  C    C     C                        /
 |       /   C       C                          /
 |      /           C                          /
 |     /     C  C  C                          /

[...]

Density initialized from wave functions
     /     |              C  C                    |
    /      |           C                          |
   /       |        C          C   C  C           |
  /        |      C                      C  C     |
 *         |    C              C                  |
 |         |                 C                    |
 |         .----C----------C----------------------.
 |        /  C    C     C                        /
 |       /   C       C                          /
 |      /           C                          /
 |     /     C  C  C                          /

[...]

Density initialized from wave functions
     /     |              C  C                    |
    /      |           C                          |
   /       |        C          C   C  C           |
  /        |      C                      C  C     |
 *         |    C              C                  |
 |         |                 C                    |
 |         .----C----------C----------------------.
 |        /  C    C     C                        /
 |       /   C       C                          /
 |      /          C                           /
 |     /     C  C  C                          /

[...]

Density initialized from wave functions
     /     |              C  C                    |
    /      |           C                          |
   /       |        C          C   C  C           |
  /        |      C            C         C  C     |
 *         |    C                                 |
 |         |                 C                    |
 |         .----C----------C----------------------.
 |        /  C    C     C                        /
 |       /   C       C                          /
 |      /          C                           /
 |     /     C  C  C                          /

[...]

Density initialized from wave functions
     /     |              C  C                    |
    /      |           C                          |
   /       |        C          C   C  C           |
  /        |      C            C         C  C     |
 *         |    C                                 |
 |         |                 C                    |
 |         .----C----------C----------------------.
 |        /  C    C     C                        /
 |       /   C        C                         /
 |      /          C                           /
 |     /     C  C  C                          /

[...]

Density initialized from wave functions
     /     |              C  C                    |
    /      |           C                          |
   /       |        C          C   C  C           |
  /        |      C            C         C  C     |
 *         |    C                                 |
 |         |                 C                    |
 |         .----C----------C----------------------.
 |        /  C    C     C                        /
 |       /   C        C                         /
 |      /          C                           /
 |     /     C  C                             /
 |    /           C                          /

[...]

Density initialized from wave functions
     /     |              C  C                    |
    /      |           C                          |
   /       |        C          C   C  C           |
  /        |      C            C         C  C     |
 *         |    C                                 |
 |         |                 C                    |
 |         .----C----------C----------------------.
 |        /  C    C     C                        /
 |       /   C        C                         /
 |      /          C                           /
 |     /    C  C                              /
 |    /           C                          /

[...]

Density initialized from wave functions
     /     |              C  C                    |
    /      |           C                          |
   /       |        C          C   C  C  C        |
  /        |      C            C            C     |
 *         |    C                                 |
 |         |                 C                    |
 |         .----C----------C----------------------.
 |        /  C    C      C                       /
 |       /   C        C                         /
 |      /          C                           /
 |     /    C  C                              /
 |    /           C                          /

[...]

Density initialized from wave functions
     /     |              C  C                    |
    /      |           C                          |
   /       |        C          C   C  C  C        |
  /        |      C            C            C     |
 *         |     C                                |
 |         |                 C                    |
 |         .----C----------C----------------------.
 |        /  C    C      C                       /
 |       /   C        C                         /
 |      /          C                           /
 |     /    C  C                              /
 |    /           C                          /

[...]

Density initialized from wave functions
     /     |              C  C                    |
    /      |           C                          |
   /       |        C           C  C  C  C        |
  /        |      C            C            C     |
 *         |     C                                |
 |         |                 C                    |
 |         .----C----------C----------------------.
 |        /  C    C      C                       /
 |       /   C        C                         /
 |      /          C                           /
 |     /    C                                 /
 |    /        C  C                          /

[...]

Density initialized from wave functions
     /     |              C  C                    |
    /      |           C                          |
   /       |         C          C  C  C  C        |
  /        |      C           C             C     |
 *         |     C                                |
 |         |                 C                    |
 |         .----C----------C----------------------.
 |        /  C    C      C                       /
 |       /  C         C                         /
 |      /          C                           /
 |     /    C                                 /
 |    /        C  C                          /

[...]

Density initialized from wave functions
     /     |              C  C                    |
    /      |           C           C              |
   /       |         C          C     C  C        |
  /        |      C           C             C     |
 *         |     C                                |
 |         |                 C                    |
 |         .----C----------C----------------------.
 |        /  C    C      C                       /
 |       /            C                         /
 |      /   C      C                           /
 |     /    C                                 /
 |    /        C  C                          /

[...]

Density initialized from wave functions
     /     |              C  C                    |
    /      |           C           C              |
   /       |         C          C     C  C        |
  /        |      C            C            C     |
 *         |     C                                |
 |         |                 C                    |
 |         .----C----------C----------------------.
 |        /  C    C      C                       /
 |       /            C                         /
 |      /   C      C                           /
 |     /    C                                 /
 |    /        C  C                          /

[...]

Density initialized from wave functions
     /     |              C                       |
    /      |           C     C     C              |
   /       |         C          C     C  C        |
  /        |      C            C            C     |
 *         |     C                                |
 |         |                 C                    |
 |         .----C----------C----------------------.
 |        /  C    C      C                       /
 |       /            C                         /
 |      /   C      C                           /
 |     /    C                                 /
 |    /        C  C                          /

[...]

Density initialized from wave functions
     /     |              C                       |
    /      |           C     C     C              |
   /       |         C          C     C  C        |
  /        |      C            C            C     |
 *         |     C                                |
 |         |                 C                    |
 |         .----C----------C----------------------.
 |        /  C    C      C                       /
 |       /            C                         /
 |      /   C      C                           /
 |     /    C                                 /
 |    /        C  C                          /

[...]

Density initialized from wave functions
    /      |           C  C  C     C              |
   /       |         C          C     C  C        |
  /        |      C            C            C     |
 *         |     C                                |
 |         |                 C                    |
 |         .----C----------C----------------------.
 |        /  C    C      C                       /
 |       /            C                         /
 |      /   C      C                           /
 |     /    C                                 /
 |    /        C  C                          /

[...]

System changes: positions

Initializing position-dependent things.

Density initialized from wave functions
    /      |           C  C  C     C              |
   /       |         C          C     C  C        |
  /        |      C            C            C     |
 *         |     C                                |
 |         |                 C                    |
 |         .----C----------C----------------------.
 |        /  C    C      C                       /
 |       /            C                         /
 |      /   C      C                           /
 |     /    C                                 /
 |    /        C  C                          /

Positions:
   0 C      9.101799    9.868229    7.692451
   1 C     13.729480   11.124648    5.774511
   2 C     11.371431   10.605512    6.759388
   3 C      8.014606    9.338736    8.049165
   4 C     14.915429   11.166744    5.224045
   5 C     12.515196   10.851161    6.242494
   6 C     10.201740    9.862501    6.785747
   7 C      5.132419    1.942231    3.427918
   8 C      7.168025    4.911217    4.173964
   9 C      4.011102    1.428993    4.063793
  10 C      6.179268    2.555037    2.969466
  11 C      6.476233    3.728189    3.737054
  12 C      8.134408    5.891249    4.231961
  13 C      9.957571    8.853381    5.812165
  14 C      9.496373    7.903379    5.139015
  15 C      8.845105    6.860037    4.592431
  16 C      3.966742    2.416846    4.988522
  17 C      6.938482    8.549042    8.176868
  18 C      5.492372    6.541511    7.434180
  19 C      6.119441    7.613485    7.941094
  20 C      5.069337    5.527472    6.817757
  21 C      4.966871    4.472954    5.892557
  22 C      5.997468    4.445241    4.844713
  23 C      4.041818    3.409724    5.833026

Unit cell:
           periodic     x           y           z      points  spacing
  1. axis:    yes   16.000000    0.000000    0.000000    80     0.2000
  2. axis:    yes    0.000000   16.000000    0.000000    80     0.2000
  3. axis:    yes    0.000000    0.000000   10.000000    48     0.2083

Effective grid spacing dv^(1/3) = 0.2027

                     log10-error:    total        iterations:
           time      wfs    density  energy       fermi  poisson
iter:   1  12:00:40          +inf  -180.426046    2      4
iter:   2  12:00:40         -3.12  -180.427340    2      1
iter:   3  12:00:41         -3.25  -180.428373    2      1
iter:   4  12:00:41         -3.38  -180.427159    2      1
iter:   5  12:00:42         -3.64  -180.428494    2      1
iter:   6  12:00:42         -3.72  -180.428754    2      1
iter:   7  12:00:43         -3.98  -180.427831    2      1
iter:   8  12:00:43         -3.79  -180.428373    2      1
iter:   9  12:00:44         -4.28  -180.428658    2      1

Converged after 9 iterations.

Dipole moment: (1.223966, -1.046580, 0.417380) |e|*Ang

Energy contributions relative to reference atoms: (reference = -24663.074771)

Kinetic:       +103.511956
Potential:     -115.728430
External:        +0.000000
XC:            -171.233667
Entropy (-ST):   -0.108540
Local:           +3.075752
Free energy:   -180.482928
Extrapolated:  -180.428658

Fermi level: -4.79191

 Band  Eigenvalues  Occupancy
    0    -23.89016    2.00000
    1    -21.58699    2.00000
    2    -21.49873    2.00000
    3    -20.98794    2.00000
    4    -20.50200    2.00000
    5    -20.30515    2.00000
    6    -19.67178    2.00000
    7    -19.37827    2.00000
    8    -18.96740    2.00000
    9    -18.84703    2.00000
   10    -18.24228    2.00000
   11    -17.54675    2.00000
   12    -17.18762    2.00000
   13    -16.77043    2.00000
   14    -16.09518    2.00000
   15    -15.00626    2.00000
   16    -14.93174    2.00000
   17    -14.48020    2.00000
   18    -14.10588    2.00000
   19    -14.06946    2.00000
   20    -13.26616    2.00000
   21    -13.01293    2.00000
   22    -12.78119    2.00000
   23    -11.63615    2.00000
   24    -11.02877    2.00000
   25    -10.39938    2.00000
   26    -10.16479    2.00000
   27     -9.88958    2.00000
   28     -9.55586    2.00000
   29     -9.37215    2.00000
   30     -9.20994    2.00000
   31     -8.78212    2.00000
   32     -8.76091    2.00000
   33     -8.67744    2.00000
   34     -8.59114    2.00000
   35     -7.94285    2.00000
   36     -7.88908    2.00000
   37     -7.82544    2.00000
   38     -7.51450    2.00000
   39     -6.61656    2.00000
   40     -6.44161    2.00000
   41     -6.23650    2.00000
   42     -6.10863    2.00000
   43     -5.90586    1.99997
   44     -5.30143    1.98782
   45     -5.29290    1.98675
   46     -5.24703    1.97911
   47     -5.10998    1.92021
   48     -4.52064    0.12446
   49     -4.08396    0.00168
   50     -3.26322    0.00000
   51     -3.23467    0.00000
   52     -2.40824    0.00000
   53     -2.19169    0.00000
   54     -2.00206    0.00000
   55     -1.39491    0.00000
   56     -0.84659    0.00000
   57     -0.60125    0.00000
   58     -0.45991    0.00000
   59     -0.44269    0.00000
[...]
   83      7.80441    0.00000
   84      8.33027    0.00000
   85      8.39768    0.00000
   86      8.51319    0.00000
   87      8.74409    0.00000
   88      8.80051    0.00000
   89      8.95887    0.00000
   90      9.15063    0.00000
   91      9.46761    0.00000
   92      9.55464    0.00000
   93      9.57539    0.00000
   94      9.61680    0.00000
   95      9.81829    0.00000
   96      9.85593    0.00000
   97      9.94647    0.00000

Forces in eV/Ang:
  0 C     0.03603    0.00588   -0.01011
  1 C    -0.01654    0.02442    0.05460
  2 C     0.04516    0.03199   -0.05610
  3 C    -0.04059   -0.02159    0.03832
  4 C     0.00412    0.08641    0.01051
  5 C     0.02054   -0.02616    0.02540
  6 C     0.03416   -0.00329   -0.03861
  7 C    -0.06278   -0.03005    0.03419
  8 C     0.00478   -0.00593   -0.00544
  9 C     0.01658    0.02171   -0.01616
 10 C    -0.00024    0.05072    0.00444
 11 C    -0.00099    0.01967    0.01790
 12 C    -0.04005   -0.06332   -0.01538
 13 C    -0.02646   -0.00499   -0.00230
 14 C     0.00878   -0.00546    0.00289
 15 C     0.01065    0.01730    0.01382
 16 C     0.03225   -0.01826   -0.03346
 17 C    -0.03078   -0.01858   -0.03377
 18 C    -0.02414   -0.01591   -0.02099
 19 C     0.04004   -0.00590   -0.01668
 20 C     0.00487   -0.01734    0.02063
 21 C    -0.01444   -0.00245    0.02192
 22 C    -0.02046    0.00686    0.00266
 23 C    -0.01278    0.02415    0.00392