User:   esb@s65n12.grendel.cscaa.dk
Date:   Thu Nov  9 10:32:42 2017
Arch:   x86_64
Pid:    19669
Python: 2.7.13
gpaw:   /home/esb/DFT/gpaw_git/gpaw
_gpaw:  /home/esb/DFT/gpaw_git/build/bin.linux-x86_64-2.7/gpaw-python
ase:    /home/esb/DFT/ase_git/ase (version 3.15.0b1)
numpy:  /comm/swstack/core/python/2.7.13/lib/python2.7/site-packages/numpy (version 1.13.3)
scipy:  /comm/swstack/core/python/2.7.13/lib/python2.7/site-packages/scipy (version 0.19.1)
units:  Angstrom and eV
cores:  16
Extra parameters: {'blacs': True}

Input parameters:
  basis: dzp
  gpts: [80 80 48]
  kpts: [1 1 1]
  maxiter: 99
  mixer: {backend: pulay,
          beta: 0.05,
          method: separate,
          nmaxold: 5,
          weight: 75}
  mode: lcao
  nbands: -50
  occupations: {name: fermi-dirac,
                width: 0.1}
  poissonsolver: {eps: 1e-07,
                  name: fd,
                  nn: 3,
                  relax: GS}
  xc: PBE

System changes: positions, numbers, cell, pbc, initial_charges, initial_magmoms

Initialize ...

C-setup:
  name: Carbon
  id: 4aa54d4b901d75f77cc0ea3eec22967b
  Z: 6
  valence: 4
  core: 2
  charge: 0.0
  file: /home/esb/DFT/gpaw-setups-0.8.7929/C.PBE.gz
  cutoffs: 0.64(comp), 1.14(filt), 1.14(core), lmax=2
  valence states:
                energy  radius
    2s(2.00)   -13.751   0.635
    2p(2.00)    -5.284   0.635
    *s          13.461   0.635
    *p          21.927   0.635
    *d           0.000   0.635

  LCAO basis set for C:
    Name: dzp
    File: /home/esb/DFT/gpaw-setups-0.8.7929/C.dzp.basis.gz
    Number of radial functions: 5
    Number of spherical harmonics: 13
      l=0, rc=5.5469 Bohr: 2s-sz confined orbital
      l=1, rc=6.6719 Bohr: 2p-sz confined orbital
      l=0, rc=3.0312 Bohr: 2s-dz split-valence wave
      l=1, rc=3.7500 Bohr: 2p-dz split-valence wave
      l=2, rc=6.6719 Bohr: d-type Gaussian polarization

Reference energy: -24663.074771

Spin-paired calculation

Occupation numbers:
  Fermi-Dirac: width=0.1000 eV

Convergence criteria:
  Maximum total energy change: 0.0005 eV / electron
  Maximum integral of absolute density change: 0.0001 electrons
  Maximum integral of absolute eigenstate change: 4e-08 eV^2
  Maximum number of iterations: 99

Symmetries present (total): 1

  ( 1  0  0)
  ( 0  1  0)
  ( 0  0  1)

1 k-point (Gamma)
1 k-point in the irreducible part of the Brillouin zone
       k-points in crystal coordinates                weights
   0:     0.00000000    0.00000000    0.00000000          1/1

Wave functions: LCAO
  Diagonalizer: Serial LAPACK
  Atomic Correction: dense with blas
  Datatype: float
  Eigensolver: None

LCAO using direct dense diagonalizer

Densities:
  Coarse grid: 80*80*48 grid
  Fine grid: 160*160*96 grid
  Total Charge: 0.000000

Density mixing:
  Method: separate
  Backend: pulay
  Linear mixing parameter: 0.05
  Mixing with 5 old densities
  Damping of long wave oscillations: 75

Hamiltonian:
  XC and Coulomb potentials evaluated on a 160*160*96 grid
  Using the PBE Exchange-Correlation functional
  Interpolation: tri-quintic (5. degree polynomial)
  Poisson solver: Gauss-Seidel solver with 6 multi-grid levels
    Coarsest grid: 5 x 5 x 3 points
    Stencil: 6*3+1=19 point O(h^6) finite-difference Laplacian
    Max iterations: 1000
    Tolerance: 1.000000e-07

Total number of cores used: 16
Domain decomposition: 2 x 4 x 2

Number of atoms: 24
Number of atomic orbitals: 312
Number of bands in calculation: 98
Bands to converge: occupied states only
Number of valence electrons: 96

... initialized

Initializing position-dependent things.

Density initialized from atomic densities
    /      |          C                           |
   /       |       C     C  C C                   |
  /        |     C                                |
 *         |  C     C   C C   C                   |
 |         | C C   C     C      C                 |
 |         .---C-C--CC----CC---C------------------.
 |        /            C                         /

Positions:
   0 C      8.658455    9.887700    6.722931
   1 C      6.081774   10.034463    6.912614
   2 C      7.330424    9.452124    6.667602
   3 C      9.694564    9.229946    6.455859
   4 C      4.949593    9.500842    6.807264
   5 C      9.771382    7.891246    6.055786
   6 C      7.216732    8.018755    6.230304
   7 C      4.661639    8.191085    6.405778
   8 C      8.419114    7.244377    5.946798
   9 C      5.903413    7.396757    6.106901
  10 C     10.809828    7.008931    5.740239
  11 C      3.487354    7.449353    6.229489
  12 C      8.149453    3.073202    6.265826
  13 C      5.577649    3.285259    6.459889
  14 C      6.901063    3.703846    6.282017
  15 C      9.274046    3.600064    6.078216
  16 C      4.537941    3.989670    6.437584
  17 C      9.551974    4.953824    5.858748
  18 C      7.004956    5.183507    6.040120
  19 C      4.450861    5.369201    6.216491
  20 C      8.311396    5.802256    5.850063
  21 C      5.799362    6.003718    6.013459
  22 C     10.712571    5.706858    5.652899
  23 C      3.400997    6.293219    6.151937

Unit cell:
           periodic     x           y           z      points  spacing
  1. axis:    yes   16.000000    0.000000    0.000000    80     0.2000
  2. axis:    yes    0.000000   16.000000    0.000000    80     0.2000
  3. axis:    yes    0.000000    0.000000   10.000000    48     0.2083

Effective grid spacing dv^(1/3) = 0.2027

                     log10-error:    total        iterations:
           time      wfs    density  energy       fermi  poisson
iter:   1  10:32:44          +inf  -192.430304    2      6
iter:   2  10:32:44         -0.91  -191.588106    4      3
iter:   3  10:32:45         -0.93  -187.728284    27     4
iter:   4  10:32:46         -1.48  -187.424945    5      3
iter:   5  10:32:47         -1.69  -187.520121    4      3
iter:   6  10:32:47         -1.89  -187.442308    4      3
iter:   7  10:32:48         -2.31  -187.434438    2      2
iter:   8  10:32:49         -2.39  -187.442711    3      2
iter:   9  10:32:49         -2.75  -187.442293    2      1
iter:  10  10:32:50         -2.80  -187.430918    2      2
iter:  11  10:32:51         -2.95  -187.434312    2      1
iter:  12  10:32:51         -3.01  -187.439742    2      1
iter:  13  10:32:52         -3.13  -187.433115    1      1
iter:  14  10:32:53         -3.20  -187.444003    2      1
iter:  15  10:32:53         -3.33  -187.431668    2      1
iter:  16  10:32:54         -3.47  -187.417887    2      1
iter:  17  10:32:55         -3.71  -187.430312    1      1
iter:  18  10:32:55         -3.96  -187.430053    1      1
iter:  19  10:32:56         -4.01  -187.428326    1      1

Converged after 19 iterations.

Dipole moment: (-0.052321, 0.004605, -0.019501) |e|*Ang

Energy contributions relative to reference atoms: (reference = -24663.074771)

Kinetic:       +128.016334
Potential:     -134.097154
External:        +0.000000
XC:            -184.422661
Entropy (-ST):   -0.000735
Local:           +3.075522
Free energy:   -187.428694
Extrapolated:  -187.428326

Fermi level: -4.20096

 Band  Eigenvalues  Occupancy
    0    -22.56848    2.00000
    1    -21.78333    2.00000
    2    -21.63421    2.00000
    3    -20.62068    2.00000
    4    -20.50475    2.00000
    5    -19.97302    2.00000
    6    -19.44842    2.00000
    7    -18.80898    2.00000
    8    -18.23114    2.00000
    9    -17.94600    2.00000
   10    -17.64062    2.00000
   11    -17.59515    2.00000
   12    -15.69983    2.00000
   13    -15.60700    2.00000
   14    -15.10933    2.00000
   15    -14.92494    2.00000
   16    -14.78240    2.00000
   17    -13.25594    2.00000
   18    -12.55564    2.00000
   19    -12.51870    2.00000
   20    -12.46026    2.00000
   21    -12.40998    2.00000
   22    -12.05818    2.00000
   23    -11.37008    2.00000
   24    -11.33839    2.00000
   25    -10.89764    2.00000
   26    -10.77138    2.00000
   27    -10.44883    2.00000
   28     -9.82241    2.00000
   29     -9.56383    2.00000
   30     -9.45568    2.00000
   31     -9.38273    2.00000
   32     -9.27704    2.00000
   33     -8.33904    2.00000
   34     -8.23181    2.00000
   35     -7.90365    2.00000
   36     -6.92152    2.00000
   37     -6.71807    2.00000
   38     -6.62865    2.00000
   39     -6.45237    2.00000
   40     -6.40714    2.00000
   41     -6.30898    2.00000
   42     -6.26447    2.00000
   43     -6.22898    2.00000
   44     -6.10679    2.00000
   45     -6.07158    2.00000
   46     -5.18615    1.99989
   47     -5.09667    1.99974
   48     -3.32726    0.00032
   49     -3.09805    0.00003
   50     -2.96836    0.00001
   51     -2.68652    0.00000
   52     -2.44762    0.00000
   53     -2.27235    0.00000
   54     -2.22626    0.00000
   55     -2.03598    0.00000
   56     -1.11546    0.00000
   57     -0.98599    0.00000
   58     -0.92797    0.00000
   59      0.62026    0.00000
[...]
   83      9.33444    0.00000
   84      9.37131    0.00000
   85      9.41076    0.00000
   86      9.48914    0.00000
   87      9.51987    0.00000
   88      9.79210    0.00000
   89      9.86514    0.00000
   90      9.95167    0.00000
   91      9.95790    0.00000
   92     10.00642    0.00000
   93     10.21330    0.00000
   94     10.55415    0.00000
   95     10.58251    0.00000
   96     10.59397    0.00000
   97     10.77993    0.00000

Forces in eV/Ang:
  0 C     0.13727   -0.00892   -0.02540
  1 C     0.14180    0.03280    0.00877
  2 C    -0.14826   -0.01188   -0.10213
  3 C    -0.05117    0.12232   -0.05663
  4 C    -0.05647   -0.14711   -0.17298
  5 C     0.10956   -0.04126   -0.53627
  6 C     0.05214    0.29849   -0.22491
  7 C     0.15191    0.83643   -0.49082
  8 C    -0.14446    0.15762    0.64482
  9 C     0.04773    1.92661    0.85514
 10 C    -0.28262   -3.41652   -0.06388
 11 C     0.74037    9.91923    0.84640
 12 C     0.12774   -0.00748   -0.01273
 13 C     0.15018   -0.05200    0.00524
 14 C    -0.16396    0.04259   -0.10704
 15 C    -0.06728   -0.09496   -0.08640
 16 C    -0.05145    0.16559   -0.16636
 17 C     0.11969    0.08572   -0.50860
 18 C     0.00868   -0.28603   -0.25142
 19 C     0.05191   -0.80165   -0.60260
 20 C    -0.17584   -0.20269    0.58482
 21 C    -0.24202   -2.01380    0.58612
 22 C     0.22301    3.36947    0.38669
 23 C    -0.73203   -9.91115   -0.47058

System changes: positions

[...]

Density initialized from wave functions
    /      |          C                           |
   /       |       C     C  C C                   |
  /        |     C                                |
 *         |  C     C   C C   C                   |
 |         | C C   C     C      C                 |
 |         .---C-C--CC----CC---C------------------.
 |        /            C                         /

[...]

Density initialized from wave functions
    /      |          C                           |
   /       |       C     C  C C                   |
  /        |      C                               |
 *         |  C     C   C C   C                   |
 |         | C C   C     C      C                 |
 |         .---C-C--CC----CC---C------------------.
 |        /            C                         /

[...]

Density initialized from wave functions
    /      |          C                           |
   /       |       C     C  C                     |
  /        |      C     C     C                   |
 *         |  C     C     C   C                   |
 |         | C C   C     C      C                 |
 |         .---C-C--CC----CC---C------------------.
 |        /            C                         /

[...]

Density initialized from wave functions
    /      |          C                           |
   /       |       C     C  C                     |
  /        |      C     C     C                   |
 *         |  C     C     C   C                   |
 |         | C C   C     C      C                 |
 |         .---C-C--CC----CC---C------------------.
 |        /            C                         /

[...]

Density initialized from wave functions
    /      |          C                           |
   /       |       C     C  C                     |
  /        |      C     C     C                   |
 *         |  C     C     C   C                   |
 |         | C C   C C   C      C                 |
 |         .---C-C--C------C---C------------------.
 |        /            C  C                      /

[...]

Density initialized from wave functions
    /      |          C                           |
   /       |       C     C  C                     |
  /        |      C     C     C                   |
 *         |  C     C     C   C                   |
 |         | C C   C C   C      C                 |
 |         .---C-C--C------C---C------------------.
 |        /            C  C                      /

[...]

Density initialized from wave functions
   /       |       C  C  C  C                     |
  /        |      C     C     C                   |
 *         |  C     C     C   C                   |
 |         | C C   C C   C      C                 |
 |         .---C-C--C------C---C------------------.
 |        /            C  C                      /

[...]

Density initialized from wave functions
   /       |       C  C  C  C                     |
  /        |      C     C     C                   |
 *         |  C     C     C   C                   |
 |         | C C   C C   C      C                 |
 |         .---C-C--C------C---C------------------.
 |        /            C  C                      /

[...]

Density initialized from wave functions
   /       |       C  C  C  C                     |
  /        |      C     C     C                   |
 *         |  C     C     C   C                   |
 |         | C C   C C   C      C                 |
 |         .--C--C--C------C---C------------------.
 |        /            C  C                      /

[...]

Density initialized from wave functions
   /       |       C  C  C  C                     |
  /        |      C     C     C                   |
 *         |  C     C     C   C                   |
 |         | C C   C C   C      C                 |
 |         .--C--C--C------C---C------------------.
 |        /            C  C                      /

[...]

Density initialized from wave functions
   /       |       C  C  C  C                     |
  /        |      C     C     C                   |
 *         |  C     C     C   C                   |
 |         | C C   C C   C      C                 |
 |         .--C-----C------C---C------------------.
 |        /      C     C  C                      /

[...]

Density initialized from wave functions
   /       |       C  C  C  C                     |
  /        |      C     C     C                   |
 *         |  C     C     C   C                   |
 |         | C C   C C   C      C                 |
 |         .--C-----C------C---C------------------.
 |        /      C     C  C                      /

[...]

Density initialized from wave functions
   /       |       C  C  C  C                     |
  /        |      C     C     C                   |
 *         | CC     C     C   C                   |
 |         |   C   C C   C     CC                 |
 |         .--C-----C------C----------------------.
 |        /      C     C  C                      /

[...]

System changes: positions

Initializing position-dependent things.

Density initialized from wave functions
   /       |       C  C  C  C                     |
  /        |      C     C     C                   |
 *         | CC     C     C   C                   |
 |         |   C   C C   C     CC                 |
 |         .--C-----C------C----------------------.
 |        /      C     C  C                      /

Positions:
   0 C      8.673904    9.968491    6.396925
   1 C      6.103020   10.160765    6.590046
   2 C      7.346667    9.532980    6.461930
   3 C      9.707617    9.269400    6.254707
   4 C      4.971152    9.619014    6.607904
   5 C      9.776064    7.877324    6.118672
   6 C      7.227666    8.041185    6.342687
   7 C      4.678796    8.254827    6.504376
   8 C      8.422757    7.224938    6.177042
   9 C      5.914688    7.409374    6.374345
  10 C     10.807987    6.945197    5.952914
  11 C      3.505710    7.492148    6.506265
  12 C      8.120910    3.015365    5.947454
  13 C      5.549386    3.207164    6.127331
  14 C      6.877242    3.645142    6.067893
  15 C      9.248364    3.562771    5.871686
  16 C      4.519454    3.918965    6.219340
  17 C      9.540520    4.931182    5.911328
  18 C      6.995229    5.140376    6.142830
  19 C      4.442136    5.313039    6.309709
  20 C      8.306031    5.774596    6.075904
  21 C      5.797790    5.960215    6.276754
  22 C     10.711685    5.697336    5.847890
  23 C      3.402524    6.243988    6.425198

Unit cell:
           periodic     x           y           z      points  spacing
  1. axis:    yes   16.000000    0.000000    0.000000    80     0.2000
  2. axis:    yes    0.000000   16.000000    0.000000    80     0.2000
  3. axis:    yes    0.000000    0.000000   10.000000    48     0.2083

Effective grid spacing dv^(1/3) = 0.2027

                     log10-error:    total        iterations:
           time      wfs    density  energy       fermi  poisson
iter:   1  10:37:26          +inf  -188.441817    1      5
iter:   2  10:37:27         -3.26  -188.441924    1      1
iter:   3  10:37:28         -3.33  -188.442229    1      1
iter:   4  10:37:28         -3.56  -188.442412    1      1
iter:   5  10:37:29         -3.87  -188.442042    1      1
iter:   6  10:37:30         -3.72  -188.441553    1      1
iter:   7  10:37:30         -4.20  -188.441631    1      1

Converged after 7 iterations.

Dipole moment: (-0.005578, 0.011240, 0.001325) |e|*Ang

Energy contributions relative to reference atoms: (reference = -24663.074771)

Kinetic:       +116.793400
Potential:     -125.912308
External:        +0.000000
XC:            -182.371379
Entropy (-ST):   -0.000392
Local:           +3.048851
Free energy:   -188.441827
Extrapolated:  -188.441631

Fermi level: -4.17237

 Band  Eigenvalues  Occupancy
    0    -22.45966    2.00000
    1    -21.66685    2.00000
    2    -21.65606    2.00000
    3    -20.53838    2.00000
    4    -20.53614    2.00000
    5    -19.83078    2.00000
    6    -19.43081    2.00000
    7    -18.84925    2.00000
    8    -18.00733    2.00000
    9    -18.00077    2.00000
   10    -17.65361    2.00000
   11    -17.64898    2.00000
   12    -15.65387    2.00000
   13    -15.65216    2.00000
   14    -15.09057    2.00000
   15    -14.84862    2.00000
   16    -14.84444    2.00000
   17    -13.29201    2.00000
   18    -12.51412    2.00000
   19    -12.47006    2.00000
   20    -12.46559    2.00000
   21    -12.43630    2.00000
   22    -12.11283    2.00000
   23    -11.36039    2.00000
   24    -11.35742    2.00000
   25    -10.83981    2.00000
   26    -10.82598    2.00000
   27    -10.36045    2.00000
   28     -9.75802    2.00000
   29     -9.50336    2.00000
   30     -9.49501    2.00000
   31     -9.35964    2.00000
   32     -9.35271    2.00000
   33     -8.28619    2.00000
   34     -8.28345    2.00000
   35     -7.82506    2.00000
   36     -6.90054    2.00000
   37     -6.69320    2.00000
   38     -6.49835    2.00000
   39     -6.41631    2.00000
   40     -6.41460    2.00000
   41     -6.29482    2.00000
   42     -6.29387    2.00000
   43     -6.17664    2.00000
   44     -6.17357    2.00000
   45     -6.14467    2.00000
   46     -5.17858    1.99991
   47     -5.17386    1.99991
   48     -3.17581    0.00009
   49     -3.09335    0.00004
   50     -3.08781    0.00004
   51     -2.64841    0.00000
   52     -2.45759    0.00000
   53     -2.45639    0.00000
   54     -2.20167    0.00000
   55     -2.19783    0.00000
   56     -1.06313    0.00000
   57     -1.06172    0.00000
   58     -0.90604    0.00000
   59      0.60683    0.00000
[...]
   83      9.36158    0.00000
   84      9.36747    0.00000
   85      9.38855    0.00000
   86      9.39104    0.00000
   87      9.49276    0.00000
   88      9.83534    0.00000
   89      9.83647    0.00000
   90      9.95354    0.00000
   91      9.97025    0.00000
   92      9.97986    0.00000
   93     10.25074    0.00000
   94     10.51915    0.00000
   95     10.52064    0.00000
   96     10.55237    0.00000
   97     10.88826    0.00000

Forces in eV/Ang:
  0 C     0.04652   -0.00382    0.03889
  1 C     0.04261    0.03192    0.02442
  2 C    -0.00325    0.00755   -0.02019
  3 C    -0.00982   -0.04414   -0.02182
  4 C    -0.06474   -0.00242    0.00224
  5 C     0.00714   -0.02101    0.02005
  6 C    -0.00746   -0.02446   -0.03890
  7 C     0.00391   -0.00001    0.02768
  8 C     0.01100   -0.03915   -0.00787
  9 C    -0.03027    0.00881   -0.01739
 10 C    -0.02918    0.03902   -0.04989
 11 C     0.03018    0.06413   -0.00428
 12 C     0.00126    0.00209   -0.02339
 13 C     0.00519   -0.00294   -0.00064
 14 C     0.00375    0.01848   -0.01290
 15 C     0.05493    0.02970   -0.04115
 16 C    -0.04414    0.00208    0.03511
 17 C     0.00124   -0.00474    0.03407
 18 C     0.01356    0.03957    0.01413
 19 C     0.01415   -0.01180   -0.00625
 20 C     0.04347   -0.01038    0.01279
 21 C    -0.00798    0.02515   -0.01485
 22 C    -0.09070   -0.01140    0.04046
 23 C     0.03897   -0.05391   -0.02627