User:   esb@s66n11.grendel.cscaa.dk
Date:   Thu Nov  9 11:43:17 2017
Arch:   x86_64
Pid:    30707
Python: 2.7.13
gpaw:   /home/esb/DFT/gpaw_git/gpaw
_gpaw:  /home/esb/DFT/gpaw_git/build/bin.linux-x86_64-2.7/gpaw-python
ase:    /home/esb/DFT/ase_git/ase (version 3.15.0b1)
numpy:  /comm/swstack/core/python/2.7.13/lib/python2.7/site-packages/numpy (version 1.13.3)
scipy:  /comm/swstack/core/python/2.7.13/lib/python2.7/site-packages/scipy (version 0.19.1)
units:  Angstrom and eV
cores:  16
Extra parameters: {'blacs': True}

Input parameters:
  basis: dzp
  gpts: [80 80 48]
  kpts: [1 1 1]
  maxiter: 99
  mixer: {backend: pulay,
          beta: 0.05,
          method: separate,
          nmaxold: 5,
          weight: 75}
  mode: lcao
  nbands: -50
  occupations: {name: fermi-dirac,
                width: 0.1}
  poissonsolver: {eps: 1e-07,
                  name: fd,
                  nn: 3,
                  relax: GS}
  xc: PBE

System changes: positions, numbers, cell, pbc, initial_charges, initial_magmoms

Initialize ...

C-setup:
  name: Carbon
  id: 4aa54d4b901d75f77cc0ea3eec22967b
  Z: 6
  valence: 4
  core: 2
  charge: 0.0
  file: /home/esb/DFT/gpaw-setups-0.8.7929/C.PBE.gz
  cutoffs: 0.64(comp), 1.14(filt), 1.14(core), lmax=2
  valence states:
                energy  radius
    2s(2.00)   -13.751   0.635
    2p(2.00)    -5.284   0.635
    *s          13.461   0.635
    *p          21.927   0.635
    *d           0.000   0.635

  LCAO basis set for C:
    Name: dzp
    File: /home/esb/DFT/gpaw-setups-0.8.7929/C.dzp.basis.gz
    Number of radial functions: 5
    Number of spherical harmonics: 13
      l=0, rc=5.5469 Bohr: 2s-sz confined orbital
      l=1, rc=6.6719 Bohr: 2p-sz confined orbital
      l=0, rc=3.0312 Bohr: 2s-dz split-valence wave
      l=1, rc=3.7500 Bohr: 2p-dz split-valence wave
      l=2, rc=6.6719 Bohr: d-type Gaussian polarization

Reference energy: -24663.074771

Spin-paired calculation

Occupation numbers:
  Fermi-Dirac: width=0.1000 eV

Convergence criteria:
  Maximum total energy change: 0.0005 eV / electron
  Maximum integral of absolute density change: 0.0001 electrons
  Maximum integral of absolute eigenstate change: 4e-08 eV^2
  Maximum number of iterations: 99

Symmetries present (total): 1

  ( 1  0  0)
  ( 0  1  0)
  ( 0  0  1)

1 k-point (Gamma)
1 k-point in the irreducible part of the Brillouin zone
       k-points in crystal coordinates                weights
   0:     0.00000000    0.00000000    0.00000000          1/1

Wave functions: LCAO
  Diagonalizer: Serial LAPACK
  Atomic Correction: dense with blas
  Datatype: float
  Eigensolver: None

LCAO using direct dense diagonalizer

Densities:
  Coarse grid: 80*80*48 grid
  Fine grid: 160*160*96 grid
  Total Charge: 0.000000

Density mixing:
  Method: separate
  Backend: pulay
  Linear mixing parameter: 0.05
  Mixing with 5 old densities
  Damping of long wave oscillations: 75

Hamiltonian:
  XC and Coulomb potentials evaluated on a 160*160*96 grid
  Using the PBE Exchange-Correlation functional
  Interpolation: tri-quintic (5. degree polynomial)
  Poisson solver: Gauss-Seidel solver with 6 multi-grid levels
    Coarsest grid: 5 x 5 x 3 points
    Stencil: 6*3+1=19 point O(h^6) finite-difference Laplacian
    Max iterations: 1000
    Tolerance: 1.000000e-07

Total number of cores used: 16
Domain decomposition: 2 x 4 x 2

Number of atoms: 24
Number of atomic orbitals: 312
Number of bands in calculation: 98
Bands to converge: occupied states only
Number of valence electrons: 96

... initialized

Initializing position-dependent things.

Density initialized from atomic densities
    /      |             C   C                    |
   /       |                   C                  |
  /        |        C  CC C                       |
 *         |        C      C                      |
 |         |    C  C C   C    C                   |
 |         .---C---C-C---C-C---C------------------.
 |        /   C C   C                            /
 |       /            C                         /

Positions:
   0 C      7.739108    7.555677    5.331035
   1 C      6.283654   10.053316    5.594718
   2 C      9.774128    8.930510    4.913351
   3 C      7.619202    9.986911    5.683585
   4 C      8.406515    8.896172    5.305840
   5 C      5.608339    8.829288    5.162834
   6 C      6.309963    7.599507    5.316909
   7 C      5.306728    3.583619    5.262527
   8 C      7.951054    3.271393    5.280829
   9 C      6.685490    3.888651    5.257409
  10 C      4.346675    4.405261    5.317237
  11 C      6.862283    5.351935    5.268821
  12 C      4.371770    5.818629    5.401640
  13 C      5.752234    6.250228    5.308784
  14 C      8.121844    6.071836    5.296955
  15 C      9.366927    5.290055    5.268050
  16 C     10.692401    5.970584    4.880153
  17 C      9.799762    9.063655    6.756290
  18 C      7.584756    8.996214    7.623858
  19 C      6.179866    6.917527    7.096930
  20 C      4.726908    4.880772    6.543396
  21 C      7.436440    7.646826    6.979654
  22 C      6.031018    5.618635    6.452140
  23 C      8.840903    9.566706    7.392013

Unit cell:
           periodic     x           y           z      points  spacing
  1. axis:    yes   16.000000    0.000000    0.000000    80     0.2000
  2. axis:    yes    0.000000   16.000000    0.000000    80     0.2000
  3. axis:    yes    0.000000    0.000000   10.000000    48     0.2083

Effective grid spacing dv^(1/3) = 0.2027

                     log10-error:    total        iterations:
           time      wfs    density  energy       fermi  poisson
iter:   1  11:43:19          +inf  -161.414465    3      6
iter:   2  11:43:19         -0.88  -160.363848    3      3
iter:   3  11:43:20         -0.94  -159.598268    3      3
iter:   4  11:43:21         -0.99  -158.539302    33     3
iter:   5  11:43:22         -1.17  -158.138631    4      3
iter:   6  11:43:23         -1.37  -158.123906    3      3
iter:   7  11:43:23         -1.58  -158.034592    3      3
iter:   8  11:43:24         -1.73  -158.001103    3      3
iter:   9  11:43:25         -1.87  -157.992828    3      3
iter:  10  11:43:26         -2.03  -157.985712    3      2
iter:  11  11:43:26         -2.13  -157.976143    4      2
iter:  12  11:43:27         -2.41  -157.973384    3      2
iter:  13  11:43:28         -2.50  -157.971975    3      2
iter:  14  11:43:29         -2.63  -157.970552    3      2
iter:  15  11:43:29         -2.71  -157.970180    3      2
iter:  16  11:43:30         -2.83  -157.980859    3      1
iter:  17  11:43:31         -2.96  -157.969862    2      2
iter:  18  11:43:32         -3.12  -157.972199    2      1
iter:  19  11:43:32         -3.23  -157.973544    2      1
iter:  20  11:43:33         -3.35  -157.969558    2      1
iter:  21  11:43:34         -3.59  -157.969876    2      1
iter:  22  11:43:35         -3.75  -157.968226    2      1
iter:  23  11:43:35         -3.93  -157.968750    2      1
iter:  24  11:43:36         -4.02  -157.968967    2      1

Converged after 24 iterations.

Dipole moment: (-0.489597, 0.174333, -0.086970) |e|*Ang

Energy contributions relative to reference atoms: (reference = -24663.074771)

Kinetic:       +151.041113
Potential:     -136.935689
External:        +0.000000
XC:            -174.674876
Entropy (-ST):   -0.480062
Local:           +2.840517
Free energy:   -158.208998
Extrapolated:  -157.968967

Fermi level: -4.93014

 Band  Eigenvalues  Occupancy
    0    -27.93966    2.00000
    1    -25.05212    2.00000
    2    -23.61055    2.00000
    3    -21.95161    2.00000
    4    -21.63631    2.00000
    5    -20.61269    2.00000
    6    -20.14792    2.00000
    7    -19.32801    2.00000
    8    -18.96433    2.00000
    9    -18.34948    2.00000
   10    -18.06617    2.00000
   11    -17.03189    2.00000
   12    -16.82388    2.00000
   13    -16.50597    2.00000
   14    -15.68053    2.00000
   15    -15.46780    2.00000
   16    -14.81346    2.00000
   17    -14.39083    2.00000
   18    -13.72724    2.00000
   19    -13.15673    2.00000
   20    -12.76609    2.00000
   21    -12.63750    2.00000
   22    -12.30211    2.00000
   23    -12.15203    2.00000
   24    -11.85767    2.00000
   25    -11.21045    2.00000
   26    -11.09405    2.00000
   27    -10.80844    2.00000
   28    -10.14022    2.00000
   29     -9.82485    2.00000
   30     -9.46537    2.00000
   31     -9.00079    2.00000
   32     -8.78443    2.00000
   33     -8.43160    2.00000
   34     -7.85478    2.00000
   35     -7.84406    2.00000
   36     -7.27356    2.00000
   37     -7.09925    2.00000
   38     -6.95838    2.00000
   39     -6.77379    2.00000
   40     -6.60237    2.00000
   41     -6.30612    2.00000
   42     -5.95349    1.99993
   43     -5.64527    1.99843
   44     -5.38028    1.97806
   45     -5.32698    1.96290
   46     -5.04962    1.53520
   47     -4.99562    1.31619
   48     -4.93307    1.01466
   49     -4.68923    0.16497
   50     -4.50899    0.02922
   51     -4.08878    0.00044
   52     -3.76127    0.00002
   53     -3.56896    0.00000
   54     -3.13150    0.00000
   55     -2.56751    0.00000
   56     -2.37762    0.00000
   57     -2.33169    0.00000
   58     -1.90078    0.00000
   59     -1.63055    0.00000
[...]
   83      7.65670    0.00000
   84      7.71378    0.00000
   85      8.00458    0.00000
   86      8.06658    0.00000
   87      8.22261    0.00000
   88      8.49512    0.00000
   89      8.58802    0.00000
   90      8.64062    0.00000
   91      8.79950    0.00000
   92      8.91880    0.00000
   93      9.08739    0.00000
   94      9.27268    0.00000
   95      9.38480    0.00000
   96      9.57806    0.00000
   97      9.64428    0.00000

Forces in eV/Ang:
  0 C     2.67657    0.28733    1.17931
  1 C    -1.86844   -4.48951   -1.21951
  2 C     1.20253   -0.12236    3.77163
  3 C    -2.40951    2.23820    0.94214
  4 C     2.70603   -2.99348   -3.39151
  5 C     1.92980    3.55567    0.33585
  6 C    -3.92123    2.75674   -1.00791
  7 C     3.42204   -4.41999   -1.45740
  8 C    -0.63568    0.31442   -0.09087
  9 C     2.52775   -2.45495   -1.64309
 10 C    -3.96359   -1.32284   -4.61197
 11 C     2.87613   -1.28331   -0.16543
 12 C    -3.92198    0.73528    0.16598
 13 C    -2.29737    5.54819   -8.38935
 14 C     2.83105   -1.17698   -1.67449
 15 C     1.89718    4.09729   -1.50658
 16 C    -4.91799   -2.61247    1.53070
 17 C     5.28755   -1.30095   -5.88630
 18 C     0.47745   -2.44228   -0.51183
 19 C     1.93986   -0.46997    2.33453
 20 C    -0.00950    2.87743    4.78880
 21 C    -3.17914    1.36615    2.84407
 22 C     1.38950   -0.42961   11.16305
 23 C    -4.01499    1.71958    2.42441

System changes: positions

[...]

Density initialized from wave functions
    /      |             C  C                     |
   /       |                   C                  |
  /        |        C  CC C                       |
 *         |        C      C                      |
 |         |    C  C C   C    C                   |
 |         .---C---C-C---C-C---C------------------.
 |        /   C C   C                            /
 |       /            C                         /

[...]

[...]
    /      |           C  C C                     |
   /       |         C         C                  |
  /        |      C   C   C                       |
 *         |    C            C                    |
 |         |         C     C                      |
 |         .---CC----C--C-------------------------.
 |        /      C C C  C C  C                   /
 |       /          C   C                       /

[...]

Density initialized from wave functions
    /      |           C  C C                     |
   /       |         C         C                  |
  /        |      C   C   C                       |
 *         |    C            C                    |
 |         |         C     C                      |
 |         .---CC----C--C-------------------------.
 |        /       CC C  C C  C                   /
 |       /           C  C                       /

[...]

Density initialized from wave functions
    /      |           C  C C                     |
   /       |         C         C                  |
  /        |      C   C   C                       |
 *         |    C            C                    |
 |         |         C     C                      |
 |         .---CC----C--C-------------------------.
 |        /       CC C  C C  C                   /
 |       /           C  C                       /

[...]

Density initialized from wave functions
    /      |           C  C C                     |
   /       |         C         C                  |
  /        |      C   C   C                       |
 *         |    C            C                    |
 |         |         C     C                      |
 |         .----C----C--C-------------------------.
 |        /       CC    C C  C                   /
 |       /           C  C                       /

[...]

Density initialized from wave functions
    /      |           C  C C                     |
   /       |         C         C                  |
  /        |      C   C   C  C                    |
 *         |    C                                 |
 |         |         C     C                      |
 |         .----C----C--C-------------------------.
 |        /       CC    C C  C                   /
 |       /           C  C                       /

[...]

Density initialized from wave functions
    /      |           C C  C                     |
   /       |         C         C                  |
  /        |      C    C  C   C                   |
 *         |    C                                 |
 |         |        C      C                      |
 |         .----C----C--C-------------------------.
 |        /       CC    C C C                    /
 |       /           C  C                       /

[...]

Density initialized from wave functions
    /      |           C C  C                     |
   /       |        C          C                  |
  /        |      C    C  C                       |
 *         |    C             C                   |
 |         |        C      C                      |
 |         .----C----C--C-------------------------.
 |        /       CC    C C C                    /
 |       /           C  C                       /

[...]

Density initialized from wave functions
    /      |        C  C C  C                     |
   /       |                   C                  |
  /        |      C    C  C                       |
 *         |    C             C                   |
 |         |        C      C                      |
 |         .----C----C--C-------------------------.
 |        /       CC    C C C                    /
 |       /           C  C                       /

[...]

Density initialized from wave functions
    /      |        C  C C  C                     |
   /       |                   C                  |
  /        |      C    C  C                       |
 *         |    C             C                   |
 |         |        C      C                      |
 |         .----C----C--C-------------------------.
 |        /       CC    C  CC                    /
 |       /           C  C                       /

[...]

Density initialized from wave functions
    /      |        C  C C  C                     |
   /       |                   C                  |
  /        |      C    C  C                       |
 *         |    C             C                   |
 |         |        C      C                      |
 |         .----C----C--C-------------------------.
 |        /       CC    C  CC                    /
 |       /           C  C                       /

[...]

Density initialized from wave functions
    /      |           C  C C                     |
   /       |        C          C                  |
  /        |      C    C  C                       |
 *         |    C             C                   |
 |         |        C      C                      |
 |         .----C----C--C-------------------------.
 |        /       CC C  C  CC                    /
 |       /           C  C                       /

[...]

Density initialized from wave functions
    /      |           C  C C                     |
   /       |        C          C                  |
  /        |      C   C   C                       |
 *         |    C             C                   |
 |         |        C      C                      |
 |         .----C----C--C-------------------------.
 |        /       CC C  C  CC                    /
 |       /           C  C                       /

[...]

Density initialized from wave functions
    /      |           C  C C                     |
   /       |        C          C                  |
  /        |      C   C   C                       |
 *         |    C   C         C                   |
 |         |               C                      |
 |         .----C----C--C-------------------------.
 |        /       CC C  C  CC                    /
 |       /           C  C                       /

[...]

Density initialized from wave functions
    /      |           C C  C                     |
   /       |        C          C                  |
  /        |      C   C   C                       |
 *         |    C   C         C                   |
 |         |               C                      |
 |         .----C----C--C-------------------------.
 |        /       CC C  C  CC                    /
 |       /           C  C                       /

[...]

Density initialized from wave functions
    /      |           C C  C                     |
   /       |        C          C                  |
  /        |      C   C   C                       |
 *         |    C   C         C                   |
 |         |               C                      |
 |         .----C----C--C-------------------------.
 |        /       CC C  C  C                     /
 |       /           C  C   C                   /

[...]

Density initialized from wave functions
     /     |             C                        |
    /      |           C    C                     |
   /       |        C          C                  |
  /        |      C   C   C                       |
 *         |    C   C         C                   |
 |         |               C                      |
 |         .----C----C--C-------------------------.
 |        /       CC C  C  C                     /
 |       /           C  C   C                   /

[...]

Density initialized from wave functions
     /     |             C                        |
    /      |           C    C                     |
   /       |        C          C                  |
  /        |      C   C   C                       |
 *         |    C   C         C                   |
 |         |               C                      |
 |         .----C----C--C-------------------------.
 |        /       CC C  C  C                     /
 |       /           C  C   C                   /

[...]

Density initialized from wave functions
     /     |             C                        |
    /      |        C  C    C                     |
   /       |                   C                  |
  /        |      C   C   C                       |
 *         |    C   C         C                   |
 |         |               C                      |
 |         .----C----C--C-------------------------.
 |        /       CC C  C  C                     /
 |       /           C  C   C                   /

[...]

Density initialized from wave functions
     /     |             C                        |
    /      |        C  C    C                     |
   /       |                   C                  |
  /        |      C   C   C                       |
 *         |    C   C         C                   |
 |         |               C                      |
 |         .----C----C--C-------------------------.
 |        /       CC C   C C                     /
 |       /           C  C   C                   /

[...]

Density initialized from wave functions
     /     |           C C                        |
    /      |        C       C                     |
   /       |                   C                  |
  /        |      C   C   C                       |
 *         |    C             C                   |
 |         |        C      C                      |
 |         .----C----C--C-------------------------.
 |        /       CC C   C C                     /
 |       /           C  C   C                   /

[...]

Density initialized from wave functions
     /     |           C C                        |
    /      |        C       C                     |
   /       |                   C                  |
  /        |      C   C   C                       |
 *         |    C             C                   |
 |         |        C      C                      |
 |         .----C----C--C-------------------------.
 |        /       CC C   C C                     /
 |       /           C  C   C                   /

[...]

Density initialized from wave functions
     /     |             C                        |
    /      |        C  C    C                     |
   /       |                   C                  |
  /        |      C   C   C                       |
 *         |    C             C                   |
 |         |        C      C                      |
 |         .----C----C--C-------------------------.
 |        /       CC C   C C                     /
 |       /           C  C   C                   /

[...]

System changes: positions

Initializing position-dependent things.

Density initialized from wave functions
     /     |             C                        |
    /      |        C  C    C                     |
   /       |                   C                  |
  /        |      C   C   C                       |
 *         |    C             C                   |
 |         |        C      C                      |
 |         .----C----C--C-------------------------.
 |        /       CC C   C C                     /
 |       /           C  C   C                   /

Positions:
   0 C      7.666199    7.627435    4.354662
   1 C      6.297055    9.681264    5.687646
   2 C      9.650944    8.541990    5.767076
   3 C      7.656359    9.584446    5.951384
   4 C      8.395532    8.626434    5.053710
   5 C      5.696647    8.814999    4.969785
   6 C      6.180181    7.624352    4.451265
   7 C      6.160854    3.528128    5.737227
   8 C      8.537725    3.926806    4.703923
   9 C      7.118009    4.087655    4.853989
  10 C      5.096044    4.354518    6.018762
  11 C      6.871802    5.433487    4.322828
  12 C      4.760955    5.637131    5.382214
  13 C      5.710857    6.248909    4.543201
  14 C      8.049031    6.228658    4.127609
  15 C      9.124599    5.352051    4.314317
  16 C      9.887805    4.180855    4.515325
  17 C      9.811419    9.220366    6.846744
  18 C      7.680961    9.074949    8.285274
  19 C      5.915244    7.239736    8.378925
  20 C      4.740140    5.488721    6.838216
  21 C      6.748790    8.259008    8.611373
  22 C      5.289309    6.290955    7.807966
  23 C      8.442697    9.570616    7.245897

Unit cell:
           periodic     x           y           z      points  spacing
  1. axis:    yes   16.000000    0.000000    0.000000    80     0.2000
  2. axis:    yes    0.000000   16.000000    0.000000    80     0.2000
  3. axis:    yes    0.000000    0.000000   10.000000    48     0.2083

Effective grid spacing dv^(1/3) = 0.2027

                     log10-error:    total        iterations:
           time      wfs    density  energy       fermi  poisson
iter:   1  12:05:46          +inf  -180.584554    2      4
iter:   2  12:05:47         -2.54  -180.582229    2      1
iter:   3  12:05:47         -3.11  -180.582282    2      1
iter:   4  12:05:48         -3.32  -180.581761    2      1
iter:   5  12:05:49         -3.36  -180.582424    2      1
iter:   6  12:05:49         -3.50  -180.581797    2      1
iter:   7  12:05:50         -3.73  -180.581521    2      1
iter:   8  12:05:51         -3.34  -180.581864    2      1
iter:   9  12:05:51         -4.03  -180.581668    2      1

Converged after 9 iterations.

Dipole moment: (-0.365484, 0.261097, 0.514179) |e|*Ang

Energy contributions relative to reference atoms: (reference = -24663.074771)

Kinetic:       +108.991841
Potential:     -114.502901
External:        +0.000000
XC:            -178.005375
Entropy (-ST):   -0.181654
Local:           +3.025594
Free energy:   -180.672495
Extrapolated:  -180.581668

Fermi level: -4.31228

 Band  Eigenvalues  Occupancy
    0    -23.54173    2.00000
    1    -22.88860    2.00000
    2    -22.52785    2.00000
    3    -21.65930    2.00000
    4    -20.47450    2.00000
    5    -20.14589    2.00000
    6    -19.74577    2.00000
    7    -19.20121    2.00000
    8    -18.58489    2.00000
    9    -18.22186    2.00000
   10    -17.51749    2.00000
   11    -17.19673    2.00000
   12    -16.77090    2.00000
   13    -15.65615    2.00000
   14    -15.36827    2.00000
   15    -14.98921    2.00000
   16    -14.31966    2.00000
   17    -13.83973    2.00000
   18    -13.39460    2.00000
   19    -12.72967    2.00000
   20    -12.51096    2.00000
   21    -12.06763    2.00000
   22    -11.30106    2.00000
   23    -11.03535    2.00000
   24    -10.87566    2.00000
   25    -10.75851    2.00000
   26    -10.38543    2.00000
   27    -10.00996    2.00000
   28     -9.80712    2.00000
   29     -9.73456    2.00000
   30     -9.57450    2.00000
   31     -9.30019    2.00000
   32     -8.97886    2.00000
   33     -8.62589    2.00000
   34     -8.37275    2.00000
   35     -8.19746    2.00000
   36     -8.07249    2.00000
   37     -7.61055    2.00000
   38     -7.36560    2.00000
   39     -6.74494    2.00000
   40     -6.57239    2.00000
   41     -6.16683    2.00000
   42     -6.00867    2.00000
   43     -5.90536    2.00000
   44     -5.58285    1.99999
   45     -5.07402    1.99902
   46     -4.75673    1.97679
   47     -4.49547    1.72399
   48     -4.13630    0.29363
   49     -3.74036    0.00654
   50     -3.23721    0.00004
   51     -2.96863    0.00000
   52     -2.66744    0.00000
   53     -2.31666    0.00000
   54     -1.75689    0.00000
   55     -1.50149    0.00000
   56     -1.23561    0.00000
   57     -0.62488    0.00000
   58     -0.27739    0.00000
   59      0.20633    0.00000
[...]
   83      8.76723    0.00000
   84      8.82255    0.00000
   85      9.07270    0.00000
   86      9.14464    0.00000
   87      9.32028    0.00000
   88      9.41114    0.00000
   89      9.45968    0.00000
   90      9.56904    0.00000
   91      9.64029    0.00000
   92      9.74682    0.00000
   93      9.90936    0.00000
   94     10.01724    0.00000
   95     10.10530    0.00000
   96     10.18904    0.00000
   97     10.31728    0.00000

Forces in eV/Ang:
  0 C     0.02603    0.01621   -0.00188
  1 C     0.03321   -0.01422   -0.05875
  2 C    -0.04739   -0.00782   -0.00095
  3 C     0.01006    0.03259   -0.01135
  4 C    -0.01136   -0.03525    0.02972
  5 C    -0.00111    0.01189   -0.00466
  6 C    -0.01636    0.04294   -0.00602
  7 C     0.02647   -0.03616    0.00942
  8 C    -0.04692    0.00020    0.00072
  9 C    -0.00956   -0.01481   -0.00831
 10 C    -0.02970   -0.03087   -0.01536
 11 C     0.02893   -0.01262   -0.02419
 12 C     0.00558   -0.01147   -0.01393
 13 C     0.02953    0.04029   -0.00337
 14 C     0.03394    0.01077    0.01941
 15 C     0.00334   -0.01890    0.00910
 16 C    -0.07462    0.01267   -0.03756
 17 C     0.01316   -0.03291   -0.00959
 18 C    -0.02848    0.06689   -0.04879
 19 C     0.01369    0.03475    0.02156
 20 C     0.03431   -0.03965    0.01404
 21 C    -0.01646   -0.01648    0.02277
 22 C    -0.01659   -0.02538    0.06412
 23 C     0.00697    0.01700    0.04656