User:   esb@s65n14.grendel.cscaa.dk
Date:   Thu Nov  9 09:19:02 2017
Arch:   x86_64
Pid:    29021
Python: 2.7.13
gpaw:   /home/esb/DFT/gpaw_git/gpaw
_gpaw:  /home/esb/DFT/gpaw_git/build/bin.linux-x86_64-2.7/gpaw-python
ase:    /home/esb/DFT/ase_git/ase (version 3.15.0b1)
numpy:  /comm/swstack/core/python/2.7.13/lib/python2.7/site-packages/numpy (version 1.13.3)
scipy:  /comm/swstack/core/python/2.7.13/lib/python2.7/site-packages/scipy (version 0.19.1)
units:  Angstrom and eV
cores:  16
Extra parameters: {'blacs': True}

Input parameters:
  basis: dzp
  gpts: [80 80 48]
  kpts: [1 1 1]
  maxiter: 99
  mixer: {backend: pulay,
          beta: 0.05,
          method: separate,
          nmaxold: 5,
          weight: 75}
  mode: lcao
  nbands: -50
  occupations: {name: fermi-dirac,
                width: 0.1}
  poissonsolver: {eps: 1e-07,
                  name: fd,
                  nn: 3,
                  relax: GS}
  xc: PBE

System changes: positions, numbers, cell, pbc, initial_charges, initial_magmoms

Initialize ...

C-setup:
  name: Carbon
  id: 4aa54d4b901d75f77cc0ea3eec22967b
  Z: 6
  valence: 4
  core: 2
  charge: 0.0
  file: /home/esb/DFT/gpaw-setups-0.8.7929/C.PBE.gz
  cutoffs: 0.64(comp), 1.14(filt), 1.14(core), lmax=2
  valence states:
                energy  radius
    2s(2.00)   -13.751   0.635
    2p(2.00)    -5.284   0.635
    *s          13.461   0.635
    *p          21.927   0.635
    *d           0.000   0.635

  LCAO basis set for C:
    Name: dzp
    File: /home/esb/DFT/gpaw-setups-0.8.7929/C.dzp.basis.gz
    Number of radial functions: 5
    Number of spherical harmonics: 13
      l=0, rc=5.5469 Bohr: 2s-sz confined orbital
      l=1, rc=6.6719 Bohr: 2p-sz confined orbital
      l=0, rc=3.0312 Bohr: 2s-dz split-valence wave
      l=1, rc=3.7500 Bohr: 2p-dz split-valence wave
      l=2, rc=6.6719 Bohr: d-type Gaussian polarization

Reference energy: -24663.074771

Spin-paired calculation

Occupation numbers:
  Fermi-Dirac: width=0.1000 eV

Convergence criteria:
  Maximum total energy change: 0.0005 eV / electron
  Maximum integral of absolute density change: 0.0001 electrons
  Maximum integral of absolute eigenstate change: 4e-08 eV^2
  Maximum number of iterations: 99

Symmetries present (total): 1

  ( 1  0  0)
  ( 0  1  0)
  ( 0  0  1)

1 k-point (Gamma)
1 k-point in the irreducible part of the Brillouin zone
       k-points in crystal coordinates                weights
   0:     0.00000000    0.00000000    0.00000000          1/1

Wave functions: LCAO
  Diagonalizer: Serial LAPACK
  Atomic Correction: dense with blas
  Datatype: float
  Eigensolver: None

LCAO using direct dense diagonalizer

Densities:
  Coarse grid: 80*80*48 grid
  Fine grid: 160*160*96 grid
  Total Charge: 0.000000

Density mixing:
  Method: separate
  Backend: pulay
  Linear mixing parameter: 0.05
  Mixing with 5 old densities
  Damping of long wave oscillations: 75

Hamiltonian:
  XC and Coulomb potentials evaluated on a 160*160*96 grid
  Using the PBE Exchange-Correlation functional
  Interpolation: tri-quintic (5. degree polynomial)
  Poisson solver: Gauss-Seidel solver with 6 multi-grid levels
    Coarsest grid: 5 x 5 x 3 points
    Stencil: 6*3+1=19 point O(h^6) finite-difference Laplacian
    Max iterations: 1000
    Tolerance: 1.000000e-07

Total number of cores used: 16
Domain decomposition: 2 x 4 x 2

Number of atoms: 24
Number of atomic orbitals: 312
Number of bands in calculation: 98
Bands to converge: occupied states only
Number of valence electrons: 96

... initialized

Initializing position-dependent things.

Density initialized from atomic densities
  /        |            C                         |
 *         |   C C   C     C C                    |
 |         |  C C       C  C     C                |
 |         .------C--C--CC--C-C--C----------------.
 |        /             C   C                    /
 |       /                   C                  /

Positions:
   0 C      8.429532    5.376545    5.252974
   1 C      6.118183    8.265193    5.322122
   2 C     10.334750    4.483668    4.384499
   3 C      9.540594    5.382812    5.854151
   4 C      7.416336    7.588807    5.330246
   5 C      8.742426    8.055700    5.031690
   6 C      6.926071   10.479970    5.018803
   7 C     10.599348    9.365001    4.436524
   8 C     10.914834    8.132074    4.308480
   9 C      9.900048    7.178060    4.739915
  10 C      9.743938    5.767010    4.798098
  11 C      5.778881    9.686244    5.126591
  12 C      8.179097   10.388685    4.888688
  13 C      9.208450    9.466950    4.782842
  14 C      4.075351    9.228465    5.358003
  15 C      3.567884    8.089061    5.595037
  16 C      3.509808    6.783443    5.873978
  17 C      7.401878    7.872845    4.010417
  18 C      8.562908    4.459614    6.259982
  19 C      7.353857    4.115191    6.367381
  20 C      6.013438    4.129071    6.449256
  21 C      4.869990    4.668988    6.329971
  22 C      3.951991    5.618181    6.124947
  23 C      7.846957    6.713280    4.256454

Unit cell:
           periodic     x           y           z      points  spacing
  1. axis:    yes   16.000000    0.000000    0.000000    80     0.2000
  2. axis:    yes    0.000000   16.000000    0.000000    80     0.2000
  3. axis:    yes    0.000000    0.000000   10.000000    48     0.2083

Effective grid spacing dv^(1/3) = 0.2027

                     log10-error:    total        iterations:
           time      wfs    density  energy       fermi  poisson
iter:   1  09:19:04          +inf  -161.539614    2      6
iter:   2  09:19:04         -0.90  -160.325087    4      3
iter:   3  09:19:05         -0.94  -158.791186    33     3
iter:   4  09:19:06         -1.01  -157.269299    33     3
iter:   5  09:19:06         -1.18  -157.016269    3      3
iter:   6  09:19:07         -1.27  -156.827090    34     3
iter:   7  09:19:07         -1.47  -156.741653    4      3
iter:   8  09:19:08         -1.68  -156.745220    3      3
iter:   9  09:19:09         -1.79  -156.704212    3      3
iter:  10  09:19:09         -1.94  -156.683582    3      2
iter:  11  09:19:10         -2.11  -156.664300    3      3
iter:  12  09:19:10         -2.46  -156.663657    2      2
iter:  13  09:19:11         -2.56  -156.664755    3      2
iter:  14  09:19:11         -2.88  -156.673637    2      1
iter:  15  09:19:12         -2.99  -156.659423    2      1
iter:  16  09:19:13         -3.10  -156.657783    2      2
iter:  17  09:19:13         -3.40  -156.662787    2      1
iter:  18  09:19:14         -3.51  -156.655966    2      1
iter:  19  09:19:14         -3.63  -156.658010    2      1
iter:  20  09:19:15         -3.66  -156.660196    2      1
iter:  21  09:19:15         -3.76  -156.659320    2      1
iter:  22  09:19:16         -3.86  -156.662038    2      1
iter:  23  09:19:16         -4.14  -156.660159    2      1

Converged after 23 iterations.

Dipole moment: (-0.148515, -0.247626, 0.355571) |e|*Ang

Energy contributions relative to reference atoms: (reference = -24663.074771)

Kinetic:       +185.060511
Potential:     -158.237848
External:        +0.000000
XC:            -186.393164
Entropy (-ST):   -0.282490
Local:           +3.051588
Free energy:   -156.801405
Extrapolated:  -156.660159

Fermi level: -4.01642

 Band  Eigenvalues  Occupancy
    0    -29.38054    2.00000
    1    -27.58269    2.00000
    2    -22.99577    2.00000
    3    -21.95478    2.00000
    4    -20.92558    2.00000
    5    -20.35419    2.00000
    6    -19.65193    2.00000
    7    -19.34025    2.00000
    8    -18.96070    2.00000
    9    -18.45695    2.00000
   10    -17.92895    2.00000
   11    -17.47421    2.00000
   12    -17.12135    2.00000
   13    -16.33886    2.00000
   14    -16.22321    2.00000
   15    -15.32232    2.00000
   16    -15.17143    2.00000
   17    -14.59277    2.00000
   18    -14.04859    2.00000
   19    -13.45358    2.00000
   20    -13.27663    2.00000
   21    -13.01200    2.00000
   22    -12.74776    2.00000
   23    -11.89856    2.00000
   24    -11.70241    2.00000
   25    -10.92647    2.00000
   26    -10.67596    2.00000
   27    -10.42649    2.00000
   28    -10.10487    2.00000
   29     -9.85640    2.00000
   30     -9.18336    2.00000
   31     -8.98675    2.00000
   32     -8.93221    2.00000
   33     -8.48303    2.00000
   34     -8.24606    2.00000
   35     -7.82921    2.00000
   36     -7.44888    2.00000
   37     -7.21578    2.00000
   38     -6.88002    2.00000
   39     -6.81185    2.00000
   40     -6.33924    2.00000
   41     -6.13413    2.00000
   42     -5.90001    2.00000
   43     -5.74071    2.00000
   44     -4.97094    1.99986
   45     -4.91667    1.99975
   46     -4.45558    1.97554
   47     -4.09542    1.37563
   48     -3.93449    0.61182
   49     -3.57591    0.02413
   50     -3.50150    0.01154
   51     -3.30927    0.00170
   52     -2.90247    0.00003
   53     -2.56580    0.00000
   54     -2.40724    0.00000
   55     -2.04779    0.00000
   56     -1.80501    0.00000
   57     -1.66687    0.00000
   58     -0.91931    0.00000
   59     -0.28698    0.00000
[...]
   83      8.31188    0.00000
   84      8.41168    0.00000
   85      8.65765    0.00000
   86      8.80756    0.00000
   87      8.93527    0.00000
   88      9.10269    0.00000
   89      9.26319    0.00000
   90      9.28357    0.00000
   91      9.38692    0.00000
   92      9.48654    0.00000
   93      9.63580    0.00000
   94      9.84509    0.00000
   95      9.92683    0.00000
   96     10.06324    0.00000
   97     10.17317    0.00000

Forces in eV/Ang:
  0 C   -11.49334    2.51863  -12.49820
  1 C     1.05002    1.04756   -1.51000
  2 C    -1.16178    1.14727   -0.56774
  3 C     3.98441   -8.19761   32.76821
  4 C    -2.52980    0.12008   10.76592
  5 C     1.35196    1.56309    0.42114
  6 C    -1.97143    0.07706    0.24654
  7 C    -1.67952    2.67969    0.51905
  8 C     0.05810   -4.08921    0.16933
  9 C     2.93258    2.61182   -1.78235
 10 C    11.69857    7.11836  -25.23785
 11 C    -2.90137   -3.62484    1.80906
 12 C     0.38618    0.71443   -0.23258
 13 C     0.74269    1.00820   -0.32638
 14 C     3.92491    2.79711   -0.56866
 15 C    -0.10296   -0.38619    0.16629
 16 C    -0.49000    0.18826   -0.06157
 17 C    -3.29850    9.00825  -10.60676
 18 C     2.00186   -1.43205    1.72965
 19 C    -6.02136   -2.55394    2.48452
 20 C     2.37125   -0.41679    0.14714
 21 C    -1.08680    0.74230   -0.24624
 22 C     0.33545   -0.51656    0.16546
 23 C     1.82930  -12.11774    2.34121

System changes: positions

[...]

Density initialized from wave functions
  /        |            C                         |
 *         |   C C   C     C C                    |
 |         |  C C       C  C     C                |
 |         .------C--C--CC--C-C--C----------------.
 |        /             C   C                    /
 |       /                   C                  /

[...]

Density initialized from wave functions
  /        |            C                         |
 *         |   C C   C     C C                    |
 |         |  C C       C  C     C                |
 |         .------C--C--CC--C-C--C----------------.
[...]
 |        /            C C                       /
 |       /                  C                   /

[...]

Density initialized from wave functions
 *         |   CC C  C  C  C  C  C                |
 |         |   CC C  C      C C  C                |
 |         .---------C--CC---C--------------------.
 |        /            C C                       /
 |       /                  C                   /

[...]

Density initialized from wave functions
 *         |   CC C  C  C  C  C  C                |
 |         |   CC C  C      C C  C                |
 |         .--------CC--CC---C--------------------.
 |        /            C C                       /
 |       /                  C                   /

[...]

Density initialized from wave functions
 *         |   CC C  C  C  C  C  C                |
 |         |   CC C         C C                   |
 |         .--------CC--CC---C--------------------.
 |        /            C C                       /
 |       /                  C                   /

[...]

Density initialized from wave functions
 *         |   CC C  C  C  C  C  C                |
 |         |    C C         C C                   |
 |         .--------CC--CC--CC--------------------.
 |        /            C C                       /
 |       /                  C                   /

[...]

Density initialized from wave functions
 *         |   CC C  C  C  C  C  C                |
 |         |    C C         C C                   |
 |         .--------CC--CC--CC--------------------.
 |        /            C C                       /
 |       /                  C                   /

[...]

Density initialized from wave functions
 *         |   CC C  C  C  C  C  C                |
 |         |    C C         C C                   |
 |         .--------CCC-CC--CC--------------------.
 |        /            C C                       /
 |       /                  C                   /

[...]

Density initialized from wave functions
 *         |   CC C  C  C  C  C  C                |
 |         |    C C         C C                   |
 |         .--------CCC-CC--CC--------------------.
 |        /            C C                       /
 |       /                  C                   /

[...]

Density initialized from wave functions
 *         |   CC C  C  C  C  C  C                |
 |         |    C C         C C                   |
 |         .--------CCC-CC--CC--------------------.
 |        /            CC                        /
 |       /                  C                   /

[...]

Density initialized from wave functions
 *         |   CC C  C  C  C  C  C                |
 |         |    C C         C C                   |
 |         .--------CCC-CC--CC--------------------.
 |        /            CC                        /
 |       /                  C                   /

[...]

Density initialized from wave functions
 *         |   CC C  C  C  C  C  C                |
 |         |    C C         C                     |
 |         .--------CCC-CC--CCC-------------------.
 |        /            CC                        /
 |       /                  C                   /

[...]

Density initialized from wave functions
 *         |   CC C  C  C  C  C  C                |
 |         |    C  C        C                     |
 |         .--------CCC-CC--CCC-------------------.
 |        /            CC                        /
 |       /                 C                    /

[...]

Density initialized from wave functions
 *         |   CC C  C  C  C  C  C                |
 |         |    CC C        C                     |
 |         .--------CCC-CC--CCC-------------------.
 |        /            CC                        /
 |       /                 C                    /

[...]

Density initialized from wave functions
 *         |   CC C  C  C  C  C  C                |
 |         |    CC C        C C                   |
 |         .--------CCC-CC--C---------------------.
 |        /            CC                        /
 |       /                 C                    /

[...]

Density initialized from wave functions
 *         |    C C  C  C  C  C  C                |
 |         |   CCC C        C C                   |
 |         .--------CCC-CC--C---------------------.
 |        /            CC                        /
 |       /                 C                    /

[...]

Density initialized from wave functions
 *         |    C C  C  C  C  C  C                |
 |         |   CCC C        C C                   |
 |         .--------CCC-CC--C---------------------.
 |        /            CC                        /
 |       /                 C                    /

[...]

Density initialized from wave functions
 *         |     CC  C  C  C  C  C                |
 |         |   CCC C          C                   |
 |         .--------CCC-CC--C---------------------.
 |        /            CC                        /
 |       /                 C                    /

[...]

Density initialized from wave functions
 *         |     CC  C  C  C  C  C                |
 |         |   CCC C          C                   |
 |         .--------CCC-CC--C---------------------.
 |        /            CC                        /
 |       /                 C                    /

[...]

Density initialized from wave functions
 *         |     CC  C  C  C  C  C                |
 |         |   CCC C          C                   |
 |         .--------CCC-CC--CC--------------------.
 |        /            CC                        /
 |       /                 C                    /

[...]

Density initialized from wave functions
 *         |     CC  C  C  C  C  C                |
 |         |   CCC C          C                   |
 |         .--------CCC-CC--CC--------------------.
 |        /           C C                        /
 |       /                 C                    /

[...]

Density initialized from wave functions
 *         |     CC  C  C  C  C  C                |
 |         |   CCCC           C                   |
 |         .--------CCC-CC--CC--------------------.
 |        /           C C                        /
 |       /                 C                    /

[...]

Density initialized from wave functions
 *         |     CC  C  C  C  C  C                |
 |         |   CCCC           C                   |
 |         .--------CCC-CC--CC--------------------.
 |        /           C C                        /
 |       /                 C                    /

[...]

Density initialized from wave functions
 *         |     CC  C  C  C  C  C                |
 |         |   CCCC                               |
 |         .--------CCC-CC--CCC-------------------.
 |        /           C C                        /
 |       /                 C                    /

[...]

Density initialized from wave functions
 *         |     CC  C  C  C  C CC                |
 |         |    CCC                               |
 |         .--------CCC-CC--CCC-------------------.
 |        /           C C                        /
 |       /                 C                    /

[...]

Density initialized from wave functions
 *         |     CC  C  C  C  C CC                |
 |         |    CC C                              |
 |         .--------CCC-CC--CCC-------------------.
 |        /           C C                        /
 |       /                 C                    /

[...]

Density initialized from wave functions
 *         |     CC  C  C  C  C CC                |
 |         |    CC C                              |
 |         .--------CCC-CC--CCC-------------------.
 |        /           C C                        /
 |       /                 C                    /

[...]

Density initialized from wave functions
 *         |    C C  C  C  C  C  C                |
 |         |    CC C                              |
 |         .--------CCC-CC--CCC-------------------.
 |        /           C C                        /
 |       /                 C                    /

[...]

Density initialized from wave functions
 *         |    C C  C  C  C  C  C                |
 |         |    CC C                              |
 |         .--------CCC-CC--CCC-------------------.
 |        /           C C                        /
 |       /                 C                    /

[...]

Density initialized from wave functions
 *         |    C C  C  C  C  C CC                |
 |         |    CC C                              |
 |         .--------CCC-CC--CCC-------------------.
 |        /           C C                        /
 |       /                 C                    /

[...]

Density initialized from wave functions
 *         |    C C  C  C  C  C CC                |
 |         |    CC C                              |
 |         .--------CCC-CC--CCC-------------------.
 |        /           C C                        /
 |       /                 C                    /

[...]

Density initialized from wave functions
 *         |    C C  C  C  C  C CC                |
 |         |    CC C                              |
 |         .--------C-C-CC--CCC-------------------.
 |        /           C C                        /
 |       /                 C                    /

[...]

Density initialized from wave functions
 *         |    C C  C  C  C  C CC                |
 |         |    CC C                              |
 |         .--------C-C-CC--CCC-------------------.
 |        /           C C                        /
 |       /                 C                    /

[...]

Density initialized from wave functions
 *         |    C C  C  C  C  C  C                |
 |         |    CC C                              |
 |         .--------C-C-CC--CCC-------------------.
 |        /           C C                        /
 |       /                 C                    /

[...]

Density initialized from wave functions
 *         |    C C  C  C  C  C  C                |
 |         |    CC                                |
 |         .-------CC-C-CC--CCC-------------------.
 |        /           C C                        /
 |       /                 C                    /

[...]

Density initialized from wave functions
 *         |    C C  C  C  C  C  C                |
 |         |    CC                                |
 |         .-------CC-C-CC--CCC-------------------.
 |        /           C C                        /
 |       /                 C                    /

[...]

Density initialized from wave functions
 *         |    C C  C  C  C  C  C                |
 |         |    CC                                |
 |         .-------CC-C--C--CCC-------------------.
 |        /           C C                        /
 |       /                 C                    /

[...]

System changes: positions

Initializing position-dependent things.

Density initialized from wave functions
 *         |    C C  C  C  C  C  C                |
 |         |    CC                                |
 |         .-------CC-C--C--CCC-------------------.
 |        /           C C                        /
 |       /                 C                    /

Positions:
   0 C      8.066131    5.400708    4.734065
   1 C      6.344655    8.317034    4.295438
   2 C      9.346395    4.966022    4.009950
   3 C      9.833856    4.942592    6.054601
   4 C      5.862169    7.042469    4.786106
   5 C      8.960413    8.237974    4.230294
   6 C      6.883062   10.568283    4.586550
   7 C     10.500306    9.591941    5.304046
   8 C     10.804034    8.350348    5.512130
   9 C     10.015078    7.384621    4.841914
  10 C      9.829406    5.956059    4.987497
  11 C      5.841635    9.611454    4.673859
  12 C      8.144686   10.520236    4.564934
  13 C      9.269357    9.690047    4.617179
  14 C      4.578791    9.369490    5.298987
  15 C      4.161376    8.240455    5.694874
  16 C      4.697199    6.911517    5.621481
  17 C      7.671295    7.757651    4.042591
  18 C      8.493243    4.476895    5.843805
  19 C      7.483980    3.678755    6.441027
  20 C      6.258550    3.842584    6.702622
  21 C      5.161260    4.630391    6.588129
  22 C      4.522926    5.681377    6.309700
  23 C      7.170230    6.409788    4.450300

Unit cell:
           periodic     x           y           z      points  spacing
  1. axis:    yes   16.000000    0.000000    0.000000    80     0.2000
  2. axis:    yes    0.000000   16.000000    0.000000    80     0.2000
  3. axis:    yes    0.000000    0.000000   10.000000    48     0.2083

Effective grid spacing dv^(1/3) = 0.2027

                     log10-error:    total        iterations:
           time      wfs    density  energy       fermi  poisson
iter:   1  09:36:16          +inf  -180.838042    2      4
iter:   2  09:36:17         -3.13  -180.837421    1      1
iter:   3  09:36:17         -3.23  -180.836866    2      1
iter:   4  09:36:18         -3.52  -180.836442    2      1
iter:   5  09:36:19         -3.73  -180.836678    1      1
iter:   6  09:36:19         -3.68  -180.837493    1      1
iter:   7  09:36:20         -4.06  -180.837481    2      1

Converged after 7 iterations.

Dipole moment: (-0.402045, 0.316672, -0.081202) |e|*Ang

Energy contributions relative to reference atoms: (reference = -24663.074771)

Kinetic:       +111.634666
Potential:     -117.353450
External:        +0.000000
XC:            -178.103629
Entropy (-ST):   -0.051390
Local:           +3.010628
Free energy:   -180.863176
Extrapolated:  -180.837481

Fermi level: -4.26551

 Band  Eigenvalues  Occupancy
    0    -23.79515    2.00000
    1    -22.99164    2.00000
    2    -22.04139    2.00000
    3    -21.03317    2.00000
    4    -20.64700    2.00000
    5    -20.21525    2.00000
    6    -19.32799    2.00000
    7    -18.98197    2.00000
    8    -18.35610    2.00000
    9    -18.06611    2.00000
   10    -17.68545    2.00000
   11    -17.32610    2.00000
   12    -16.39736    2.00000
   13    -15.84199    2.00000
   14    -15.21228    2.00000
   15    -15.14005    2.00000
   16    -14.29676    2.00000
   17    -13.63781    2.00000
   18    -13.46005    2.00000
   19    -13.20937    2.00000
   20    -12.63307    2.00000
   21    -12.45996    2.00000
   22    -12.19061    2.00000
   23    -11.56822    2.00000
   24    -11.19673    2.00000
   25    -10.64181    2.00000
   26    -10.56287    2.00000
   27    -10.12466    2.00000
   28     -9.77630    2.00000
   29     -9.61103    2.00000
   30     -9.42285    2.00000
   31     -9.24543    2.00000
   32     -8.91230    2.00000
   33     -8.57091    2.00000
   34     -8.41836    2.00000
   35     -8.22194    2.00000
   36     -7.88087    2.00000
   37     -7.17465    2.00000
   38     -6.78993    2.00000
   39     -6.73978    2.00000
   40     -6.44615    2.00000
   41     -6.15363    2.00000
   42     -5.96672    2.00000
   43     -5.94103    2.00000
   44     -5.69981    2.00000
   45     -5.30974    1.99994
   46     -5.05150    1.99923
   47     -4.62269    1.94533
   48     -3.90932    0.05520
   49     -3.37683    0.00028
   50     -3.11347    0.00002
   51     -2.97329    0.00000
   52     -2.52522    0.00000
   53     -2.28867    0.00000
   54     -2.13311    0.00000
   55     -1.98397    0.00000
   56     -1.57743    0.00000
   57     -0.93727    0.00000
   58     -0.65178    0.00000
   59     -0.30093    0.00000
[...]
   83      8.69070    0.00000
   84      8.80851    0.00000
   85      9.10002    0.00000
   86      9.17137    0.00000
   87      9.27124    0.00000
   88      9.38867    0.00000
   89      9.46032    0.00000
   90      9.65318    0.00000
   91      9.75598    0.00000
   92      9.86381    0.00000
   93      9.98708    0.00000
   94     10.06576    0.00000
   95     10.18876    0.00000
   96     10.25996    0.00000
   97     10.39890    0.00000

Forces in eV/Ang:
  0 C     0.03190    0.02323    0.03364
  1 C    -0.01088   -0.01937   -0.01300
  2 C     0.00117    0.04034    0.00907
  3 C    -0.03175    0.01878   -0.07235
  4 C     0.01191    0.01054    0.02241
  5 C    -0.01965   -0.04427    0.02528
  6 C    -0.03080    0.01363   -0.03021
  7 C     0.05628    0.00872   -0.00956
  8 C     0.03372    0.03944   -0.01515
  9 C    -0.00555    0.02283    0.01218
 10 C    -0.00049    0.00866    0.05006
 11 C     0.04868   -0.06425    0.02887
 12 C     0.02293    0.02853    0.00801
 13 C    -0.02150   -0.02065   -0.03071
 14 C     0.05492   -0.03798   -0.02256
 15 C    -0.03773   -0.02506   -0.00523
 16 C     0.02113    0.05919   -0.05302
 17 C    -0.00265    0.01229    0.02304
 18 C    -0.05243   -0.00336   -0.03861
 19 C    -0.00359   -0.03903    0.01686
 20 C    -0.02976   -0.02316    0.01139
 21 C    -0.02488    0.00624    0.02636
 22 C     0.02194   -0.03663   -0.00520
 23 C    -0.01756    0.01623   -0.00058