User:   esb@s65n71.grendel.cscaa.dk
Date:   Wed Nov  8 16:14:54 2017
Arch:   x86_64
Pid:    56718
Python: 2.7.13
gpaw:   /home/esb/DFT/gpaw_git/gpaw
_gpaw:  /home/esb/DFT/gpaw_git/build/bin.linux-x86_64-2.7/gpaw-python
ase:    /home/esb/DFT/ase_git/ase (version 3.15.0b1)
numpy:  /comm/swstack/core/python/2.7.13/lib/python2.7/site-packages/numpy (version 1.13.3)
scipy:  /comm/swstack/core/python/2.7.13/lib/python2.7/site-packages/scipy (version 0.19.1)
units:  Angstrom and eV
cores:  16
Extra parameters: {'blacs': True}

Input parameters:
  basis: dzp
  gpts: [80 80 48]
  kpts: [1 1 1]
  maxiter: 99
  mixer: {backend: pulay,
          beta: 0.05,
          method: separate,
          nmaxold: 5,
          weight: 75}
  mode: lcao
  nbands: -50
  occupations: {name: fermi-dirac,
                width: 0.1}
  poissonsolver: {eps: 1e-07,
                  name: fd,
                  nn: 3,
                  relax: GS}
  xc: PBE

System changes: positions, numbers, cell, pbc, initial_charges, initial_magmoms

Initialize ...

C-setup:
  name: Carbon
  id: 4aa54d4b901d75f77cc0ea3eec22967b
  Z: 6
  valence: 4
  core: 2
  charge: 0.0
  file: /home/esb/DFT/gpaw-setups-0.8.7929/C.PBE.gz
  cutoffs: 0.64(comp), 1.14(filt), 1.14(core), lmax=2
  valence states:
                energy  radius
    2s(2.00)   -13.751   0.635
    2p(2.00)    -5.284   0.635
    *s          13.461   0.635
    *p          21.927   0.635
    *d           0.000   0.635

  LCAO basis set for C:
    Name: dzp
    File: /home/esb/DFT/gpaw-setups-0.8.7929/C.dzp.basis.gz
    Number of radial functions: 5
    Number of spherical harmonics: 13
      l=0, rc=5.5469 Bohr: 2s-sz confined orbital
      l=1, rc=6.6719 Bohr: 2p-sz confined orbital
      l=0, rc=3.0312 Bohr: 2s-dz split-valence wave
      l=1, rc=3.7500 Bohr: 2p-dz split-valence wave
      l=2, rc=6.6719 Bohr: d-type Gaussian polarization

Reference energy: -24663.074771

Spin-paired calculation

Occupation numbers:
  Fermi-Dirac: width=0.1000 eV

Convergence criteria:
  Maximum total energy change: 0.0005 eV / electron
  Maximum integral of absolute density change: 0.0001 electrons
  Maximum integral of absolute eigenstate change: 4e-08 eV^2
  Maximum number of iterations: 99

Symmetries present (total): 1

  ( 1  0  0)
  ( 0  1  0)
  ( 0  0  1)

1 k-point (Gamma)
1 k-point in the irreducible part of the Brillouin zone
       k-points in crystal coordinates                weights
   0:     0.00000000    0.00000000    0.00000000          1/1

Wave functions: LCAO
  Diagonalizer: Serial LAPACK
  Atomic Correction: dense with blas
  Datatype: float
  Eigensolver: None

LCAO using direct dense diagonalizer

Densities:
  Coarse grid: 80*80*48 grid
  Fine grid: 160*160*96 grid
  Total Charge: 0.000000

Density mixing:
  Method: separate
  Backend: pulay
  Linear mixing parameter: 0.05
  Mixing with 5 old densities
  Damping of long wave oscillations: 75

Hamiltonian:
  XC and Coulomb potentials evaluated on a 160*160*96 grid
  Using the PBE Exchange-Correlation functional
  Interpolation: tri-quintic (5. degree polynomial)
  Poisson solver: Gauss-Seidel solver with 6 multi-grid levels
    Coarsest grid: 5 x 5 x 3 points
    Stencil: 6*3+1=19 point O(h^6) finite-difference Laplacian
    Max iterations: 1000
    Tolerance: 1.000000e-07

Total number of cores used: 16
Domain decomposition: 2 x 4 x 2

Number of atoms: 24
Number of atomic orbitals: 312
Number of bands in calculation: 98
Bands to converge: occupied states only
Number of valence electrons: 96

... initialized

Initializing position-dependent things.

Density initialized from atomic densities
   /       |           C  C  C  C                 |
  /        |         C           C                |
 *         |  C   C    C  C  C     C              |
 |         |C         C           C C             |
 |         .-----------C--C-----C-----------------.
 |        /      C  C        C                   /
 |       /         C                            /

Positions:
   0 C      6.704463    7.641744    4.846146
   1 C      5.224465    4.566235    4.742004
   2 C      7.328004    6.296022    4.857131
   3 C     11.696070    7.853692    4.825233
   4 C      6.333306    3.694741    4.806192
   5 C      6.500748    5.167736    4.821352
   6 C     10.182441    4.327776    4.981103
   7 C     11.085112    6.648478    4.874300
   8 C      8.772627    6.485049    4.860486
   9 C     10.027241    5.726528    4.910660
  10 C      4.548957    8.939707    5.657963
  11 C      6.276311   10.908919    5.587054
  12 C      6.820736    8.494227    5.755895
  13 C      9.287865    9.365081    5.503145
  14 C      3.221666    8.953746    5.073537
  15 C      9.703293   11.628251    5.229182
  16 C      2.326475    8.023627    4.685535
  17 C     11.548975    9.833653    4.779883
  18 C     10.302319   10.308830    5.187805
  19 C      5.801057    9.585181    5.710387
  20 C      7.207872   11.749818    5.506202
  21 C      8.182572    8.807970    5.696344
  22 C      8.526434   12.057310    5.365932
  23 C     12.252411    8.824002    4.427462

Unit cell:
           periodic     x           y           z      points  spacing
  1. axis:    yes   16.000000    0.000000    0.000000    80     0.2000
  2. axis:    yes    0.000000   16.000000    0.000000    80     0.2000
  3. axis:    yes    0.000000    0.000000   10.000000    48     0.2083

Effective grid spacing dv^(1/3) = 0.2027

                     log10-error:    total        iterations:
           time      wfs    density  energy       fermi  poisson
iter:   1  16:14:56          +inf  -171.794511    3      6
iter:   2  16:14:56         -0.86  -170.405794    3      3
iter:   3  16:14:57         -0.91  -169.067958    4      3
iter:   4  16:14:58         -0.98  -167.777109    33     3
iter:   5  16:14:58         -1.09  -167.081614    34     3
iter:   6  16:14:59         -1.31  -166.746627    4      3
iter:   7  16:15:00         -1.57  -166.795016    4      3
iter:   8  16:15:00         -1.69  -166.734656    3      3
iter:   9  16:15:01         -1.88  -166.724164    3      2
iter:  10  16:15:02         -1.97  -166.710563    3      2
iter:  11  16:15:02         -2.23  -166.697616    3      2
iter:  12  16:15:03         -2.41  -166.693522    3      2
iter:  13  16:15:03         -2.54  -166.693336    3      2
iter:  14  16:15:04         -2.73  -166.693230    3      2
iter:  15  16:15:05         -2.97  -166.691365    2      2
iter:  16  16:15:05         -3.14  -166.694694    2      1
iter:  17  16:15:06         -3.23  -166.687495    2      1
iter:  18  16:15:06         -3.45  -166.684905    2      1
iter:  19  16:15:07         -3.63  -166.687633    2      1
iter:  20  16:15:07         -3.90  -166.687508    2      1
iter:  21  16:15:08         -4.01  -166.688777    2      1

Converged after 21 iterations.

Dipole moment: (1.152109, 1.363731, 0.206873) |e|*Ang

Energy contributions relative to reference atoms: (reference = -24663.074771)

Kinetic:       +115.151549
Potential:     -119.400099
External:        +0.000000
XC:            -165.250806
Entropy (-ST):   -0.316319
Local:           +2.968739
Free energy:   -166.846937
Extrapolated:  -166.688777

Fermi level: -4.58163

 Band  Eigenvalues  Occupancy
    0    -22.87317    2.00000
    1    -22.69213    2.00000
    2    -22.14336    2.00000
    3    -21.32232    2.00000
    4    -20.75787    2.00000
    5    -20.50233    2.00000
    6    -19.73370    2.00000
    7    -19.27111    2.00000
    8    -18.72713    2.00000
    9    -18.44284    2.00000
   10    -17.74054    2.00000
   11    -17.27027    2.00000
   12    -16.12428    2.00000
   13    -15.85552    2.00000
   14    -15.44283    2.00000
   15    -14.80946    2.00000
   16    -14.43071    2.00000
   17    -14.23023    2.00000
   18    -13.46136    2.00000
   19    -13.10784    2.00000
   20    -13.04604    2.00000
   21    -12.30492    2.00000
   22    -11.76854    2.00000
   23    -11.59065    2.00000
   24    -10.58901    2.00000
   25    -10.38996    2.00000
   26    -10.08033    2.00000
   27     -9.70597    2.00000
   28     -9.48700    2.00000
   29     -9.34108    2.00000
   30     -8.98978    2.00000
   31     -8.86869    2.00000
   32     -8.75129    2.00000
   33     -8.43229    2.00000
   34     -7.85773    2.00000
   35     -7.57348    2.00000
   36     -7.55741    2.00000
   37     -6.97182    2.00000
   38     -6.93190    2.00000
   39     -6.48523    2.00000
   40     -6.34611    2.00000
   41     -5.98328    2.00000
   42     -5.88914    2.00000
   43     -5.38296    1.99934
   44     -5.30492    1.99856
   45     -5.16030    1.99388
   46     -4.95354    1.95264
   47     -4.66560    1.39679
   48     -4.48581    0.55448
   49     -4.25883    0.07625
   50     -4.15419    0.02746
   51     -3.76775    0.00058
   52     -3.44599    0.00002
   53     -3.24014    0.00000
   54     -2.99533    0.00000
   55     -2.81441    0.00000
   56     -2.13486    0.00000
   57     -1.54055    0.00000
   58     -1.19639    0.00000
   59     -0.70652    0.00000
[...]
   83      8.27825    0.00000
   84      8.30154    0.00000
   85      8.58588    0.00000
   86      8.63552    0.00000
   87      8.71211    0.00000
   88      8.95883    0.00000
   89      9.14576    0.00000
   90      9.19928    0.00000
   91      9.25543    0.00000
   92      9.41878    0.00000
   93      9.54679    0.00000
   94      9.68505    0.00000
   95      9.86292    0.00000
   96     10.03894    0.00000
   97     10.11108    0.00000

Forces in eV/Ang:
  0 C    -2.17293   -8.12446   -4.62790
  1 C     0.92326   -0.71969    0.06217
  2 C     3.02144    2.00225   -0.92877
  3 C    -7.20536  -18.22249    3.65814
  4 C    -0.72848    1.60113   -0.00768
  5 C    -0.01902   -1.67979   -0.06615
  6 C    -0.65024    1.12231   -0.09440
  7 C     3.26544    3.72702   -0.25103
  8 C    -3.28672   -2.19475    0.11597
  9 C    -0.25438    0.13773    0.25508
 10 C    -4.18612    1.68586   -3.02233
 11 C    -0.61386   -0.26563    0.35848
 12 C     0.55040    6.98819    4.23662
 13 C     0.94975    0.56728   -0.39610
 14 C     4.09847   -1.39096    2.23553
 15 C     0.64016   -0.59322   -0.04090
 16 C     0.45236    0.86239    0.16351
 17 C    -0.73217    2.27830    0.10363
 18 C    -0.46547    1.18279   -0.21509
 19 C    -0.79491   -0.69188    0.63240
 20 C     0.63641    0.36678   -0.00251
 21 C     1.60413    0.08976    1.22031
 22 C    -0.81148   -0.06734    0.03669
 23 C     5.74997   11.22829   -3.40578

System changes: positions

[...]

Density initialized from wave functions
   /       |           C  C  C  C                 |
  /        |         C           C                |
 *         |  C   C    C  C  C     C              |
 |         |C         C           C C             |
 |         .-----------C--C-----C-----------------.
 |        /      C  C        C                   /
 |       /         C                            /

[...]

Density initialized from wave functions
   /       |           C  C  C  C                 |
  /        |         C           C                |
 *         |   C  C    C   C  C    C              |
 |         |C         C           C C             |
 |         .-----------C--C-----C-----------------.
[...]

[...]

Density initialized from wave functions
   /       |              C  C  C                 |
  /        |          CC      C  C                |
 *         |      C     C  C        C             |
 |         |C  C      C             C             |
 |         .----------C---------C--C--------------.
 |        /     C  C      CC C                   /
 |       /        C                             /

[...]

Density initialized from wave functions
   /       |              C  C  C                 |
  /        |           C      C  C                |
 *         |      C   C C  C        C             |
 |         |C  C      C             C             |
 |         .----------C---------C--C--------------.
 |        /     C  C      CC C                   /
 |       /        C                             /

[...]

Density initialized from wave functions
   /       |              C  C  C                 |
  /        |           C      C  C                |
 *         |      C   C C  C        C             |
 |         |C  C      C             C             |
 |         .----------C---------C--C--------------.
 |        /     C  C      CC C                   /
 |      /         C                            /

[...]

Density initialized from wave functions
   /       |              C  C  C                 |
  /        |           C      C  C                |
 *         |      C   C C  C        C             |
 |         |C  C      C             C             |
 |         .----------C---------C--C--------------.
 |        /     C  C     C C C                   /
 |      /         C                            /

[...]

Density initialized from wave functions
   /       |              C  C  C                 |
  /        |           C      C  C                |
 *         |      C   C C  C        C             |
 |         |C  C      C             C             |
 |         .----------C---------C--C--------------.
 |        /     C  C     C C C                   /
 |      /         C                            /

[...]

Density initialized from wave functions
   /       |              C  C  C                 |
  /        |           C      C  C                |
 *         |       C  C C  C        C             |
 |         |C  C      C             C             |
 |         .----------C--C------C-C---------------.
 |        /     C  C       C C                   /
 |      /         C                            /

[...]

Density initialized from wave functions
   /       |              C  C  C                 |
  /        |           C      C  C                |
 *         |          C C  C        C             |
 |         |C  C   C  C             C             |
 |         .----------C--C------C-C---------------.
 |        /     C  C       C C                   /
 |      /         C                            /

[...]

Density initialized from wave functions
   /       |              C  C  C                 |
  /        |           C      C  C                |
 *         |          C C   C       C             |
 |         |C   C  C  C             C             |
 |         .----------C--C------C-C---------------.
 |        /     C  C       C C                   /
 |      /         C                            /

[...]

Density initialized from wave functions
   /       |              C  C  C                 |
  /        |           C      C  C                |
 *         |          C C   C       C             |
 |         | C  C  C  C             C             |
 |         .----------C--C------C-C---------------.
 |        /     C  C       C C                   /
 |      /         C                            /

[...]

Density initialized from wave functions
   /       |              C  C  C                 |
  /        |           C      C  C                |
 *         |          C C   C       C             |
 |         | C  C  C  C             C             |
 |         .----------C--C------C-C---------------.
 |        /     C  C       C C                   /
 |      /         C                            /

[...]

Density initialized from wave functions
   /       |              C  C  C                 |
  /        |           C      C  C                |
 *         |          C C   C       C             |
 |         | C  C  C  C             C             |
 |         .----------C--C-----C--C---------------.
 |        /     C  C       C C                   /
 |      /         C                            /

[...]

Density initialized from wave functions
   /       |              C  C  C                 |
  /        |           C      C  C  C             |
 *         |          C C   C                     |
 |         | C  C  C  C             C             |
 |         .----------C--C-----C--C---------------.
 |        /     C  C       C C                   /
 |      /        C                             /

[...]

Density initialized from wave functions
   /       |              C  C  C                 |
  /        |           C      C  C                |
 *         |          C C   C       C             |
 |         | C  C  C  C             C             |
 |         .----------C--C-----C--C---------------.
 |        /     C  C       C C                   /
 |      /        C                             /

[...]

Density initialized from wave functions
   /       |              C  C  C                 |
  /        |           C      C  C                |
 *         |          C C   C       C             |
 |         | C  C  C  C             C             |
 |         .----------C--C---C-C--C---------------.
 |        /     C  C       C                     /
 |      /        C                             /

[...]

Density initialized from wave functions
   /       |              C  C  C                 |
  /        |           C      C  C                |
 *         |          C C   C       C             |
 |         | C  C  C  C             C             |
 |         .----------C--C---C-C--C---------------.
 |        /     C  C       C                     /
 |      /        C                             /

[...]

Density initialized from wave functions
   /       |              C  C  C                 |
  /        |           C      C  C                |
 *         |          C C   C       C             |
 |         | C  C  C  C             C             |
 |         .----------C--C--C--C--C---------------.
 |        /     C  C       C                     /
 |      /        C                             /

[...]

Density initialized from wave functions
   /       |              C  C  C                 |
  /        |           C      C  C                |
 *         |          C C   C       C             |
 |         | C  C  C  C             C             |
 |         .----------C--C--C--C--C---------------.
 |        /     C  C      C                      /
 |      /        C                             /

[...]

Density initialized from wave functions
   /       |              C  C  C                 |
  /        |           C    C C  C                |
 *         |          C C           C             |
 |         | C  C  C  C             C             |
 |         .----------C--C--C--C--C---------------.
 |        /     C  C      C                      /
 |      /        C                             /

[...]

Density initialized from wave functions
   /       |              C  C  C                 |
  /        |           C    C C  C                |
 *         |          C C           C             |
 |         | C  C  C  C             C             |
 |         .----------C--C--C--C--C---------------.
 |        /     C  C      C                      /
 |      /        C                             /

[...]

Density initialized from wave functions
   /       |              C  C  C                 |
  /        |           C    C C  C                |
 *         |          C C           C             |
 |         | C  C  C  C             C             |
 |         .----------C-----C--C--C---------------.
 |        /     C  C     CC                      /
 |      /        C                             /

[...]

Density initialized from wave functions
   /       |              C  C  C                 |
  /        |           C    C C  C                |
 *         |          C C           C             |
 |         | C  C  C  C             C             |
 |         .----------C-----C--C--C---------------.
 |        /     C  C     CC                      /
 |      /        C                             /

[...]

Density initialized from wave functions
   /       |              C  C  C                 |
  /        |           C    C C  C                |
 *         |          C C           C             |
 |         | C  C  C  C             C             |
 |         .----------C--------C--C---------------.
 |        /     C  C     CC C                    /
 |      /        C                             /

[...]

Density initialized from wave functions
   /       |              C  C  C                 |
  /        |           C    C C  C                |
 *         |          C C           C             |
 |         | C  C  C  C             C             |
 |         .----------C--C-----C--C---------------.
 |        /     C  C      C C                    /
 |      /        C                             /

[...]

Density initialized from wave functions
   /       |              C  C  C                 |
  /        |          CC    C C  C                |
 *         |            C           C             |
 |         | C  C  C  C             C             |
 |         .----------C--C-----C--C---------------.
 |        /     C  C      C C                    /
 |      /        C                             /

[...]

Density initialized from wave functions
   /       |              C  C  C                 |
  /        |          CC    C C  C                |
 *         |            C           C             |
 |         | C  C  C  C             C             |
 |         .----------C--C-----C--C---------------.
 |        /     C  C      C C                    /
 |      /        C                             /

[...]

Density initialized from wave functions
   /       |              C  C  C                 |
  /        |          CC    C C  C                |
 *         |            C           C             |
 |         |    C  C  C             C             |
 |         .-C--------C--C-----C--C---------------.
 |        /     C  C      C C                    /
 |      /        C                             /

[...]

System changes: positions

Initializing position-dependent things.

Density initialized from wave functions
   /       |              C  C  C                 |
  /        |          CC    C C  C                |
 *         |            C           C             |
 |         |    C  C  C             C             |
 |         .-C--------C--C-----C--C---------------.
 |        /     C  C      C C                    /
 |      /        C                             /

Positions:
   0 C      6.648754    7.459535    5.386946
   1 C      5.145876    4.083926    5.228012
   2 C      7.001426    6.109965    5.086366
   3 C     11.571776    7.749648    4.654295
   4 C      5.267078    4.352626    3.882836
   5 C      6.018211    5.144123    4.784579
   6 C      9.224106    4.487430    4.885245
   7 C     10.740181    6.796886    4.745737
   8 C      8.369073    5.625094    4.997270
   9 C      9.744894    5.858380    4.846734
  10 C      5.393919    8.293048    5.257679
  11 C      6.379559   10.854701    5.421265
  12 C      7.411238    8.609555    5.733538
  13 C      9.548057    9.932025    5.845028
  14 C      4.100280    7.985171    4.973437
  15 C      9.740049   12.144413    5.200332
  16 C      2.903929    7.539683    4.732149
  17 C     11.666431   10.304849    4.958075
  18 C     10.442363   10.930583    5.389870
  19 C      6.218918    9.494301    5.526970
  20 C      7.226946   11.814215    5.323668
  21 C      8.714678    9.004096    5.955148
  22 C      8.464146   12.309768    5.266629
  23 C     11.855172    9.062032    4.753617

Unit cell:
           periodic     x           y           z      points  spacing
  1. axis:    yes   16.000000    0.000000    0.000000    80     0.2000
  2. axis:    yes    0.000000   16.000000    0.000000    80     0.2000
  3. axis:    yes    0.000000    0.000000   10.000000    48     0.2083

Effective grid spacing dv^(1/3) = 0.2027

                     log10-error:    total        iterations:
           time      wfs    density  energy       fermi  poisson
iter:   1  16:29:04          +inf  -177.728056    2      4
iter:   2  16:29:04         -3.12  -177.727972    2      1
iter:   3  16:29:05         -3.20  -177.728443    2      1
iter:   4  16:29:05         -3.37  -177.728343    2      1
iter:   5  16:29:06         -3.61  -177.728521    2      1
iter:   6  16:29:06         -3.80  -177.727747    2      1
iter:   7  16:29:07         -3.96  -177.727924    2      1
iter:   8  16:29:07         -4.12  -177.728026    2      1

Converged after 8 iterations.

Dipole moment: (1.315425, 1.002691, 0.173748) |e|*Ang

Energy contributions relative to reference atoms: (reference = -24663.074771)

Kinetic:       +106.889769
Potential:     -116.341638
External:        +0.000000
XC:            -171.196085
Entropy (-ST):   -0.092127
Local:           +2.965991
Free energy:   -177.774090
Extrapolated:  -177.728026

Fermi level: -4.80655

 Band  Eigenvalues  Occupancy
    0    -23.39983    2.00000
    1    -23.03590    2.00000
    2    -22.90812    2.00000
    3    -21.85271    2.00000
    4    -20.76636    2.00000
    5    -20.48361    2.00000
    6    -20.03264    2.00000
    7    -19.56978    2.00000
    8    -19.28820    2.00000
    9    -18.36692    2.00000
   10    -18.07462    2.00000
   11    -17.32271    2.00000
   12    -16.61284    2.00000
   13    -16.29702    2.00000
   14    -15.52054    2.00000
   15    -14.93722    2.00000
   16    -14.84440    2.00000
   17    -14.54809    2.00000
   18    -14.19631    2.00000
   19    -12.91353    2.00000
   20    -12.61552    2.00000
   21    -11.79052    2.00000
   22    -11.41536    2.00000
   23    -11.32691    2.00000
   24    -11.17383    2.00000
   25    -10.69445    2.00000
   26    -10.56123    2.00000
   27    -10.11461    2.00000
   28     -9.89344    2.00000
   29     -9.85384    2.00000
   30     -9.14471    2.00000
   31     -9.07907    2.00000
   32     -8.94319    2.00000
   33     -8.77181    2.00000
   34     -8.71694    2.00000
   35     -8.29143    2.00000
   36     -7.79520    2.00000
   37     -7.28459    2.00000
   38     -7.15890    2.00000
   39     -6.87759    2.00000
   40     -6.46110    2.00000
   41     -6.15020    2.00000
   42     -5.94703    1.99998
   43     -5.82189    1.99992
   44     -5.51248    1.99828
   45     -5.45787    1.99704
   46     -5.19208    1.95854
   47     -5.15551    1.94078
   48     -4.51733    0.10509
   49     -3.93826    0.00034
   50     -3.67194    0.00002
   51     -3.49807    0.00000
   52     -3.01005    0.00000
   53     -2.29567    0.00000
   54     -2.19328    0.00000
   55     -1.49096    0.00000
   56     -1.32057    0.00000
   57     -1.05607    0.00000
   58     -0.73384    0.00000
   59     -0.61037    0.00000
[...]
   83      7.95015    0.00000
   84      8.07895    0.00000
   85      8.24265    0.00000
   86      8.32936    0.00000
   87      8.57671    0.00000
   88      8.78457    0.00000
   89      8.97415    0.00000
   90      9.02085    0.00000
   91      9.27144    0.00000
   92      9.36529    0.00000
   93      9.52559    0.00000
   94      9.69301    0.00000
   95      9.85272    0.00000
   96      9.88431    0.00000
   97     10.17414    0.00000

Forces in eV/Ang:
  0 C    -0.03246    0.03222   -0.03410
  1 C    -0.05562    0.00413    0.01320
  2 C    -0.00558    0.01476    0.04497
  3 C     0.04594    0.08112   -0.01413
  4 C    -0.02997   -0.02233    0.01620
  5 C     0.03689    0.02105   -0.01106
  6 C    -0.00059   -0.01543   -0.01794
  7 C    -0.00515    0.04240    0.00168
  8 C     0.02297   -0.04928   -0.02170
  9 C     0.00460    0.04521    0.02465
 10 C     0.02785   -0.00866    0.03468
 11 C    -0.00176    0.03813    0.00892
 12 C    -0.03635   -0.05881    0.04002
 13 C     0.03175    0.00716    0.04266
 14 C    -0.01256   -0.02418   -0.00691
 15 C     0.00665   -0.00729   -0.01622
 16 C    -0.01191    0.00863   -0.05187
 17 C    -0.00852    0.02393    0.00717
 18 C     0.05420   -0.00268    0.00377
 19 C     0.02484   -0.02683   -0.01679
 20 C    -0.03812   -0.03157   -0.02437
 21 C    -0.00060   -0.04356    0.01358
 22 C     0.00019    0.03333   -0.01696
 23 C    -0.01593   -0.05635    0.01130