User:   esb@s65n72.grendel.cscaa.dk
Date:   Wed Nov  8 14:12:59 2017
Arch:   x86_64
Pid:    97117
Python: 2.7.13
gpaw:   /home/esb/DFT/gpaw_git/gpaw
_gpaw:  /home/esb/DFT/gpaw_git/build/bin.linux-x86_64-2.7/gpaw-python
ase:    /home/esb/DFT/ase_git/ase (version 3.15.0b1)
numpy:  /comm/swstack/core/python/2.7.13/lib/python2.7/site-packages/numpy (version 1.13.3)
scipy:  /comm/swstack/core/python/2.7.13/lib/python2.7/site-packages/scipy (version 0.19.1)
units:  Angstrom and eV
cores:  16
Extra parameters: {'blacs': True}

Input parameters:
  basis: dzp
  gpts: [80 80 48]
  kpts: [1 1 1]
  maxiter: 99
  mixer: {backend: pulay,
          beta: 0.05,
          method: separate,
          nmaxold: 5,
          weight: 75}
  mode: lcao
  nbands: -50
  occupations: {name: fermi-dirac,
                width: 0.1}
  poissonsolver: {eps: 1e-07,
                  name: fd,
                  nn: 3,
                  relax: GS}
  xc: PBE

System changes: positions, numbers, cell, pbc, initial_charges, initial_magmoms

Initialize ...

C-setup:
  name: Carbon
  id: 4aa54d4b901d75f77cc0ea3eec22967b
  Z: 6
  valence: 4
  core: 2
  charge: 0.0
  file: /home/esb/DFT/gpaw-setups-0.8.7929/C.PBE.gz
  cutoffs: 0.64(comp), 1.14(filt), 1.14(core), lmax=2
  valence states:
                energy  radius
    2s(2.00)   -13.751   0.635
    2p(2.00)    -5.284   0.635
    *s          13.461   0.635
    *p          21.927   0.635
    *d           0.000   0.635

  LCAO basis set for C:
    Name: dzp
    File: /home/esb/DFT/gpaw-setups-0.8.7929/C.dzp.basis.gz
    Number of radial functions: 5
    Number of spherical harmonics: 13
      l=0, rc=5.5469 Bohr: 2s-sz confined orbital
      l=1, rc=6.6719 Bohr: 2p-sz confined orbital
      l=0, rc=3.0312 Bohr: 2s-dz split-valence wave
      l=1, rc=3.7500 Bohr: 2p-dz split-valence wave
      l=2, rc=6.6719 Bohr: d-type Gaussian polarization

Reference energy: -24663.074771

Spin-paired calculation

Occupation numbers:
  Fermi-Dirac: width=0.1000 eV

Convergence criteria:
  Maximum total energy change: 0.0005 eV / electron
  Maximum integral of absolute density change: 0.0001 electrons
  Maximum integral of absolute eigenstate change: 4e-08 eV^2
  Maximum number of iterations: 99

Symmetries present (total): 1

  ( 1  0  0)
  ( 0  1  0)
  ( 0  0  1)

1 k-point (Gamma)
1 k-point in the irreducible part of the Brillouin zone
       k-points in crystal coordinates                weights
   0:     0.00000000    0.00000000    0.00000000          1/1

Wave functions: LCAO
  Diagonalizer: Serial LAPACK
  Atomic Correction: dense with blas
  Datatype: float
  Eigensolver: None

LCAO using direct dense diagonalizer

Densities:
  Coarse grid: 80*80*48 grid
  Fine grid: 160*160*96 grid
  Total Charge: 0.000000

Density mixing:
  Method: separate
  Backend: pulay
  Linear mixing parameter: 0.05
  Mixing with 5 old densities
  Damping of long wave oscillations: 75

Hamiltonian:
  XC and Coulomb potentials evaluated on a 160*160*96 grid
  Using the PBE Exchange-Correlation functional
  Interpolation: tri-quintic (5. degree polynomial)
  Poisson solver: Gauss-Seidel solver with 6 multi-grid levels
    Coarsest grid: 5 x 5 x 3 points
    Stencil: 6*3+1=19 point O(h^6) finite-difference Laplacian
    Max iterations: 1000
    Tolerance: 1.000000e-07

Total number of cores used: 16
Domain decomposition: 2 x 4 x 2

Number of atoms: 24
Number of atomic orbitals: 312
Number of bands in calculation: 98
Bands to converge: occupied states only
Number of valence electrons: 96

... initialized

Initializing position-dependent things.

Density initialized from atomic densities
  /        |            C     C                   |
 *         |   C  C      C                        |
 |         |     C   C C C      C  C              |
 |         .--C-C------C-----C--------------------.
 |        /      C  C  CC                        /
 |       /      C           C                   /
 |      /          C                           /

Positions:
   0 C      7.208871   10.498870    4.768626
   1 C      8.387853    3.237812    5.460291
   2 C      7.881386    8.442968    5.143040
   3 C      8.289682    5.205214    4.659063
   4 C      4.228576   10.164260    4.730179
   5 C     11.686616    8.468220    4.470381
   6 C      6.355005   11.728707    4.363179
   7 C     10.398008    4.847302    5.464620
   8 C      6.822828    9.003370    4.676411
   9 C      6.974487    7.625539    4.641467
  10 C      6.419374    3.779608    4.281344
  11 C      5.009237    4.896856    4.275563
  12 C      9.702283    5.173816    4.386893
  13 C      4.721489    5.329720    5.541284
  14 C      7.442026    6.009990    4.893756
  15 C      5.581185    3.502316    5.676143
  16 C      5.849366    9.550962    4.309259
  17 C      9.167485   11.245223    4.692692
  18 C      6.997611    3.643995    5.634833
  19 C      3.512319    6.428110    4.606613
  20 C      4.628773    7.557867    5.194114
  21 C     10.071095    9.709252    4.273592
  22 C      3.485204    9.406126    5.364727
  23 C      8.062954    7.051607    5.428045

Unit cell:
           periodic     x           y           z      points  spacing
  1. axis:    yes   16.000000    0.000000    0.000000    80     0.2000
  2. axis:    yes    0.000000   16.000000    0.000000    80     0.2000
  3. axis:    yes    0.000000    0.000000   10.000000    48     0.2083

Effective grid spacing dv^(1/3) = 0.2027

                     log10-error:    total        iterations:
           time      wfs    density  energy       fermi  poisson
iter:   1  14:13:01          +inf  -133.739979    3      6
iter:   2  14:13:02         -0.89  -131.856147    3      3
iter:   3  14:13:02         -0.94  -130.470628    4      3
iter:   4  14:13:03         -1.00  -129.324913    4      3
iter:   5  14:13:03         -1.09  -129.114685    3      3
iter:   6  14:13:04         -1.14  -129.088070    3      3
iter:   7  14:13:04         -1.23  -128.966536    3      3
iter:   8  14:13:05         -1.42  -128.470997    4      3
iter:   9  14:13:06         -1.65  -128.391949    3      3
iter:  10  14:13:06         -1.78  -128.357939    2      2
iter:  11  14:13:07         -1.92  -128.338578    3      2
iter:  12  14:13:07         -2.05  -128.333273    3      2
iter:  13  14:13:08         -2.20  -128.332385    3      2
iter:  14  14:13:08         -2.33  -128.329851    3      2
iter:  15  14:13:09         -2.44  -128.329286    3      2
iter:  16  14:13:09         -2.63  -128.327167    3      2
iter:  17  14:13:10         -2.84  -128.326037    2      2
iter:  18  14:13:10         -3.01  -128.328730    2      1
iter:  19  14:13:11         -3.07  -128.329150    2      1
iter:  20  14:13:11         -3.19  -128.326232    2      1
iter:  21  14:13:12         -3.37  -128.325148    2      1
iter:  22  14:13:12         -3.68  -128.323059    2      1
iter:  23  14:13:13         -3.76  -128.323693    2      1
iter:  24  14:13:14         -3.82  -128.324599    2      1
iter:  25  14:13:14         -4.00  -128.324772    2      1
iter:  26  14:13:15         -4.25  -128.324695    2      1

Converged after 26 iterations.

Dipole moment: (0.551056, -0.094591, -0.069427) |e|*Ang

Energy contributions relative to reference atoms: (reference = -24663.074771)

Kinetic:       +111.234828
Potential:     -105.784016
External:        +0.000000
XC:            -136.206946
Entropy (-ST):   -0.389026
Local:           +2.625952
Free energy:   -128.519208
Extrapolated:  -128.324695

Fermi level: -5.19268

 Band  Eigenvalues  Occupancy
    0    -28.80265    2.00000
    1    -24.77478    2.00000
    2    -23.55092    2.00000
    3    -22.94175    2.00000
    4    -20.68858    2.00000
    5    -19.82566    2.00000
    6    -19.03953    2.00000
    7    -18.76739    2.00000
    8    -17.79567    2.00000
    9    -17.62585    2.00000
   10    -16.18056    2.00000
   11    -15.82273    2.00000
   12    -15.68321    2.00000
   13    -15.55798    2.00000
   14    -14.19409    2.00000
   15    -13.98643    2.00000
   16    -13.88576    2.00000
   17    -13.73738    2.00000
   18    -12.81190    2.00000
   19    -12.37880    2.00000
   20    -12.03327    2.00000
   21    -11.47559    2.00000
   22    -10.96469    2.00000
   23    -10.82413    2.00000
   24    -10.35068    2.00000
   25     -9.86297    2.00000
   26     -9.63601    2.00000
   27     -9.32023    2.00000
   28     -8.96128    2.00000
   29     -8.68950    2.00000
   30     -8.19451    2.00000
   31     -8.10220    2.00000
   32     -7.86315    2.00000
   33     -7.70354    2.00000
   34     -7.36556    2.00000
   35     -7.27901    2.00000
   36     -6.76037    2.00000
   37     -6.72655    2.00000
   38     -6.57712    2.00000
   39     -6.41190    1.99999
   40     -6.35722    1.99998
   41     -6.07330    1.99970
   42     -6.04791    1.99961
   43     -5.79479    1.99516
   44     -5.71512    1.98929
   45     -5.57098    1.95550
   46     -5.42324    1.81867
   47     -5.28339    1.42480
   48     -5.13260    0.70834
   49     -4.89709    0.09892
   50     -4.65267    0.00899
   51     -4.41092    0.00080
   52     -4.26377    0.00018
   53     -4.15094    0.00006
   54     -3.73061    0.00000
   55     -3.67087    0.00000
   56     -3.37339    0.00000
   57     -3.21400    0.00000
   58     -3.02751    0.00000
   59     -2.87033    0.00000
[...]
   83      5.34418    0.00000
   84      5.87433    0.00000
   85      6.11194    0.00000
   86      6.72240    0.00000
   87      6.84719    0.00000
   88      7.35583    0.00000
   89      7.69945    0.00000
   90      8.05804    0.00000
   91      8.32214    0.00000
   92      8.40041    0.00000
   93      8.68961    0.00000
   94      8.73978    0.00000
   95      8.83463    0.00000
   96      9.12395    0.00000
   97      9.26766    0.00000

Forces in eV/Ang:
  0 C    -1.78347    9.30015   -2.42475
  1 C    -3.35414    0.84826    0.73911
  2 C    13.12079   -2.90440    6.49842
  3 C    11.97321  -10.47019   -4.40791
  4 C     7.44394    1.57271   -4.05320
  5 C    -4.56358    3.40591   -0.50447
  6 C     2.34649   -4.54084    1.64639
  7 C     0.67608    0.28345   -0.23412
  8 C     4.54700    1.23960    1.30119
  9 C    -5.85677  -11.11084   -4.50405
 10 C    -2.93164   -0.37434   -1.42542
 11 C     0.78716    0.18824    1.55091
 12 C    -2.30698   -0.65151    0.60352
 13 C    -0.25380    0.23758   -2.09778
 14 C    -9.58882    7.68125    2.17659
 15 C     0.04229    1.05990   -0.64260
 16 C   -16.30984   11.74501   -3.52478
 17 C     0.69083   -5.52172   -1.31304
 18 C     3.75674   -1.93321    1.01946
 19 C     4.42608    2.47207    2.13130
 20 C    -4.00707   -3.36739   -1.09322
 21 C     0.95782    0.90662    1.98727
 22 C    -2.39994   -4.33979    2.68497
 23 C     2.48961    4.30808    3.94946

System changes: positions

[...]

Density initialized from wave functions
  /        |            C     C                   |
 *         |   C  C      C                        |
 |         |     C   C C CC     C  C              |
 |         .--C-C------C-----C--------------------.
 |        /      C  C  C C                       /
 |       /      C           C                   /
 |      /          C                           /

[...]

[...]
  /        |       C  C    C   C                  |
 *         |     C       C        C               |
 |         |   C         C          C             |
 |         .--C-------------C--C------------------.
 |        /  C     C  C CC                       /
 |       /   C  C                               /
 |      /    C         C                       /

[...]

Density initialized from wave functions
   /       |             C                        |
  /        |       C  C    C   C                  |
 *         |     C       C        C C             |
 |         |   C                                  |
 |         .--C----------C--C--C------------------.
 |        /  C     C  C CC                       /
 |       /   C  C                               /
 |      /    C         C                       /

[...]

Density initialized from wave functions
   /       |             C                        |
  /        |       C  C    C   C                  |
 *         |     C       C        C C             |
 |         |   C                                  |
 |         .--C----------C--C--C------------------.
 |        /  C     C  C CC                       /
 |       /   C  C                               /
 |      /    C         C                       /

[...]

Density initialized from wave functions
   /       |             C                        |
  /        |       C  C     C  C                  |
 *         |     C       C        C  C            |
 |         |   C                                  |
 |         .--C----------C--C--C------------------.
 |        /  C     C  C CC                       /
 |       /   C  C       C                       /
 |      /    C         C                       /

[...]

Density initialized from wave functions
   /       |             C                        |
  /        |       C  C     C  C                  |
 *         |     C       C        C  C            |
 |         |   C                                  |
 |         .--C----------C--C--C------------------.
 |        /  C     C  C CC                       /
 |       /   C  C       C                       /
 |      /    C         C                       /

[...]

Density initialized from wave functions
   /       |             C                        |
  /        |          C     C  C                  |
 *         |     C C     C        C  C            |
 |         |   C               C                  |
 |         .--C----------C--C---------------------.
 |        /  C     C  C CC                       /
 |       /   C  C       C                       /
 |      /   C          C                       /

[...]

Density initialized from wave functions
   /       |             C                        |
  /        |          C     C  C                  |
 *         |     C C     C        C  C            |
 |         |   C               C                  |
 |         .--C----------C--C---------------------.
 |        /  C     C  C CC                       /
 |       /   C  C       C                       /
 |      /   C          C                       /

[...]

Density initialized from wave functions
   /       |             C                        |
  /        |          C     C  C                  |
 *         |     C C     C        C  C            |
 |         |   C               C                  |
 |         .-C-----------C--C---------------------.
 |        /  C     C  C CC                       /
 |       /   C  C       C                       /
 |      /   C          C                       /

[...]

Density initialized from wave functions
   /       |             C                        |
  /        |          C     C  C                  |
 *         |     C C     C        C  C            |
 |         |   C               C                  |
 |         .-C-----------C--C---------------------.
 |        /  C     C  C CC                       /
 |       /   C  C       C                       /
 |      /   C          C                       /

[...]

Density initialized from wave functions
   /       |             C                        |
  /        |          C     C  C                  |
 *         |     C C     C        C  C            |
 |         |   C               C                  |
 |         .-C-----------C--C---------------------.
 |        /  C        C CC                       /
 |       /  CC  C  C    C                       /
 |      /              C                       /

[...]

Density initialized from wave functions
   /       |             C                        |
  /        |          C     C  C                  |
 *         |     C C     C        C  C            |
 |         |   C              C                   |
 |         .-C-----------C--C---------------------.
 |        / C         C CC                       /
 |       /  CC  C  C    C                       /
 |      /               C                      /

[...]

Density initialized from wave functions
   /       |             C                        |
  /        |          C     C  C                  |
 *         |     C C     C        C  C            |
 |         |   C              C                   |
 |         .-C-----------C--C---------------------.
 |        / C         C  C                       /
 |       /  CC  C  C    C                       /
 |      /               C                      /

[...]

Density initialized from wave functions
   /       |             C                        |
  /        |          C     C  C                  |
 *         |     C C     C        C  C            |
 |         |   C              C                   |
 |         .-C-----------C--C---------------------.
 |        / C         C  C                       /
 |       /  CC C   C    C                       /
 |      /               C                      /

[...]

Density initialized from wave functions
   /       |             C                        |
  /        |           C    C  C                  |
 *         |       C              C  C            |
 |         |  C  C       C    C                   |
 |         .-C-----------C--C---------------------.
 |        / C         C  C                       /
 |       /  CC C   C    C                       /
 |      /               C                      /

[...]

Density initialized from wave functions
   /       |             C                        |
  /        |           C    C  C                  |
 *         |       C              C  C            |
 |         |  C  C       C    C                   |
 |         .-C-----------C--C---------------------.
 |        / C         C  C                       /
 |       /  C  C   C    C                       /
 |      /               C                      /

[...]

Density initialized from wave functions
   /       |             C                        |
  /        |           C    C  C                  |
 *         |       C              C  C            |
 |         |  C  C       C    C                   |
 |         .-C------------C-C---------------------.
 |        / C         C  C                       /
 |       /  C  C   C    C                       /
 |      /               C                      /

[...]

Density initialized from wave functions
   /       |             C                        |
  /        |           C    C  C  C               |
 *         |       C                 C            |
 |         |  C  C       C    C                   |
 |         .-C------------C-C---------------------.
 |        / C         C  C                       /
 |       /  C  C   C    C                       /
 |      /               C                      /

[...]

Density initialized from wave functions
   /       |             C                        |
  /        |           C    C  C  C               |
 *         |       C                 C            |
 |         |  C  C       C    C                   |
 |         .-C------------C-C---------------------.
 |        / C         C  C                       /
 |       /  C  C   C    C                       /
 |      /               C                      /

[...]

Density initialized from wave functions
   /       |             C                        |
  /        |           C    C  C  C               |
 *         |       C                 C            |
 |         |  C  C       C    C                   |
 |         .-C------------CC----------------------.
 |        / C         C  C                       /
 |       /  C  C   C    C                       /
 |      /               C                      /

[...]

Density initialized from wave functions
   /       |             C                        |
  /        |           C    C  C  C               |
 *         |       C                 C            |
 |         |  C  C        C   C                   |
 |         .-C------------CC----------------------.
 |        / C        C   C                       /
 |       /  C  C   C     C                      /
 |      /               C                      /

[...]

Density initialized from wave functions
   /       |             C                        |
  /        |                C  C  C               |
 *         |       C   C             C            |
 |         |  C  C        C   C                   |
 |         .-C------------CC----------------------.
 |        / C        C   C                       /
 |       /  C  C   C     C                      /
 |      /               C                      /

[...]

Density initialized from wave functions
   /       |             C                        |
  /        |                C  C  C               |
 *         |        C  C              C           |
 |         |  C  C        C   C                   |
 |         .-C------------CC----------------------.
 |        / C        C   C                       /
 |       /  C  C  C      C                      /
 |      /               C                      /

[...]

Density initialized from wave functions
   /       |             C                        |
  /        |                C  C  C               |
 *         |        C  C              C           |
 |         |  C  C        C   C                   |
 |         .-C------------CC----------------------.
 |        / C        C  CC                       /
 |       /  C  C  C      C                      /
 |      /               C                      /

[...]

System changes: positions

Initializing position-dependent things.

Density initialized from wave functions
   /       |             C                        |
  /        |                C  C  C               |
 *         |        C  C              C           |
 |         |  C  C        C   C                   |
 |         .-C------------CC----------------------.
 |        / C        C  CC                       /
 |       /  C  C  C     C                       /
 |      /               C                      /

Positions:
   0 C      8.333980   10.900817    4.923767
   1 C      7.282090    4.079977    5.049516
   2 C      8.142023    8.484774    3.897957
   3 C      8.336912    4.997923    4.828510
   4 C      5.271152    9.210171    5.283902
   5 C     11.853554   12.330282    3.893550
   6 C      7.256735   10.854158    5.944234
   7 C     10.436986    5.389461    6.458227
   8 C      7.668743    9.653522    4.420481
   9 C      7.990417    6.222151    2.376154
  10 C      3.905172    2.026871    5.547541
  11 C      3.604634    3.429915    5.376484
  12 C      9.411639    5.181478    5.688287
  13 C      3.206991    4.672130    5.265533
  14 C      8.145907    5.794558    3.639891
  15 C      5.018785    2.824218    5.374138
  16 C      6.417692    9.929613    5.180838
  17 C      9.489055   11.498024    4.652875
  18 C      6.255703    3.375809    5.202227
  19 C      3.273688    5.977365    5.229108
  20 C      3.657297    7.202765    5.212919
  21 C     10.633065   12.011901    4.296186
  22 C      4.368932    8.313147    5.220798
  23 C      8.072678    7.338847    3.311884

Unit cell:
           periodic     x           y           z      points  spacing
  1. axis:    yes   16.000000    0.000000    0.000000    80     0.2000
  2. axis:    yes    0.000000   16.000000    0.000000    80     0.2000
  3. axis:    yes    0.000000    0.000000   10.000000    48     0.2083

Effective grid spacing dv^(1/3) = 0.2027

                     log10-error:    total        iterations:
           time      wfs    density  energy       fermi  poisson
iter:   1  14:36:54          +inf  -175.347272    2      5
iter:   2  14:36:54         -2.87  -175.346660    2      1
iter:   3  14:36:55         -2.99  -175.346678    2      1
iter:   4  14:36:55         -3.14  -175.345977    2      1
iter:   5  14:36:56         -3.33  -175.346248    2      1
iter:   6  14:36:56         -3.52  -175.347108    1      1
iter:   7  14:36:57         -3.64  -175.346822    2      1
iter:   8  14:36:57         -3.76  -175.346972    2      1
iter:   9  14:36:57         -3.97  -175.347220    2      1
iter:  10  14:36:58         -4.04  -175.347199    2      1

Converged after 10 iterations.

Dipole moment: (-1.584777, -0.057572, -0.270508) |e|*Ang

Energy contributions relative to reference atoms: (reference = -24663.074771)

Kinetic:       +104.064398
Potential:     -115.433366
External:        +0.000000
XC:            -166.887267
Entropy (-ST):   -0.140874
Local:           +2.979473
Free energy:   -175.417636
Extrapolated:  -175.347199

Fermi level: -4.93365

 Band  Eigenvalues  Occupancy
    0    -23.29900    2.00000
    1    -23.29210    2.00000
    2    -22.93390    2.00000
    3    -21.03498    2.00000
    4    -20.89862    2.00000
    5    -20.27490    2.00000
    6    -19.88518    2.00000
    7    -19.51297    2.00000
    8    -19.15662    2.00000
    9    -18.84142    2.00000
   10    -18.04578    2.00000
   11    -17.33180    2.00000
   12    -17.10674    2.00000
   13    -16.50810    2.00000
   14    -16.29649    2.00000
   15    -15.91088    2.00000
   16    -15.14525    2.00000
   17    -14.30865    2.00000
   18    -14.23539    2.00000
   19    -13.64106    2.00000
   20    -12.68518    2.00000
   21    -11.65246    2.00000
   22    -11.24755    2.00000
   23    -11.20053    2.00000
   24    -11.02988    2.00000
   25    -10.54252    2.00000
   26    -10.46987    2.00000
   27    -10.44635    2.00000
   28    -10.07507    2.00000
   29     -9.57164    2.00000
   30     -9.38585    2.00000
   31     -9.32820    2.00000
   32     -8.81813    2.00000
   33     -8.48355    2.00000
   34     -8.14710    2.00000
   35     -8.03563    2.00000
   36     -7.67688    2.00000
   37     -7.45040    2.00000
   38     -7.04576    2.00000
   39     -6.76451    2.00000
   40     -6.21228    1.99999
   41     -6.19223    1.99999
   42     -5.97690    1.99994
   43     -5.85774    1.99981
   44     -5.61813    1.99787
   45     -5.48970    1.99234
   46     -5.31996    1.95886
   47     -5.20046    1.87023
   48     -4.69436    0.16743
   49     -4.43277    0.01327
   50     -4.02742    0.00023
   51     -3.83429    0.00003
   52     -3.22612    0.00000
   53     -2.86802    0.00000
   54     -1.98462    0.00000
   55     -1.81688    0.00000
   56     -1.20407    0.00000
   57     -1.04047    0.00000
   58     -0.31824    0.00000
   59     -0.20092    0.00000
[...]
   83      7.59967    0.00000
   84      7.80180    0.00000
   85      8.17337    0.00000
   86      8.33215    0.00000
   87      8.37270    0.00000
   88      8.57106    0.00000
   89      8.67044    0.00000
   90      8.75351    0.00000
   91      8.90035    0.00000
   92      8.96411    0.00000
   93      9.17736    0.00000
   94      9.21781    0.00000
   95      9.39079    0.00000
   96      9.45268    0.00000
   97      9.54277    0.00000

Forces in eV/Ang:
  0 C    -0.00728   -0.01324    0.01663
  1 C    -0.01170    0.01123   -0.02620
  2 C    -0.02428    0.00493   -0.00697
  3 C    -0.04022   -0.02541    0.03109
  4 C    -0.05500   -0.01331   -0.00152
  5 C    -0.05084    0.07094   -0.00181
  6 C    -0.01175    0.03413   -0.01310
  7 C    -0.02341   -0.00183    0.01235
  8 C     0.00603    0.05054    0.01271
  9 C    -0.02651   -0.01049    0.00349
 10 C    -0.01794   -0.01538   -0.01480
 11 C     0.05524   -0.02116    0.00637
 12 C     0.03407    0.00145    0.03373
 13 C    -0.01750    0.02835   -0.02571
 14 C     0.04771    0.00813   -0.00538
 15 C     0.02314   -0.02161    0.00338
 16 C     0.01830   -0.02515    0.00013
 17 C     0.09574   -0.00679    0.00033
 18 C    -0.01233    0.00784   -0.02864
 19 C     0.01166   -0.04623    0.02777
 20 C     0.04493    0.00267   -0.02050
 21 C     0.03231   -0.02988   -0.02948
 22 C     0.01898    0.03795    0.00591
 23 C    -0.01016   -0.01600    0.01822