User:   esb@s65n33.grendel.cscaa.dk
Date:   Thu Nov  9 09:23:28 2017
Arch:   x86_64
Pid:    73700
Python: 2.7.13
gpaw:   /home/esb/DFT/gpaw_git/gpaw
_gpaw:  /home/esb/DFT/gpaw_git/build/bin.linux-x86_64-2.7/gpaw-python
ase:    /home/esb/DFT/ase_git/ase (version 3.15.0b1)
numpy:  /comm/swstack/core/python/2.7.13/lib/python2.7/site-packages/numpy (version 1.13.3)
scipy:  /comm/swstack/core/python/2.7.13/lib/python2.7/site-packages/scipy (version 0.19.1)
units:  Angstrom and eV
cores:  16
Extra parameters: {'blacs': True}

Input parameters:
  basis: dzp
  gpts: [80 80 48]
  kpts: [1 1 1]
  maxiter: 99
  mixer: {backend: pulay,
          beta: 0.05,
          method: separate,
          nmaxold: 5,
          weight: 75}
  mode: lcao
  nbands: -50
  occupations: {name: fermi-dirac,
                width: 0.1}
  poissonsolver: {eps: 1e-07,
                  name: fd,
                  nn: 3,
                  relax: GS}
  xc: PBE

System changes: positions, numbers, cell, pbc, initial_charges, initial_magmoms

Initialize ...

C-setup:
  name: Carbon
  id: 4aa54d4b901d75f77cc0ea3eec22967b
  Z: 6
  valence: 4
  core: 2
  charge: 0.0
  file: /home/esb/DFT/gpaw-setups-0.8.7929/C.PBE.gz
  cutoffs: 0.64(comp), 1.14(filt), 1.14(core), lmax=2
  valence states:
                energy  radius
    2s(2.00)   -13.751   0.635
    2p(2.00)    -5.284   0.635
    *s          13.461   0.635
    *p          21.927   0.635
    *d           0.000   0.635

  LCAO basis set for C:
    Name: dzp
    File: /home/esb/DFT/gpaw-setups-0.8.7929/C.dzp.basis.gz
    Number of radial functions: 5
    Number of spherical harmonics: 13
      l=0, rc=5.5469 Bohr: 2s-sz confined orbital
      l=1, rc=6.6719 Bohr: 2p-sz confined orbital
      l=0, rc=3.0312 Bohr: 2s-dz split-valence wave
      l=1, rc=3.7500 Bohr: 2p-dz split-valence wave
      l=2, rc=6.6719 Bohr: d-type Gaussian polarization

Reference energy: -24663.074771

Spin-paired calculation

Occupation numbers:
  Fermi-Dirac: width=0.1000 eV

Convergence criteria:
  Maximum total energy change: 0.0005 eV / electron
  Maximum integral of absolute density change: 0.0001 electrons
  Maximum integral of absolute eigenstate change: 4e-08 eV^2
  Maximum number of iterations: 99

Symmetries present (total): 1

  ( 1  0  0)
  ( 0  1  0)
  ( 0  0  1)

1 k-point (Gamma)
1 k-point in the irreducible part of the Brillouin zone
       k-points in crystal coordinates                weights
   0:     0.00000000    0.00000000    0.00000000          1/1

Wave functions: LCAO
  Diagonalizer: Serial LAPACK
  Atomic Correction: dense with blas
  Datatype: float
  Eigensolver: None

LCAO using direct dense diagonalizer

Densities:
  Coarse grid: 80*80*48 grid
  Fine grid: 160*160*96 grid
  Total Charge: 0.000000

Density mixing:
  Method: separate
  Backend: pulay
  Linear mixing parameter: 0.05
  Mixing with 5 old densities
  Damping of long wave oscillations: 75

Hamiltonian:
  XC and Coulomb potentials evaluated on a 160*160*96 grid
  Using the PBE Exchange-Correlation functional
  Interpolation: tri-quintic (5. degree polynomial)
  Poisson solver: Gauss-Seidel solver with 6 multi-grid levels
    Coarsest grid: 5 x 5 x 3 points
    Stencil: 6*3+1=19 point O(h^6) finite-difference Laplacian
    Max iterations: 1000
    Tolerance: 1.000000e-07

Total number of cores used: 16
Domain decomposition: 2 x 4 x 2

Number of atoms: 24
Number of atomic orbitals: 312
Number of bands in calculation: 98
Bands to converge: occupied states only
Number of valence electrons: 96

... initialized

Initializing position-dependent things.

Density initialized from atomic densities
 *         |            C  C  C     C             |
 |         |           C  C  C     CC             |
 |         .----------C-------------C-------------.
 |        /          C C  C        C             /
 |       /            C      C  C  C            /
 |      /               C                      /
 |     /                   C  C  C            /

Positions:
   0 C     10.326239    4.697679    4.424449
   1 C     11.425509    5.289479    4.168808
   2 C     12.278066    6.317925    4.102286
   3 C      9.033694    4.786502    4.767627
   4 C     12.554190    7.559694    4.178454
   5 C      7.874849    5.166840    5.119855
   6 C     12.289500    8.842986    4.473229
   7 C      7.148149    6.293262    5.449731
   8 C      8.439173    8.608807    5.663306
   9 C     11.647281    9.898995    4.757997
  10 C      9.431624    9.343821    5.470936
  11 C      7.444835    7.668125    5.675657
  12 C      9.144583    5.752442    1.735882
  13 C     10.246901    6.341522    1.487177
  14 C     11.161637    7.314466    1.562127
  15 C      8.021539    5.689965    2.464720
  16 C     11.626760    8.387532    2.068316
  17 C      7.062574    5.891888    3.271723
  18 C     11.574154    9.481514    2.845635
  19 C      6.617398    6.767018    4.242138
  20 C      7.991572    9.008341    4.644902
  21 C     11.200638   10.297674    3.741772
  22 C      9.013084    9.717417    4.518650
  23 C      7.033535    8.035257    4.739845

Unit cell:
           periodic     x           y           z      points  spacing
  1. axis:    yes   16.000000    0.000000    0.000000    80     0.2000
  2. axis:    yes    0.000000   16.000000    0.000000    80     0.2000
  3. axis:    yes    0.000000    0.000000   10.000000    48     0.2083

Effective grid spacing dv^(1/3) = 0.2027

                     log10-error:    total        iterations:
           time      wfs    density  energy       fermi  poisson
iter:   1  09:23:30          +inf  -160.861001    3      6
iter:   2  09:23:31         -0.86  -159.108861    34     3
iter:   3  09:23:32         -0.90  -156.442060    34     3
iter:   4  09:23:33         -0.98  -153.205994    32     4
iter:   5  09:23:33         -1.31  -152.948498    3      3
iter:   6  09:23:34         -1.44  -152.955505    32     3
iter:   7  09:23:35         -1.53  -152.839573    4      3
iter:   8  09:23:36         -1.71  -152.817567    3      3
iter:   9  09:23:36         -1.96  -152.787251    3      2
iter:  10  09:23:37         -2.18  -152.778932    3      2
iter:  11  09:23:38         -2.36  -152.774289    2      2
iter:  12  09:23:39         -2.44  -152.768804    2      2
iter:  13  09:23:39         -2.68  -152.768651    2      2
iter:  14  09:23:40         -2.84  -152.784872    2      1
iter:  15  09:23:41         -2.94  -152.779520    2      1
iter:  16  09:23:41         -3.02  -152.780651    2      1
iter:  17  09:23:42         -3.13  -152.767921    2      2
iter:  18  09:23:43         -3.47  -152.768958    2      1
iter:  19  09:23:44         -3.64  -152.767693    2      1
iter:  20  09:23:44         -3.71  -152.768839    2      1
iter:  21  09:23:45         -3.80  -152.768637    2      1
iter:  22  09:23:46         -3.91  -152.766082    2      1
iter:  23  09:23:46         -3.95  -152.765793    2      1
iter:  24  09:23:47         -4.02  -152.765415    2      1

Converged after 24 iterations.

Dipole moment: (-0.146050, 0.029555, -0.268487) |e|*Ang

Energy contributions relative to reference atoms: (reference = -24663.074771)

Kinetic:       +301.285674
Potential:     -248.337138
External:        +0.000000
XC:            -208.803985
Entropy (-ST):   -0.286418
Local:           +3.233244
Free energy:   -152.908624
Extrapolated:  -152.765415

Fermi level: -3.82429

 Band  Eigenvalues  Occupancy
    0    -28.79973    2.00000
    1    -25.82786    2.00000
    2    -23.83346    2.00000
    3    -22.27022    2.00000
    4    -20.37964    2.00000
    5    -19.96097    2.00000
    6    -19.77224    2.00000
    7    -19.15090    2.00000
    8    -18.86190    2.00000
    9    -18.21723    2.00000
   10    -17.37173    2.00000
   11    -17.10016    2.00000
   12    -16.36069    2.00000
   13    -16.25750    2.00000
   14    -15.57453    2.00000
   15    -14.79534    2.00000
   16    -14.75428    2.00000
   17    -14.47505    2.00000
   18    -13.79869    2.00000
   19    -13.62650    2.00000
   20    -13.21608    2.00000
   21    -13.01102    2.00000
   22    -12.60386    2.00000
   23    -12.43190    2.00000
   24    -11.80232    2.00000
   25    -10.89032    2.00000
   26    -10.54581    2.00000
   27    -10.42255    2.00000
   28    -10.18242    2.00000
   29     -9.77300    2.00000
   30     -9.63463    2.00000
   31     -9.10454    2.00000
   32     -8.72254    2.00000
   33     -8.68149    2.00000
   34     -8.26573    2.00000
   35     -7.90900    2.00000
   36     -7.84043    2.00000
   37     -7.64087    2.00000
   38     -6.87866    2.00000
   39     -6.38292    2.00000
   40     -6.28781    2.00000
   41     -6.21666    2.00000
   42     -5.38519    2.00000
   43     -5.10788    1.99999
   44     -4.97053    1.99998
   45     -4.46672    1.99676
   46     -4.34114    1.98868
   47     -3.86894    1.21962
   48     -3.77929    0.77873
   49     -3.34262    0.01606
   50     -2.88762    0.00017
   51     -2.57097    0.00001
   52     -2.26098    0.00000
   53     -1.86366    0.00000
   54     -1.85488    0.00000
   55     -1.31267    0.00000
   56     -1.02453    0.00000
   57     -0.42738    0.00000
   58     -0.10434    0.00000
   59     -0.05550    0.00000
[...]
   83      8.90058    0.00000
   84      9.06741    0.00000
   85      9.13543    0.00000
   86      9.37651    0.00000
   87      9.45022    0.00000
   88      9.46034    0.00000
   89      9.70800    0.00000
   90      9.85613    0.00000
   91      9.88761    0.00000
   92      9.90879    0.00000
   93      9.99384    0.00000
   94     10.08065    0.00000
   95     10.25089    0.00000
   96     10.57593    0.00000
   97     10.82691    0.00000

Forces in eV/Ang:
  0 C    -1.52357   -0.52224    0.35017
  1 C     1.47410    1.29490    0.01539
  2 C    -0.73343   -2.15503    0.16940
  3 C     1.89662   -0.75231    0.91921
  4 C     0.16550    2.38538    2.46482
  5 C     1.04104   -0.76106    2.24985
  6 C     5.48938   -7.64374    1.25747
  7 C    -0.22378   -3.81164    2.53974
  8 C     0.89781  -12.98912   24.42625
  9 C     3.58408   -3.06937   19.18814
 10 C    24.03623   -2.31890   24.86625
 11 C    13.84689  -14.29658   35.14070
 12 C    -1.43185   -0.58551    0.48564
 13 C     1.37634    1.37799   -0.21922
 14 C    -1.15229   -1.72830   -0.84460
 15 C     0.53916    0.44138   -2.09597
 16 C    -0.88643    3.33957    0.10528
 17 C    -0.96257    0.98950   -2.18573
 18 C     1.14049   -3.75966   -8.63757
 19 C    -2.79664   -1.50746   -3.27177
 20 C   -18.62664    4.43155  -19.95024
 21 C   -10.73937    9.73209  -13.45619
 22 C     0.34475   18.86247  -29.06842
 23 C   -16.74434   12.94426  -34.42335

System changes: positions

[...]

Density initialized from wave functions
 *         |            C  C  C     C             |
 |         |           C  C  C     CC             |
 |         .----------C-------------C-------------.
 |        /          C C  C        C             /
 |       /            C      C  C  C            /
 |      /               C                      /
 |     /                   C  C  C            /

[...]

Density initialized from wave functions
 *         |            C  C  C     C             |
[...]
 |      /              C         C             /
 |     /                C       C             /
 |    /                   C  C               /

[...]

Density initialized from wave functions
  /        |               C   C                  |
 *         |            C     C   C               |
 |         |           C  C        CC             |
 |         .------------CC-------C-C--------------.
 |        /           C    C  C  C               /
 |      /              C         C             /
 |     /                C       C             /
 |    /                   C  C               /

[...]

Density initialized from wave functions
  /        |               C   C                  |
 *         |            C         C               |
 |         |           C  C   C    CC             |
 |         .------------CC-------C-C--------------.
 |        /           C    C  C  C               /
 |      /              C         C             /
 |     /                C       C             /
 |    /                   C  C               /

[...]

Density initialized from wave functions
  /        |               C   C                  |
 *         |            C         C               |
 |         |           C  C   C    CC             |
 |         .------------CC-------C-C--------------.
 |        /           C    C  C  C               /
 |      /              C         C             /
 |     /                C       C             /
 |    /                   C                  /
 |   /                       C              /

[...]

Density initialized from wave functions
  /        |               C   C                  |
 *         |            C         C               |
 |         |           C  C   C    CC             |
 |         .------------CC-------C-C--------------.
 |        /           C    C  C  C               /
 |      /              C         C             /
 |     /                C       C             /
 |    /                   C                  /
 |   /                       C              /

[...]

Density initialized from wave functions
  /        |               C   C                  |
 *         |            C         C               |
 |         |           C  C   C     C             |
 |         .------------CC-------C-C--------------.
 |        /           C    C  C  C               /
 |      /              C         C             /
 |     /                C                     /
 |    /                   C     C            /
 |   /                       C              /

[...]

Density initialized from wave functions
  /        |               C   C                  |
 *         |            C         C               |
 |         |           C  C   C     C             |
 |         .------------CC-------C-C--------------.
 |        /            C   C  C  C               /
 |      /              C         C             /
 |     /                C                     /
 |    /                   C    C             /
 |   /                       C              /

[...]

Density initialized from wave functions
  /        |               C   C                  |
 *         |            C         C               |
 |         |           C  C   C     C             |
 |         .------------CC-C-----C--C-------------.
 |        /            C      C  C               /
 |      /              C         C             /
 |     /                C                     /
 |    /                   C    C             /
 |   /                       C              /

[...]

Density initialized from wave functions
  /        |               C   C                  |
 *         |             C        C               |
 |         |           C  C   C     CC            |
 |         .------------CC-C-----C--C-------------.
 |        /            C      C  C               /
 |      /              C         C             /
 |     /                C                     /
 |    /                   C    C             /
 |   /                       C              /

[...]

Density initialized from wave functions
  /        |               C   C                  |
 *         |             C        C               |
 |         |           C  C   C     CC            |
 |         .------------CC-C-----C--C-------------.
 |        /            C      C  C               /
 |      /              C         C             /
 |     /                C                     /
 |    /                   C    C             /
 |   /                       C              /

[...]

Density initialized from wave functions
     /     |                 C                    |
  /        |               C   C                  |
 *         |             C        C               |
 |         |           C  C   C     CC            |
 |         .------------CC-C-----C--C-------------.
 |        /            C      C  C               /
 |      /              C         C             /
 |     /                C                     /
 |    /                   C    C             /

[...]

Density initialized from wave functions
     /     |                 C                    |
  /        |               C   C                  |
 *         |             C        C               |
 |         |            C C   C     CC            |
 |         .------------CC-C--C--C--C-------------.
 |        /            C         C               /
 |      /              C         C             /
 |     /                C                     /
 |    /                   C    C             /

[...]

Density initialized from wave functions
     /     |                C                     |
  /        |               C   C                  |
 *         |             C        C               |
 |         |            C C   C     CC            |
 |         .------------CC-C--C--C--C-------------.
 |        /            C         C               /
 |      /              C         C             /
 |     /               C                      /
 |    /                   C    C             /

[...]

Density initialized from wave functions
     /     |                C                     |
  /        |               C                      |
 *         |             C     C  C               |
 |         |            C C   C     CC            |
 |         .------------CC-C--C--C--C-------------.
 |        /            C         C               /
 |      /              C         C             /
 |     /               C                      /
 |    /                   C    C             /

[...]

Density initialized from wave functions
     /     |                C                     |
  /        |               C                      |
 *         |             C     C  C               |
 |         |            C C   C     CC            |
 |         .------------CC-C--C--C----------------.
 |        /            C         C               /
 |      /              C         C             /
 |     /               C                      /
 |    /                  C     C             /

[...]

Density initialized from wave functions
     /     |                C                     |
  /        |                C                     |
 *         |             C     C                  |
 |         |            C C   C   C CC            |
 |         .------------CC-C--C--C----------------.
 |        /            C         C               /
 |      /              C         C             /
 |     /               C                      /
 |    /                        C             /
 |   /                   C                  /

[...]

Density initialized from wave functions
     /     |                C                     |
  /        |                C                     |
 *         |             C     C                  |
 |         |            C C   C   C C             |
 |         .------------CC-C--C--C----------------.
 |        /            C         C               /
 |      /              C         C             /
 |     /               C                      /
 |    /                        C             /
 |   /                   C                  /

[...]

Density initialized from wave functions
     /     |                C                     |
  /        |                C                     |
 *         |             C     C                  |
 |         |            C C   C   C C             |
 |         .------------CC-C--C--C----------------.
 |        /            C         C               /
 |      /              C         C             /
 |     /               C                      /
 |    /                        C             /
 |   /                   C                  /

[...]

Density initialized from wave functions
     /     |                C                     |
  /        |                C                     |
 *         |             C     C                  |
 |         |              C   C   C C             |
 |         .------------CC-C--C--C----------------.
 |        /            C         C               /
 |      /              C         C             /
 |     /               C                      /
 |    /                        C             /
 |   /                   C                  /

[...]

Density initialized from wave functions
     /     |                C                     |
  /        |                C                     |
 *         |             C     C                  |
 |         |              C   C   C C             |
 |         .------------CC-C--C--C----------------.
 |        /            C                         /
 |       /                       C              /
 |      /              C         C             /
 |     /               C                      /
 |    /                        C             /
 |   /                   C                  /

[...]

Density initialized from wave functions
      /    |                C                     |
  /        |                C                     |
 *         |             C     C                  |
 |         |              C   C   C C             |
 |         .------------CC-C--C--C----------------.
 |        /            C                         /
 |       /                        C             /
 |      /              C         C             /
 |     /               C                      /
 |    /                        C             /
 |   /                   C                  /

[...]

System changes: positions

Initializing position-dependent things.

Density initialized from wave functions
      /    |                C                     |
  /        |                C                     |
 *         |             C     C                  |
 |         |              C   C   C C             |
 |         .------------CC-C--C--C----------------.
 |        /            C          C              /
 |      /              C         C             /
 |     /               C                      /
 |    /                        C             /
 |   /                   C                  /

Positions:
   0 C     10.831326    4.197048    6.158153
   1 C     11.953009    4.862726    6.152629
   2 C     12.812668    5.807365    5.880039
   3 C      9.557277    4.523861    5.958963
   4 C     12.691639    7.088661    5.549041
   5 C      8.494381    5.116561    5.570490
   6 C     12.246313    8.202567    5.107393
   7 C      7.746610    6.215988    5.225624
   8 C      8.660700    8.772063    5.875417
   9 C     11.238754    9.088049    4.810346
  10 C      9.929085    9.344060    5.493956
  11 C      7.807611    7.616001    5.752814
  12 C      8.231045    6.545475    0.271668
  13 C      9.203755    7.348027   -0.066277
  14 C     10.208157    8.175959    0.039229
  15 C      7.584107    6.334058    1.416209
  16 C     10.678040    8.897538    1.054212
  17 C      7.231782    6.290521    2.643585
  18 C     10.940324    9.372415    2.210651
  19 C      7.189078    6.727239    3.947989
  20 C      8.068214    9.303727    4.548863
  21 C     10.666022    9.602430    3.539924
  22 C      9.363350    9.854113    4.232608
  23 C      7.245216    8.122976    4.485097

Unit cell:
           periodic     x           y           z      points  spacing
  1. axis:    yes   16.000000    0.000000    0.000000    80     0.2000
  2. axis:    yes    0.000000   16.000000    0.000000    80     0.2000
  3. axis:    yes    0.000000    0.000000   10.000000    48     0.2083

Effective grid spacing dv^(1/3) = 0.2027

                     log10-error:    total        iterations:
           time      wfs    density  energy       fermi  poisson
iter:   1  09:39:41          +inf  -180.565043    2      4
iter:   2  09:39:42         -3.26  -180.564936    2      1
iter:   3  09:39:43         -3.36  -180.564813    2      1
iter:   4  09:39:43         -3.58  -180.564818    2      1
iter:   5  09:39:44         -3.70  -180.564862    1      1
iter:   6  09:39:44         -3.88  -180.564856    2      1
iter:   7  09:39:45         -3.96  -180.564873    2      1
iter:   8  09:39:45         -4.30  -180.564857    2      1

Converged after 8 iterations.

Dipole moment: (-0.038590, 0.044772, -16.226493) |e|*Ang

Energy contributions relative to reference atoms: (reference = -24663.074771)

Kinetic:       +102.111347
Potential:     -109.794026
External:        +0.000000
XC:            -175.804237
Entropy (-ST):   -0.275786
Local:           +3.059952
Free energy:   -180.702750
Extrapolated:  -180.564857

Fermi level: -4.20543

 Band  Eigenvalues  Occupancy
    0    -23.72590    2.00000
    1    -22.36723    2.00000
    2    -20.73385    2.00000
    3    -20.50683    2.00000
    4    -20.24560    2.00000
    5    -19.73844    2.00000
    6    -19.67618    2.00000
    7    -18.90523    2.00000
    8    -18.23946    2.00000
    9    -18.23508    2.00000
   10    -17.91093    2.00000
   11    -16.84346    2.00000
   12    -16.56649    2.00000
   13    -15.75977    2.00000
   14    -15.68368    2.00000
   15    -15.67668    2.00000
   16    -14.22168    2.00000
   17    -13.96444    2.00000
   18    -13.91321    2.00000
   19    -13.43344    2.00000
   20    -12.69487    2.00000
   21    -12.57559    2.00000
   22    -11.50953    2.00000
   23    -10.95770    2.00000
   24    -10.85461    2.00000
   25    -10.61701    2.00000
   26     -9.76052    2.00000
   27     -9.74511    2.00000
   28     -9.50556    2.00000
   29     -9.07471    2.00000
   30     -9.04759    2.00000
   31     -8.96469    2.00000
   32     -8.90821    2.00000
   33     -8.08634    2.00000
   34     -7.81486    2.00000
   35     -7.73003    2.00000
   36     -7.65159    2.00000
   37     -7.50212    2.00000
   38     -7.40856    2.00000
   39     -7.24955    2.00000
   40     -6.93451    2.00000
   41     -6.28484    2.00000
   42     -5.54820    2.00000
   43     -5.39827    1.99999
   44     -5.26379    1.99995
   45     -5.13227    1.99981
   46     -5.05440    1.99959
   47     -4.22626    1.10375
   48     -4.18474    0.89692
   49     -2.86261    0.00000
   50     -2.73121    0.00000
   51     -2.59516    0.00000
   52     -2.31806    0.00000
   53     -1.52779    0.00000
   54     -1.29028    0.00000
   55     -1.10253    0.00000
   56     -0.86801    0.00000
   57     -0.53171    0.00000
   58     -0.35613    0.00000
   59     -0.08739    0.00000
[...]
   83      8.85032    0.00000
   84      8.91963    0.00000
   85      8.98702    0.00000
   86      9.18365    0.00000
   87      9.23367    0.00000
   88      9.44947    0.00000
   89      9.50549    0.00000
   90      9.56557    0.00000
   91      9.75805    0.00000
   92      9.78896    0.00000
   93     10.05412    0.00000
   94     10.14463    0.00000
   95     10.20865    0.00000
   96     10.25095    0.00000
   97     10.29618    0.00000

Forces in eV/Ang:
  0 C    -0.01724   -0.01670    0.00158
  1 C    -0.01141   -0.00915    0.00260
  2 C     0.02020   -0.00429    0.07337
  3 C     0.05112   -0.00916   -0.04444
  4 C    -0.01254    0.00823   -0.02712
  5 C    -0.04244   -0.00752    0.03224
  6 C    -0.04129    0.00635    0.00283
  7 C     0.02787    0.01544    0.03439
  8 C     0.01445   -0.00106   -0.05479
  9 C    -0.01533    0.03523   -0.01102
 10 C     0.05062    0.00073    0.03065
 11 C     0.00672   -0.02290    0.00553
 12 C     0.03589    0.01522    0.01044
 13 C    -0.02115    0.00677    0.02697
 14 C    -0.02749   -0.01462   -0.05360
 15 C    -0.02711   -0.02122    0.04583
 16 C     0.02168    0.00602    0.00550
 17 C    -0.05031    0.00841   -0.00767
 18 C    -0.01408    0.02983    0.04348
 19 C    -0.01441    0.02709   -0.04783
 20 C     0.04316   -0.03250    0.03099
 21 C     0.00631    0.01257   -0.01039
 22 C     0.02131    0.03000   -0.03117
 23 C     0.00119   -0.01176    0.01152