User:   esb@s65n31.grendel.cscaa.dk
Date:   Thu Nov  9 10:32:42 2017
Arch:   x86_64
Pid:    16887
Python: 2.7.13
gpaw:   /home/esb/DFT/gpaw_git/gpaw
_gpaw:  /home/esb/DFT/gpaw_git/build/bin.linux-x86_64-2.7/gpaw-python
ase:    /home/esb/DFT/ase_git/ase (version 3.15.0b1)
numpy:  /comm/swstack/core/python/2.7.13/lib/python2.7/site-packages/numpy (version 1.13.3)
scipy:  /comm/swstack/core/python/2.7.13/lib/python2.7/site-packages/scipy (version 0.19.1)
units:  Angstrom and eV
cores:  16
Extra parameters: {'blacs': True}

Input parameters:
  basis: dzp
  gpts: [80 80 48]
  kpts: [1 1 1]
  maxiter: 99
  mixer: {backend: pulay,
          beta: 0.05,
          method: separate,
          nmaxold: 5,
          weight: 75}
  mode: lcao
  nbands: -50
  occupations: {name: fermi-dirac,
                width: 0.1}
  poissonsolver: {eps: 1e-07,
                  name: fd,
                  nn: 3,
                  relax: GS}
  xc: PBE

System changes: positions, numbers, cell, pbc, initial_charges, initial_magmoms

Initialize ...

C-setup:
  name: Carbon
  id: 4aa54d4b901d75f77cc0ea3eec22967b
  Z: 6
  valence: 4
  core: 2
  charge: 0.0
  file: /home/esb/DFT/gpaw-setups-0.8.7929/C.PBE.gz
  cutoffs: 0.64(comp), 1.14(filt), 1.14(core), lmax=2
  valence states:
                energy  radius
    2s(2.00)   -13.751   0.635
    2p(2.00)    -5.284   0.635
    *s          13.461   0.635
    *p          21.927   0.635
    *d           0.000   0.635

  LCAO basis set for C:
    Name: dzp
    File: /home/esb/DFT/gpaw-setups-0.8.7929/C.dzp.basis.gz
    Number of radial functions: 5
    Number of spherical harmonics: 13
      l=0, rc=5.5469 Bohr: 2s-sz confined orbital
      l=1, rc=6.6719 Bohr: 2p-sz confined orbital
      l=0, rc=3.0312 Bohr: 2s-dz split-valence wave
      l=1, rc=3.7500 Bohr: 2p-dz split-valence wave
      l=2, rc=6.6719 Bohr: d-type Gaussian polarization

Reference energy: -24663.074771

Spin-paired calculation

Occupation numbers:
  Fermi-Dirac: width=0.1000 eV

Convergence criteria:
  Maximum total energy change: 0.0005 eV / electron
  Maximum integral of absolute density change: 0.0001 electrons
  Maximum integral of absolute eigenstate change: 4e-08 eV^2
  Maximum number of iterations: 99

Symmetries present (total): 1

  ( 1  0  0)
  ( 0  1  0)
  ( 0  0  1)

1 k-point (Gamma)
1 k-point in the irreducible part of the Brillouin zone
       k-points in crystal coordinates                weights
   0:     0.00000000    0.00000000    0.00000000          1/1

Wave functions: LCAO
  Diagonalizer: Serial LAPACK
  Atomic Correction: dense with blas
  Datatype: float
  Eigensolver: None

LCAO using direct dense diagonalizer

Densities:
  Coarse grid: 80*80*48 grid
  Fine grid: 160*160*96 grid
  Total Charge: 0.000000

Density mixing:
  Method: separate
  Backend: pulay
  Linear mixing parameter: 0.05
  Mixing with 5 old densities
  Damping of long wave oscillations: 75

Hamiltonian:
  XC and Coulomb potentials evaluated on a 160*160*96 grid
  Using the PBE Exchange-Correlation functional
  Interpolation: tri-quintic (5. degree polynomial)
  Poisson solver: Gauss-Seidel solver with 6 multi-grid levels
    Coarsest grid: 5 x 5 x 3 points
    Stencil: 6*3+1=19 point O(h^6) finite-difference Laplacian
    Max iterations: 1000
    Tolerance: 1.000000e-07

Total number of cores used: 16
Domain decomposition: 2 x 4 x 2

Number of atoms: 24
Number of atomic orbitals: 312
Number of bands in calculation: 98
Bands to converge: occupied states only
Number of valence electrons: 96

... initialized

Initializing position-dependent things.

Density initialized from atomic densities
  /       C|          C  C                        |
 *         | C C    C      C                      |
 |         |      C  C   C                        |
 |         .--CC--C--C---C--C--C------------------.
 |        /           C   C                      /
 |       /      C     C                         /
 |      /          C  C                        /

Positions:
   0 C     10.773867    6.150322    5.188351
   1 C      9.367469    4.132462    5.116581
   2 C      9.519101    5.543678    5.209460
   3 C      5.378194    8.712916    5.802876
   4 C      7.474601    9.965105    5.679214
   5 C      6.241915    9.843237    5.865144
   6 C      7.701780    7.586696    5.400398
   7 C      8.198879    6.195252    5.294327
   8 C      6.237274    7.531132    5.555899
   9 C      8.368230    8.896932    5.361862
  10 C      8.056090    1.899608    4.625320
  11 C      7.144349    5.803821    4.487939
  12 C      6.741196    2.264913    5.007565
  13 C      7.742349    3.284970    4.556233
  14 C      5.475356    2.547808    5.380250
  15 C      7.606997    4.626565    4.444737
  16 C      4.277668    4.765506    5.438223
  17 C      6.475197    7.006545    4.592228
  18 C      5.062943    7.136226    4.972492
  19 C      4.278956    6.028984    5.283401
  20 C      4.733790    8.568184    4.941612
  21 C      1.043271    9.945784    5.354893
  22 C      3.472503    9.088549    5.173458
  23 C      2.310062    9.550679    5.322292

Unit cell:
           periodic     x           y           z      points  spacing
  1. axis:    yes   16.000000    0.000000    0.000000    80     0.2000
  2. axis:    yes    0.000000   16.000000    0.000000    80     0.2000
  3. axis:    yes    0.000000    0.000000   10.000000    48     0.2083

Effective grid spacing dv^(1/3) = 0.2027

                     log10-error:    total        iterations:
           time      wfs    density  energy       fermi  poisson
iter:   1  10:32:44          +inf  -154.822878    3      6
iter:   2  10:32:45         -0.85  -153.360470    4      3
iter:   3  10:32:45         -0.88  -151.401117    3      3
iter:   4  10:32:46         -0.96  -150.261975    3      2
iter:   5  10:32:46         -1.03  -149.116521    4      3
iter:   6  10:32:47         -1.18  -148.920269    4      3
iter:   7  10:32:48         -1.28  -148.619058    3      3
iter:   8  10:32:48         -1.50  -148.510974    4      3
iter:   9  10:32:49         -1.59  -148.425159    3      3
iter:  10  10:32:50         -1.70  -148.387713    3      3
iter:  11  10:32:50         -1.96  -148.382195    3      2
iter:  12  10:32:51         -2.04  -148.384387    4      2
iter:  13  10:32:51         -2.19  -148.367370    3      2
iter:  14  10:32:52         -2.38  -148.362558    3      2
iter:  15  10:32:52         -2.48  -148.360875    3      2
iter:  16  10:32:53         -2.61  -148.357382    2      2
iter:  17  10:32:54         -2.83  -148.357007    3      2
iter:  18  10:32:54         -3.02  -148.354661    2      1
iter:  19  10:32:55         -3.18  -148.359691    2      1
iter:  20  10:32:55         -3.32  -148.364091    2      1
iter:  21  10:32:56         -3.44  -148.363720    2      1
iter:  22  10:32:56         -3.58  -148.361105    2      1
iter:  23  10:32:57         -3.68  -148.359040    2      1
iter:  24  10:32:58         -3.79  -148.356896    2      1
iter:  25  10:32:58         -3.94  -148.356273    2      1
iter:  26  10:32:59         -4.15  -148.357880    2      1

Converged after 26 iterations.

Dipole moment: (-1.828841, 0.671814, -0.119841) |e|*Ang

Energy contributions relative to reference atoms: (reference = -24663.074771)

Kinetic:       +230.617622
Potential:     -195.222427
External:        +0.000000
XC:            -186.478210
Entropy (-ST):   -0.406763
Local:           +2.928516
Free energy:   -148.561262
Extrapolated:  -148.357880

Fermi level: -4.64763

 Band  Eigenvalues  Occupancy
    0    -29.30382    2.00000
    1    -25.82984    2.00000
    2    -23.82295    2.00000
    3    -23.12496    2.00000
    4    -22.10030    2.00000
    5    -20.95983    2.00000
    6    -20.28912    2.00000
    7    -19.91178    2.00000
    8    -19.18603    2.00000
    9    -18.44427    2.00000
   10    -18.12425    2.00000
   11    -17.60139    2.00000
   12    -17.51551    2.00000
   13    -16.65317    2.00000
   14    -16.28492    2.00000
   15    -15.91318    2.00000
   16    -15.40792    2.00000
   17    -15.17919    2.00000
   18    -14.93921    2.00000
   19    -14.32571    2.00000
   20    -12.94864    2.00000
   21    -12.78261    2.00000
   22    -12.32929    2.00000
   23    -11.97591    2.00000
   24    -11.23566    2.00000
   25    -10.97249    2.00000
   26    -10.47157    2.00000
   27    -10.45266    2.00000
   28     -9.96401    2.00000
   29     -9.41336    2.00000
   30     -9.19678    2.00000
   31     -8.63050    2.00000
   32     -8.29185    2.00000
   33     -7.98948    2.00000
   34     -7.88657    2.00000
   35     -7.62921    2.00000
   36     -7.50533    2.00000
   37     -7.28817    2.00000
   38     -6.79774    2.00000
   39     -6.63869    2.00000
   40     -6.56372    2.00000
   41     -6.34527    2.00000
   42     -6.13874    2.00000
   43     -5.73841    1.99996
   44     -5.47915    1.99951
   45     -5.13341    1.98459
   46     -5.08407    1.97487
   47     -4.64251    0.97440
   48     -4.57775    0.66416
   49     -4.49467    0.35609
   50     -4.25972    0.04050
   51     -4.01058    0.00342
   52     -3.95955    0.00205
   53     -3.80523    0.00044
   54     -3.26636    0.00000
   55     -2.66563    0.00000
   56     -2.18376    0.00000
   57     -1.93948    0.00000
   58     -1.09906    0.00000
   59     -0.88340    0.00000
[...]
   83      7.86948    0.00000
   84      8.09483    0.00000
   85      8.20698    0.00000
   86      8.28227    0.00000
   87      8.69404    0.00000
   88      8.72926    0.00000
   89      8.73573    0.00000
   90      9.00371    0.00000
   91      9.11565    0.00000
   92      9.29769    0.00000
   93      9.40597    0.00000
   94      9.46529    0.00000
   95      9.59346    0.00000
   96      9.78323    0.00000
   97      9.90819    0.00000

Forces in eV/Ang:
  0 C    -0.65148   -0.38039    0.04279
  1 C    -0.59404   -0.95649   -1.28063
  2 C    -0.36861    2.29794    1.44931
  3 C    25.70677    9.43819   25.16117
  4 C     3.48494   -2.78821   -0.46179
  5 C    -2.11310    1.44567    1.67029
  6 C     6.20164    3.39993    3.53228
  7 C     4.28393    4.92642    1.14207
  8 C     1.13066   13.55844   29.16035
  9 C    -1.57464    0.01178    0.53752
 10 C    -0.20040   -1.05724   -0.36110
 11 C     0.12264    0.71048   -0.49601
 12 C    -1.81791   -0.63986    0.95776
 13 C     1.44337    2.39118   -0.69023
 14 C    -0.94966   -0.50316    0.28901
 15 C     1.19833   -9.63840   -2.32489
 16 C     0.29267   -0.66736    0.02124
 17 C     1.11803  -12.17971  -26.15864
 18 C    -7.96087   -3.62478   -5.99161
 19 C     0.35108   -1.25219    0.33844
 20 C   -27.85664   -4.78552  -24.54297
 21 C    -0.33990    0.14565    0.02627
 22 C     0.89559   -0.78975   -2.35697
 23 C    -1.72855    0.96384    0.38148

System changes: positions

[...]

Density initialized from wave functions
  /       C|          C  C                        |
 *         | C C    C      C                      |
 |         |      C  C   C                        |
 |         .--CC--C--C---C--C--C------------------.
 |        /           C   C                      /
 |       /      C     C                         /
 |      /          C  C                        /

[...]

[...]
 |       /     C C  C  C                        /

[...]

Density initialized from wave functions
   /       |          C   C                       |
  /        |                C                     |
 *        C|C C      C                            |
 |         |     C     C  C                       |
 |         .-----C---C----C-C-C-------------------.
 |        /    C       C  C                      /
 |       /     C C  C  C                        /

[...]

Density initialized from wave functions
   /       |          C   C                       |
  /        |                C                     |
 *        C|C C      C                            |
 |         |     C     C  C                       |
 |         .-----C---C----C-CC--------------------.
 |        /    C       C  C                      /
 |       /     C C  C  C                        /

[...]

Density initialized from wave functions
   /       |          C   C                       |
  /        |                C                     |
 *        C|C C      C                            |
 |         |     C     C  C                       |
 |         .-----C---C-----CCC--------------------.
 |        /    C       C  C                      /
 |       /     C C  C  C                        /

[...]

Density initialized from wave functions
   /       |          C   C                       |
  /       C|                C                     |
 *         |C C      C                            |
 |         |     C     C  C                       |
 |         .-----C---C-----CCC--------------------.
 |        /    C       C  C                      /
 |       /     C       C                        /
 |      /        C  C                          /

[...]

Density initialized from wave functions
   /       |          C   C                       |
  /       C|                C                     |
 *         |C C      C                            |
 |         |     C     C  C                       |
 |         .-----C---C-----C-C--------------------.
 |        /    C       C  C                      /
 |       /     C       C                        /
 |      /        C  C                          /

[...]

Density initialized from wave functions
   /       |          C   C                       |
  /       C|                C                     |
 *         |C C      C                            |
 |         |     C     C  C                       |
 |         .-----C---C-----C-C--------------------.
 |        /    C       C  C                      /
 |       /     C       C                        /
 |      /        C  C                          /

[...]

Density initialized from wave functions
   /       |          C   C                       |
  /       C|                C                     |
 *         |C C      C                            |
 |         |     C     C  C                       |
 |         .-----C---C-----C-C--------------------.
 |        /    C       C                         /
 |       /     C C     C  C                     /
 |      /           C                          /

[...]

Density initialized from wave functions
   /       |          C  C                        |
  /       C|                C                     |
 *         |C C      C                            |
 |         |     C     C  C                       |
 |         .-----C---C-----C-C--------------------.
 |        /    C       C                         /
 |       /     C C     C  C                     /
 |      /           C                          /

[...]

Density initialized from wave functions
   /       |          C  C                        |
  /       C|                C                     |
 *         |C C      C                            |
 |         |     C     C  C                       |
 |         .-----C---C-----C-C--------------------.
 |        /    C       C     C                   /
 |       /     C C     C  C                     /
 |      /           C                          /

[...]

Density initialized from wave functions
   /       |          C  C                        |
  /       C|                C                     |
 *         |C C      C                            |
 |         |     C     C  C                       |
 |         .-----C---C-----C-C--------------------.
 |        /    C       C     C                   /
 |       /     C C     C  C                     /
 |      /           C                          /

[...]

Density initialized from wave functions
   /       |          C  C                        |
  /       C|                C                     |
 *         |C C      C                            |
 |         |     C     C  C                       |
 |         .-----C---C-----C-C--------------------.
 |        /   CC       C     C                   /
 |       /     C C     C  C                     /
 |      /           C                          /

[...]

Density initialized from wave functions
   /       |          C  C                        |
  /       C|                C                     |
 *         |C C      C                            |
 |         |     C     C  C                       |
 |         .-----C---C-----C-C--------------------.
 |        /   CC       C     C                   /
 |       /    C  C     C  C                     /
 |      /           C                          /

[...]

Density initialized from wave functions
   /       |          C  C                        |
  /       C|                C                     |
 *         |C C      C    C                       |
 |         |     C     C                          |
 |         .-----C---C-----C-C--------------------.
 |        /   CC       C     C                   /
 |       /    C  C     C  C                     /
 |      /           C                          /

[...]

Density initialized from wave functions
   /       |          C   C                       |
  /       C|                C                     |
 *         |C C      C    C                       |
 |         |     C     C                          |
 |         .-----C---C-----C-C--------------------.
 |        /   CC       C     C                   /
 |       /    C  C     C  C                     /
 |      /           C                          /

[...]

Density initialized from wave functions
   /       |          C   C                       |
  /       C|                C                     |
 *         |C C      C    C                       |
 |         |     C     C                          |
 |         .-----C---C-----C-C--------------------.
 |        /   CC       C     C                   /
 |       /    C        C  C                     /
 |      /        C  C                          /

[...]

Density initialized from wave functions
   /       |          C   C                       |
  /       C|                C                     |
 *         |C C      C    C                       |
 |         |     C     C                          |
 |         .-----C---C-----C-C--------------------.
 |        /   CC       C     C                   /
 |       /    C        C  C                     /
 |      /        C  C                          /

[...]

Density initialized from wave functions
   /       |              C                       |
  /       C|          C     C                     |
 *         |C C      C    C                       |
 |         |     C     C                          |
 |         .-----C---C-----C-C--------------------.
 |        /    C       C     C                   /
 |       /    C        C  C                     /
 |      /        C  C                          /

[...]

Density initialized from wave functions
   /       |              C                       |
  /       C|           C    C                     |
 *         |C C      C    C                       |
 |         |     C     C                          |
 |         .-----C---C-----C-C--------------------.
 |        /    C       C     C                   /
 |       /    C        C  C                     /
 |      /        C  C                          /

[...]

Density initialized from wave functions
   /       |              C                       |
  /       C|           C    C                     |
 *         |C C      C    C                       |
 |         |     C     C                          |
 |         .-----C---C-C---C-C--------------------.
 |        /    C       C     C                   /
 |       /    C        C  C                     /
 |      /        C  C                          /

[...]

Density initialized from wave functions
  /      C |           C  C C                     |
 *         |C C      C    C                       |
 |         |     C     C                          |
 |         .-----C---C-C---C-C--------------------.
 |        /    C       C     C                   /
 |       /    C        C  C                     /
 |      /        C  C                          /

[...]

Density initialized from wave functions
  /      C |           C  C C                     |
 *         |C  C     C    C                       |
 |         |     C     C                          |
 |         .-----C---C-C---C-C--------------------.
 |        /    C       C     C                   /
 |       /    C        C  C                     /
 |      /     C  C  C                          /

[...]

Density initialized from wave functions
  /      C |           C  C C                     |
 *         |C  C     C    C                       |
 |         |     C     C                          |
 |         .-----C---C-C---C-C--------------------.
 |        /    C       C     C                   /
 |       /    C        C  C                     /
 |      /     C  C  C                          /

[...]

Density initialized from wave functions
  /      C |           C  C C                     |
 *         |C  C     C    C                       |
 |         |     C     C   C                      |
 |         .-----C---C-C-----C--------------------.
 |        /    C       C     C                   /
 |       /    C        C  C                     /
 |      /     C  C  C                          /

[...]

System changes: positions

Initializing position-dependent things.

Density initialized from wave functions
  /      C |           C  C C                     |
 *         |C  C     C    C                       |
 |         |     C     C   C                      |
 |         .-----C---C-C-----C--------------------.
 |        /    C       C     C                   /
 |       /    C        C  C                     /
 |      /     C  C  C                          /

Positions:
   0 C     10.185398    4.880147    5.039936
   1 C      9.245298    3.901939    4.864230
   2 C     10.091787    6.156733    5.195655
   3 C      5.838495    8.938192    5.461398
   4 C      7.608160   10.318829    5.788581
   5 C      6.287397   10.237707    5.795834
   6 C      8.304634    8.161697    5.409844
   7 C      8.854600    6.815262    5.210945
   8 C      6.888158    7.998063    5.302789
   9 C      8.642978    9.508254    5.726669
  10 C      7.168587    2.047418    4.697941
  11 C      7.656054    5.879649    4.989319
  12 C      5.888062    2.333929    4.695845
  13 C      8.054422    3.121586    4.767514
  14 C      4.736261    2.957402    4.672143
  15 C      7.915231    4.538290    4.834370
  16 C      4.390504    4.238255    4.737797
  17 C      6.461279    6.676828    5.055358
  18 C      5.022874    6.674473    5.030592
  19 C      4.281130    5.515855    4.833977
  20 C      4.597211    8.111655    5.269647
  21 C      0.948131    9.665730    5.421969
  22 C      3.344780    8.594080    5.325445
  23 C      2.153886    9.120507    5.380198

Unit cell:
           periodic     x           y           z      points  spacing
  1. axis:    yes   16.000000    0.000000    0.000000    80     0.2000
  2. axis:    yes    0.000000   16.000000    0.000000    80     0.2000
  3. axis:    yes    0.000000    0.000000   10.000000    48     0.2083

Effective grid spacing dv^(1/3) = 0.2027

                     log10-error:    total        iterations:
           time      wfs    density  energy       fermi  poisson
iter:   1  10:52:06          +inf  -181.876057    3      5
iter:   2  10:52:06         -2.69  -181.875137    3      1
iter:   3  10:52:07         -3.02  -181.875031    2      1
iter:   4  10:52:07         -3.21  -181.872325    2      1
iter:   5  10:52:08         -3.06  -181.878830    3      1
iter:   6  10:52:08         -2.55  -181.874947    3      1
iter:   7  10:52:09         -3.81  -181.875273    2      1
iter:   8  10:52:09         -3.48  -181.876140    2      1
iter:   9  10:52:10         -3.06  -181.874938    2      1
iter:  10  10:52:11         -3.46  -181.875242    2      1
iter:  11  10:52:11         -3.96  -181.875685    2      1
iter:  12  10:52:12         -3.34  -181.875027    2      1
iter:  13  10:52:12         -3.83  -181.875204    2      1
iter:  14  10:52:13         -4.48  -181.875304    2      1

Converged after 14 iterations.

Dipole moment: (-2.333846, -0.391792, -0.067072) |e|*Ang

Energy contributions relative to reference atoms: (reference = -24663.074771)

Kinetic:       +109.159844
Potential:     -117.602271
External:        +0.000000
XC:            -176.280129
Entropy (-ST):   -0.344894
Local:           +3.019699
Free energy:   -182.047751
Extrapolated:  -181.875304

Fermi level: -4.74980

 Band  Eigenvalues  Occupancy
    0    -23.47328    2.00000
    1    -22.81770    2.00000
    2    -21.25253    2.00000
    3    -20.98273    2.00000
    4    -20.57239    2.00000
    5    -19.98269    2.00000
    6    -19.70875    2.00000
    7    -19.24711    2.00000
    8    -18.48954    2.00000
    9    -18.20523    2.00000
   10    -17.99710    2.00000
   11    -17.49244    2.00000
   12    -16.46731    2.00000
   13    -16.12951    2.00000
   14    -15.78893    2.00000
   15    -15.30066    2.00000
   16    -14.31111    2.00000
   17    -14.23295    2.00000
   18    -13.64213    2.00000
   19    -13.22084    2.00000
   20    -12.61677    2.00000
   21    -12.19417    2.00000
   22    -11.48862    2.00000
   23    -10.99516    2.00000
   24    -10.74363    2.00000
   25    -10.74096    2.00000
   26    -10.41292    2.00000
   27    -10.20095    2.00000
   28     -9.87178    2.00000
   29     -9.84720    2.00000
   30     -9.23160    2.00000
   31     -8.77318    2.00000
   32     -8.68482    2.00000
   33     -8.55472    2.00000
   34     -8.26818    2.00000
   35     -7.88542    2.00000
   36     -7.85133    2.00000
   37     -7.52756    2.00000
   38     -7.05853    2.00000
   39     -6.93347    2.00000
   40     -6.58728    2.00000
   41     -6.18667    2.00000
   42     -6.16396    2.00000
   43     -5.79489    1.99994
   44     -5.70621    1.99986
   45     -5.49146    1.99880
   46     -4.90452    1.64903
   47     -4.85975    1.50033
   48     -4.71946    0.84944
   49     -4.08515    0.00259
   50     -3.14431    0.00000
   51     -2.92569    0.00000
   52     -2.71113    0.00000
   53     -2.41624    0.00000
   54     -2.22532    0.00000
   55     -1.71231    0.00000
   56     -1.30696    0.00000
   57     -0.68481    0.00000
   58     -0.04041    0.00000
   59      0.06685    0.00000
[...]
   83      8.64413    0.00000
   84      8.84650    0.00000
   85      8.87364    0.00000
   86      9.31795    0.00000
   87      9.35123    0.00000
   88      9.42685    0.00000
   89      9.44706    0.00000
   90      9.64670    0.00000
   91      9.75994    0.00000
   92     10.04595    0.00000
   93     10.08914    0.00000
   94     10.10278    0.00000
   95     10.22906    0.00000
   96     10.37510    0.00000
   97     10.41013    0.00000

Forces in eV/Ang:
  0 C     0.03107   -0.02791    0.01528
  1 C     0.06382    0.03120    0.00812
  2 C    -0.05703   -0.01747    0.01109
  3 C     0.02454   -0.01678   -0.02016
  4 C    -0.04552   -0.00647    0.04449
  5 C     0.05092    0.00991   -0.05473
  6 C    -0.01311    0.01808    0.03744
  7 C    -0.03725   -0.03566   -0.04035
  8 C     0.03241   -0.00768   -0.06489
  9 C     0.03117    0.05967    0.02966
 10 C    -0.02076   -0.04745   -0.02174
 11 C    -0.06314   -0.01377   -0.04049
 12 C    -0.00818   -0.01834   -0.04296
 13 C    -0.08090    0.05024   -0.00319
 14 C    -0.01066    0.07108   -0.02134
 15 C     0.01046    0.03575    0.01678
 16 C     0.01945    0.00145    0.04289
 17 C    -0.03862    0.02237    0.05180
 18 C     0.02402    0.02776   -0.04973
 19 C     0.01841   -0.03115    0.07712
 20 C    -0.04785   -0.02292    0.02265
 21 C     0.04730   -0.03548    0.01896
 22 C    -0.00606   -0.01524   -0.05185
 23 C    -0.00373   -0.02857   -0.00377