User:   esb@s65n82.grendel.cscaa.dk
Date:   Thu Nov  9 10:43:00 2017
Arch:   x86_64
Pid:    65279
Python: 2.7.13
gpaw:   /home/esb/DFT/gpaw_git/gpaw
_gpaw:  /home/esb/DFT/gpaw_git/build/bin.linux-x86_64-2.7/gpaw-python
ase:    /home/esb/DFT/ase_git/ase (version 3.15.0b1)
numpy:  /comm/swstack/core/python/2.7.13/lib/python2.7/site-packages/numpy (version 1.13.3)
scipy:  /comm/swstack/core/python/2.7.13/lib/python2.7/site-packages/scipy (version 0.19.1)
units:  Angstrom and eV
cores:  16
Extra parameters: {'blacs': True}

Input parameters:
  basis: dzp
  gpts: [80 80 48]
  kpts: [1 1 1]
  maxiter: 99
  mixer: {backend: pulay,
          beta: 0.05,
          method: separate,
          nmaxold: 5,
          weight: 75}
  mode: lcao
  nbands: -50
  occupations: {name: fermi-dirac,
                width: 0.1}
  poissonsolver: {eps: 1e-07,
                  name: fd,
                  nn: 3,
                  relax: GS}
  xc: PBE

System changes: positions, numbers, cell, pbc, initial_charges, initial_magmoms

Initialize ...

C-setup:
  name: Carbon
  id: 4aa54d4b901d75f77cc0ea3eec22967b
  Z: 6
  valence: 4
  core: 2
  charge: 0.0
  file: /home/esb/DFT/gpaw-setups-0.8.7929/C.PBE.gz
  cutoffs: 0.64(comp), 1.14(filt), 1.14(core), lmax=2
  valence states:
                energy  radius
    2s(2.00)   -13.751   0.635
    2p(2.00)    -5.284   0.635
    *s          13.461   0.635
    *p          21.927   0.635
    *d           0.000   0.635

  LCAO basis set for C:
    Name: dzp
    File: /home/esb/DFT/gpaw-setups-0.8.7929/C.dzp.basis.gz
    Number of radial functions: 5
    Number of spherical harmonics: 13
      l=0, rc=5.5469 Bohr: 2s-sz confined orbital
      l=1, rc=6.6719 Bohr: 2p-sz confined orbital
      l=0, rc=3.0312 Bohr: 2s-dz split-valence wave
      l=1, rc=3.7500 Bohr: 2p-dz split-valence wave
      l=2, rc=6.6719 Bohr: d-type Gaussian polarization

Reference energy: -24663.074771

Spin-paired calculation

Occupation numbers:
  Fermi-Dirac: width=0.1000 eV

Convergence criteria:
  Maximum total energy change: 0.0005 eV / electron
  Maximum integral of absolute density change: 0.0001 electrons
  Maximum integral of absolute eigenstate change: 4e-08 eV^2
  Maximum number of iterations: 99

Symmetries present (total): 1

  ( 1  0  0)
  ( 0  1  0)
  ( 0  0  1)

1 k-point (Gamma)
1 k-point in the irreducible part of the Brillouin zone
       k-points in crystal coordinates                weights
   0:     0.00000000    0.00000000    0.00000000          1/1

Wave functions: LCAO
  Diagonalizer: Serial LAPACK
  Atomic Correction: dense with blas
  Datatype: float
  Eigensolver: None

LCAO using direct dense diagonalizer

Densities:
  Coarse grid: 80*80*48 grid
  Fine grid: 160*160*96 grid
  Total Charge: 0.000000

Density mixing:
  Method: separate
  Backend: pulay
  Linear mixing parameter: 0.05
  Mixing with 5 old densities
  Damping of long wave oscillations: 75

Hamiltonian:
  XC and Coulomb potentials evaluated on a 160*160*96 grid
  Using the PBE Exchange-Correlation functional
  Interpolation: tri-quintic (5. degree polynomial)
  Poisson solver: Gauss-Seidel solver with 6 multi-grid levels
    Coarsest grid: 5 x 5 x 3 points
    Stencil: 6*3+1=19 point O(h^6) finite-difference Laplacian
    Max iterations: 1000
    Tolerance: 1.000000e-07

Total number of cores used: 16
Domain decomposition: 2 x 4 x 2

Number of atoms: 24
Number of atomic orbitals: 312
Number of bands in calculation: 98
Bands to converge: occupied states only
Number of valence electrons: 96

... initialized

Initializing position-dependent things.

Density initialized from atomic densities
  /        |           C  CC  C                   |
 *         |  C C   C          C                  |
 |         | C       C   C  C    C                |
 |         .---C---C-C--------C-------------------.
 |        /    C    C         C                  /
 |       /       C     C  C                     /

Positions:
   0 C      5.495636    8.689150    5.818119
   1 C      5.610078    3.318896    5.305737
   2 C      3.537909    7.528178    5.687544
   3 C      7.622854    9.807095    5.802140
   4 C      6.375922    9.789677    5.940044
   5 C      5.833599    6.079579    5.484298
   6 C      7.778894    7.476540    5.450777
   7 C      4.474201    5.498887    5.461761
   8 C      6.313855    7.469667    5.597377
   9 C      6.950910    3.769821    5.309245
  10 C      4.071908    8.709465    5.847802
  11 C      4.616837    4.088007    5.355297
  12 C      3.259175    6.251518    5.560335
  13 C      7.010492    5.237664    5.381104
  14 C     10.726437    5.232759    5.649679
  15 C      9.804456    8.588518    6.205694
  16 C      8.231229    3.193640    5.166810
  17 C      9.566873    6.171946    5.751354
  18 C      8.187501    6.278243    5.673598
  19 C      9.489486    3.319451    5.320676
  20 C     10.382163    7.408801    6.006993
  21 C      8.422937    8.818233    6.022144
  22 C     11.454974    6.415528    5.935323
  23 C     10.697761    3.903902    5.296983

Unit cell:
           periodic     x           y           z      points  spacing
  1. axis:    yes   16.000000    0.000000    0.000000    80     0.2000
  2. axis:    yes    0.000000   16.000000    0.000000    80     0.2000
  3. axis:    yes    0.000000    0.000000   10.000000    48     0.2083

Effective grid spacing dv^(1/3) = 0.2027

                     log10-error:    total        iterations:
           time      wfs    density  energy       fermi  poisson
iter:   1  10:43:01          +inf  -186.032387    2      6
iter:   2  10:43:02         -0.90  -185.077994    3      3
iter:   3  10:43:03         -0.93  -182.957404    34     3
iter:   4  10:43:03         -1.07  -182.247922    4      3
iter:   5  10:43:04         -1.18  -181.879311    34     4
iter:   6  10:43:05         -1.49  -181.806923    3      2
iter:   7  10:43:05         -1.58  -181.870826    2      3
iter:   8  10:43:06         -1.73  -181.828018    3      2
iter:   9  10:43:07         -1.81  -181.706015    3      2
iter:  10  10:43:07         -2.05  -181.681376    3      2
iter:  11  10:43:08         -2.27  -181.697800    3      2
iter:  12  10:43:08         -2.31  -181.672409    3      2
iter:  13  10:43:09         -2.59  -181.673891    3      2
iter:  14  10:43:10         -2.78  -181.689474    3      1
iter:  15  10:43:10         -2.89  -181.686492    3      1
iter:  16  10:43:11         -3.01  -181.670306    3      2
iter:  17  10:43:12         -3.11  -181.669342    2      1
iter:  18  10:43:12         -3.17  -181.656925    3      1
iter:  19  10:43:13         -3.41  -181.663758    3      1
iter:  20  10:43:13         -3.54  -181.670286    2      1
iter:  21  10:43:14         -3.76  -181.666992    2      1
iter:  22  10:43:14         -3.99  -181.670022    2      1
iter:  23  10:43:15         -4.05  -181.669136    2      1

Converged after 23 iterations.

Dipole moment: (0.407070, 0.019273, 0.050160) |e|*Ang

Energy contributions relative to reference atoms: (reference = -24663.074771)

Kinetic:       +131.699580
Potential:     -134.899316
External:        +0.000000
XC:            -181.401745
Entropy (-ST):   -0.246510
Local:           +3.055600
Free energy:   -181.792390
Extrapolated:  -181.669136

Fermi level: -4.47602

 Band  Eigenvalues  Occupancy
    0    -23.55849    2.00000
    1    -22.65526    2.00000
    2    -21.74720    2.00000
    3    -21.08748    2.00000
    4    -20.66538    2.00000
    5    -20.36671    2.00000
    6    -19.63989    2.00000
    7    -19.39075    2.00000
    8    -18.54479    2.00000
    9    -18.32772    2.00000
   10    -17.70746    2.00000
   11    -17.21632    2.00000
   12    -16.54126    2.00000
   13    -16.11319    2.00000
   14    -15.26107    2.00000
   15    -14.66322    2.00000
   16    -14.37714    2.00000
   17    -13.82700    2.00000
   18    -13.42976    2.00000
   19    -12.63583    2.00000
   20    -12.33575    2.00000
   21    -12.31790    2.00000
   22    -11.80207    2.00000
   23    -11.24945    2.00000
   24    -11.08674    2.00000
   25    -10.90526    2.00000
   26    -10.78106    2.00000
   27    -10.48557    2.00000
   28    -10.28521    2.00000
   29     -9.97949    2.00000
   30     -9.59300    2.00000
   31     -9.34319    2.00000
   32     -9.17298    2.00000
   33     -8.66991    2.00000
   34     -8.54502    2.00000
   35     -8.22600    2.00000
   36     -7.47637    2.00000
   37     -7.13391    2.00000
   38     -7.04554    2.00000
   39     -7.00741    2.00000
   40     -6.49963    2.00000
   41     -6.44607    2.00000
   42     -6.32962    2.00000
   43     -5.92007    2.00000
   44     -5.52915    1.99995
   45     -5.06433    1.99444
   46     -4.70299    1.81267
   47     -4.67892    1.76761
   48     -4.34204    0.41506
   49     -3.94938    0.01027
   50     -3.10209    0.00000
   51     -3.06372    0.00000
   52     -2.88020    0.00000
   53     -2.74853    0.00000
   54     -2.46345    0.00000
   55     -1.12838    0.00000
   56     -1.02934    0.00000
   57     -0.81861    0.00000
   58     -0.43204    0.00000
   59      0.18412    0.00000
[...]
   83      8.81516    0.00000
   84      8.97718    0.00000
   85      9.13137    0.00000
   86      9.27494    0.00000
   87      9.30042    0.00000
   88      9.44426    0.00000
   89      9.57224    0.00000
   90      9.72354    0.00000
   91      9.74851    0.00000
   92      9.90903    0.00000
   93     10.09427    0.00000
   94     10.25305    0.00000
   95     10.25878    0.00000
   96     10.37839    0.00000
   97     10.51667    0.00000

Forces in eV/Ang:
  0 C     0.09151    0.39496   -0.25833
  1 C     0.30619   -0.09601   -0.01783
  2 C    -0.29801    0.24963    0.26495
  3 C    -2.88885    4.30581    0.48344
  4 C    -1.19987    0.21947   -0.48333
  5 C     0.69905   -0.47641   -0.40005
  6 C    -5.52216    8.87834    2.50935
  7 C    -0.75521   -0.31706    0.08187
  8 C    -0.68820    0.35475   -0.98483
  9 C     1.30862    0.90100   -0.19744
 10 C     0.02813   -0.20483   -0.02159
 11 C    -0.11504    0.32103    0.04454
 12 C     0.45045   -0.15990   -0.24840
 13 C     0.20142    1.21878    1.42382
 14 C    -0.11137   -0.30388   -0.03873
 15 C    -0.07609    0.07948    0.19078
 16 C    -0.04318   -0.57523    0.04088
 17 C     1.40377   -0.36379    0.36762
 18 C     2.37081   -8.44209   -1.16068
 19 C    -0.49408   -0.08066   -0.09141
 20 C    -0.19489   -0.47882    0.08918
 21 C     5.10641   -5.64311   -1.86721
 22 C     0.36935    0.03340    0.07795
 23 C     0.17329    0.21890    0.08503

System changes: positions

[...]

Density initialized from wave functions
  /        |           C  CC  C                   |
 *         |  C C   C          C                  |
 |         | C       C   C  C    C                |
 |         .---C---C-C--------C-------------------.
 |        /    C    C         C                  /
 |       /       C     C  C                     /

[...]

Density initialized from wave functions
  /        |           C  CC  C                   |
 *         |  C C   C          C                  |
 |         | C       C   C  C    C                |
 |         .---C---C-C--------C-------------------.
 |        /    C    C         C                  /
 |       /       C     C  C                     /

[...]

Density initialized from wave functions
  /        |           C  CC  C                   |
 *         |  C C   C          C                  |
 |         | C       C  CC  C    C                |
 |         .---C---C-C--------C-------------------.
 |        /    C    C         C                  /
 |       /       C     C  C                     /

[...]

Density initialized from wave functions
  /        |           C  CC  C                   |
 *         |  C C   C          C                  |
 |         | C       C  CC  C    C                |
 |         .---C---C-C--------C-------------------.
 |        /    C    C        C                   /
 |       /       C     C  C                     /

[...]

Density initialized from wave functions
  /        |           C  CC  C                   |
 *         |  C C   C   C      C                  |
 |         | C       C   C  C    C                |
 |         .---C---C-C--------C-------------------.
 |        /    C    C        C                   /
 |       /       C     C  C                     /

[...]

Density initialized from wave functions
  /        |           C  CC  C                   |
 *         |  C C   C   C      C                  |
 |         | C       C   C  C    C                |
 |         .---C---C-C--------C-------------------.
 |        /    C     C       C                   /
 |       /       C     C  C                     /

[...]

Density initialized from wave functions
  /        |           C  CC  C                   |
 *         |  C C   C   C      C                  |
 |         | C       C   C  C    C                |
 |         .---C---C--C-------C-------------------.
 |        /    C     C        C                  /
 |       /       C     C  C                     /

[...]

System changes: positions

Initializing position-dependent things.

Density initialized from wave functions
  /        |           C  CC  C                   |
 *         |  C C   C   C      C                  |
 |         | C       C   C  C    C                |
 |         .---C---C--C-------C-------------------.
 |        /    C     C        C                  /
 |       /       C     C  C                     /

Positions:
   0 C      5.414498    8.769420    5.763029
   1 C      5.712538    3.377699    5.279085
   2 C      3.476789    7.548349    5.685836
   3 C      7.575635    9.886595    5.969888
   4 C      6.316459    9.854823    5.900203
   5 C      5.848561    6.090903    5.504800
   6 C      7.650056    7.571601    5.719947
   7 C      4.494344    5.475717    5.462961
   8 C      6.224830    7.523591    5.648830
   9 C      7.053318    3.843133    5.298666
  10 C      3.991482    8.749954    5.762968
  11 C      4.665559    4.074721    5.345745
  12 C      3.318271    6.261030    5.540220
  13 C      7.056956    5.298407    5.456903
  14 C     10.743848    5.156092    5.650343
  15 C      9.833911    8.547115    6.081207
  16 C      8.263192    3.139097    5.154150
  17 C      9.586173    6.105641    5.716420
  18 C      8.209701    6.227650    5.626498
  19 C      9.519997    3.256877    5.309322
  20 C     10.397747    7.351749    5.941557
  21 C      8.450138    8.774140    5.920432
  22 C     11.459043    6.348020    5.923688
  23 C     10.742813    3.817011    5.330610

Unit cell:
           periodic     x           y           z      points  spacing
  1. axis:    yes   16.000000    0.000000    0.000000    80     0.2000
  2. axis:    yes    0.000000   16.000000    0.000000    80     0.2000
  3. axis:    yes    0.000000    0.000000   10.000000    48     0.2083

Effective grid spacing dv^(1/3) = 0.2027

                     log10-error:    total        iterations:
           time      wfs    density  energy       fermi  poisson
iter:   1  10:46:26          +inf  -184.025789    3      4
iter:   2  10:46:27         -2.94  -184.024988    2      1
iter:   3  10:46:27         -3.08  -184.025045    2      1
iter:   4  10:46:28         -3.24  -184.025320    2      1
iter:   5  10:46:28         -3.31  -184.025014    2      1
iter:   6  10:46:29         -3.48  -184.024971    2      1
iter:   7  10:46:30         -3.62  -184.025310    2      1
iter:   8  10:46:30         -3.88  -184.025165    2      1
iter:   9  10:46:31         -3.97  -184.025179    2      1
iter:  10  10:46:31         -4.15  -184.025191    2      1

Converged after 10 iterations.

Dipole moment: (0.278658, -0.018337, 0.046038) |e|*Ang

Energy contributions relative to reference atoms: (reference = -24663.074771)

Kinetic:       +115.270618
Potential:     -122.897924
External:        +0.000000
XC:            -179.249112
Entropy (-ST):   -0.320407
Local:           +3.011431
Free energy:   -184.185394
Extrapolated:  -184.025191

Fermi level: -4.57334

 Band  Eigenvalues  Occupancy
    0    -23.41066    2.00000
    1    -22.50035    2.00000
    2    -21.58826    2.00000
    3    -20.92777    2.00000
    4    -20.42311    2.00000
    5    -20.23643    2.00000
    6    -19.62243    2.00000
    7    -19.38897    2.00000
    8    -18.28170    2.00000
    9    -18.17688    2.00000
   10    -17.67980    2.00000
   11    -17.35034    2.00000
   12    -16.47233    2.00000
   13    -16.11533    2.00000
   14    -15.15563    2.00000
   15    -14.64699    2.00000
   16    -14.43226    2.00000
   17    -13.78209    2.00000
   18    -13.40088    2.00000
   19    -12.56577    2.00000
   20    -12.37083    2.00000
   21    -12.24642    2.00000
   22    -11.79573    2.00000
   23    -11.32879    2.00000
   24    -11.05355    2.00000
   25    -10.74344    2.00000
   26    -10.68312    2.00000
   27    -10.62980    2.00000
   28    -10.32843    2.00000
   29     -9.95940    2.00000
   30     -9.55598    2.00000
   31     -9.42832    2.00000
   32     -9.19653    2.00000
   33     -8.70264    2.00000
   34     -8.42124    2.00000
   35     -7.99260    2.00000
   36     -7.47001    2.00000
   37     -7.18814    2.00000
   38     -7.12999    2.00000
   39     -7.09168    2.00000
   40     -6.37622    2.00000
   41     -6.30441    2.00000
   42     -6.29025    2.00000
   43     -5.83067    1.99999
   44     -5.59823    1.99993
   45     -5.17031    1.99490
   46     -4.75059    1.70953
   47     -4.71071    1.59595
   48     -4.51002    0.69354
   49     -3.99513    0.00615
   50     -3.05864    0.00000
   51     -2.90772    0.00000
   52     -2.78923    0.00000
   53     -2.73848    0.00000
   54     -2.59783    0.00000
   55     -1.40407    0.00000
   56     -1.05197    0.00000
   57     -0.74953    0.00000
   58     -0.29611    0.00000
   59      0.37734    0.00000
[...]
   83      8.76049    0.00000
   84      9.00446    0.00000
   85      9.02084    0.00000
   86      9.18852    0.00000
   87      9.34864    0.00000
   88      9.46607    0.00000
   89      9.67008    0.00000
   90      9.69401    0.00000
   91      9.91791    0.00000
   92     10.02894    0.00000
   93     10.11560    0.00000
   94     10.28293    0.00000
   95     10.35629    0.00000
   96     10.40154    0.00000
   97     10.62777    0.00000

Forces in eV/Ang:
  0 C    -0.00664    0.00699    0.06002
  1 C    -0.04790    0.07383   -0.01416
  2 C     0.01336   -0.00107   -0.07437
  3 C    -0.00847   -0.02308    0.03382
  4 C     0.01159    0.03142   -0.04846
  5 C    -0.03211   -0.03084    0.02253
  6 C    -0.01592   -0.03315   -0.01226
  7 C    -0.00177   -0.00500   -0.03014
  8 C    -0.02745   -0.02508    0.03324
  9 C     0.00544   -0.04351    0.00790
 10 C     0.02640   -0.01067    0.00093
 11 C     0.02640   -0.02848    0.01302
 12 C    -0.00755   -0.02889   -0.00925
 13 C    -0.04146   -0.04136    0.03616
 14 C     0.01141    0.00520   -0.01330
 15 C     0.06116   -0.00116   -0.02096
 16 C     0.00090   -0.03092    0.01738
 17 C     0.01153    0.01728   -0.03738
 18 C    -0.01941   -0.00615   -0.03998
 19 C    -0.01137    0.04248   -0.01499
 20 C     0.05069    0.02222   -0.00639
 21 C     0.01550    0.03629   -0.02020
 22 C     0.04152    0.00062    0.00704
 23 C    -0.03332    0.04179    0.01069