User:   esb@s65n12.grendel.cscaa.dk
Date:   Thu Nov  9 09:19:02 2017
Arch:   x86_64
Pid:    17979
Python: 2.7.13
gpaw:   /home/esb/DFT/gpaw_git/gpaw
_gpaw:  /home/esb/DFT/gpaw_git/build/bin.linux-x86_64-2.7/gpaw-python
ase:    /home/esb/DFT/ase_git/ase (version 3.15.0b1)
numpy:  /comm/swstack/core/python/2.7.13/lib/python2.7/site-packages/numpy (version 1.13.3)
scipy:  /comm/swstack/core/python/2.7.13/lib/python2.7/site-packages/scipy (version 0.19.1)
units:  Angstrom and eV
cores:  16
Extra parameters: {'blacs': True}

Input parameters:
  basis: dzp
  gpts: [80 80 48]
  kpts: [1 1 1]
  maxiter: 99
  mixer: {backend: pulay,
          beta: 0.05,
          method: separate,
          nmaxold: 5,
          weight: 75}
  mode: lcao
  nbands: -50
  occupations: {name: fermi-dirac,
                width: 0.1}
  poissonsolver: {eps: 1e-07,
                  name: fd,
                  nn: 3,
                  relax: GS}
  xc: PBE

System changes: positions, numbers, cell, pbc, initial_charges, initial_magmoms

Initialize ...

C-setup:
  name: Carbon
  id: 4aa54d4b901d75f77cc0ea3eec22967b
  Z: 6
  valence: 4
  core: 2
  charge: 0.0
  file: /home/esb/DFT/gpaw-setups-0.8.7929/C.PBE.gz
  cutoffs: 0.64(comp), 1.14(filt), 1.14(core), lmax=2
  valence states:
                energy  radius
    2s(2.00)   -13.751   0.635
    2p(2.00)    -5.284   0.635
    *s          13.461   0.635
    *p          21.927   0.635
    *d           0.000   0.635

  LCAO basis set for C:
    Name: dzp
    File: /home/esb/DFT/gpaw-setups-0.8.7929/C.dzp.basis.gz
    Number of radial functions: 5
    Number of spherical harmonics: 13
      l=0, rc=5.5469 Bohr: 2s-sz confined orbital
      l=1, rc=6.6719 Bohr: 2p-sz confined orbital
      l=0, rc=3.0312 Bohr: 2s-dz split-valence wave
      l=1, rc=3.7500 Bohr: 2p-dz split-valence wave
      l=2, rc=6.6719 Bohr: d-type Gaussian polarization

Reference energy: -24663.074771

Spin-paired calculation

Occupation numbers:
  Fermi-Dirac: width=0.1000 eV

Convergence criteria:
  Maximum total energy change: 0.0005 eV / electron
  Maximum integral of absolute density change: 0.0001 electrons
  Maximum integral of absolute eigenstate change: 4e-08 eV^2
  Maximum number of iterations: 99

Symmetries present (total): 1

  ( 1  0  0)
  ( 0  1  0)
  ( 0  0  1)

1 k-point (Gamma)
1 k-point in the irreducible part of the Brillouin zone
       k-points in crystal coordinates                weights
   0:     0.00000000    0.00000000    0.00000000          1/1

Wave functions: LCAO
  Diagonalizer: Serial LAPACK
  Atomic Correction: dense with blas
  Datatype: float
  Eigensolver: None

LCAO using direct dense diagonalizer

Densities:
  Coarse grid: 80*80*48 grid
  Fine grid: 160*160*96 grid
  Total Charge: 0.000000

Density mixing:
  Method: separate
  Backend: pulay
  Linear mixing parameter: 0.05
  Mixing with 5 old densities
  Damping of long wave oscillations: 75

Hamiltonian:
  XC and Coulomb potentials evaluated on a 160*160*96 grid
  Using the PBE Exchange-Correlation functional
  Interpolation: tri-quintic (5. degree polynomial)
  Poisson solver: Gauss-Seidel solver with 6 multi-grid levels
    Coarsest grid: 5 x 5 x 3 points
    Stencil: 6*3+1=19 point O(h^6) finite-difference Laplacian
    Max iterations: 1000
    Tolerance: 1.000000e-07

Total number of cores used: 16
Domain decomposition: 2 x 4 x 2

Number of atoms: 24
Number of atomic orbitals: 312
Number of bands in calculation: 98
Bands to converge: occupied states only
Number of valence electrons: 96

... initialized

Initializing position-dependent things.

Density initialized from atomic densities
   /       |                   CC                 |
  /        |           C                          |
 *         |   C C        C    C C C              |
 |         |  C C C C     C   CC                  |
 |         .---------C--CC--C-C-------------------.
 |        /             C                        /

Positions:
   0 C      6.234102   10.583463    4.956606
   1 C      5.527166    9.630690    4.521032
   2 C      9.223889   11.790671    5.479812
   3 C      4.075351    9.228465    5.358003
   4 C      7.617843   10.435069    4.775765
   5 C     10.044695   10.950430    6.111351
   6 C      3.567884    8.089061    5.595037
   7 C      8.076811    9.132592    4.189437
   8 C      9.639495   10.165147    4.657180
   9 C      3.509808    6.783443    5.873978
  10 C      7.401878    7.872845    4.010417
  11 C      9.447729    8.806943    4.304330
  12 C      8.562908    4.459614    6.259982
  13 C      7.353857    4.115191    6.367381
  14 C     10.731988    5.840759    6.458928
  15 C      5.681921    4.363138    7.201907
  16 C      9.540594    5.382812    5.854151
  17 C     11.284718    6.998066    6.380354
  18 C      4.869990    4.668988    6.329971
  19 C      9.641349    6.359315    4.628544
  20 C     11.614313    8.516375    5.968266
  21 C      3.951991    5.618181    6.124947
  22 C      7.846957    6.713280    4.256454
  23 C      9.949949    7.491084    4.585505

Unit cell:
           periodic     x           y           z      points  spacing
  1. axis:    yes   16.000000    0.000000    0.000000    80     0.2000
  2. axis:    yes    0.000000   16.000000    0.000000    80     0.2000
  3. axis:    yes    0.000000    0.000000   10.000000    48     0.2083

Effective grid spacing dv^(1/3) = 0.2027

                     log10-error:    total        iterations:
           time      wfs    density  energy       fermi  poisson
iter:   1  09:19:04          +inf  -166.563451    3      6
iter:   2  09:19:04         -0.89  -164.886606    2      3
iter:   3  09:19:05         -0.93  -162.693931    3      3
iter:   4  09:19:05         -1.04  -161.780039    4      3
iter:   5  09:19:06         -1.15  -161.255389    32     3
iter:   6  09:19:06         -1.41  -161.097730    3      3
iter:   7  09:19:07         -1.62  -161.111654    3      3
iter:   8  09:19:08         -1.76  -161.081243    3      2
iter:   9  09:19:08         -1.86  -161.048881    3      3
iter:  10  09:19:09         -2.03  -161.032614    3      2
iter:  11  09:19:09         -2.26  -161.030892    3      2
iter:  12  09:19:10         -2.50  -161.025259    3      2
iter:  13  09:19:10         -2.70  -161.021929    3      2
iter:  14  09:19:11         -2.89  -161.030276    2      1
iter:  15  09:19:11         -3.00  -161.022224    2      1
iter:  16  09:19:11         -3.16  -161.015069    2      1
iter:  17  09:19:12         -3.26  -161.016270    2      1
iter:  18  09:19:12         -3.48  -161.018011    2      1
iter:  19  09:19:13         -3.55  -161.019189    2      1
iter:  20  09:19:13         -3.60  -161.018738    2      1
iter:  21  09:19:14         -3.69  -161.019024    2      1
iter:  22  09:19:14         -3.75  -161.019732    2      1
iter:  23  09:19:15         -3.81  -161.021201    2      1
iter:  24  09:19:15         -3.96  -161.020109    2      1
iter:  25  09:19:16         -4.08  -161.019722    2      1

Converged after 25 iterations.

Dipole moment: (-0.329046, -0.142808, -0.314017) |e|*Ang

Energy contributions relative to reference atoms: (reference = -24663.074771)

Kinetic:        +94.459887
Potential:     -102.716683
External:        +0.000000
XC:            -155.481106
Entropy (-ST):   -0.309911
Local:           +2.873135
Free energy:   -161.174677
Extrapolated:  -161.019722

Fermi level: -4.80377

 Band  Eigenvalues  Occupancy
    0    -23.33726    2.00000
    1    -21.92980    2.00000
    2    -20.86812    2.00000
    3    -20.68989    2.00000
    4    -20.38780    2.00000
    5    -19.87717    2.00000
    6    -19.54101    2.00000
    7    -19.04115    2.00000
    8    -18.67173    2.00000
    9    -18.31676    2.00000
   10    -17.32277    2.00000
   11    -16.98413    2.00000
   12    -15.99114    2.00000
   13    -15.49568    2.00000
   14    -15.33527    2.00000
   15    -14.84382    2.00000
   16    -14.16732    2.00000
   17    -13.23875    2.00000
   18    -12.68572    2.00000
   19    -12.43378    2.00000
   20    -12.01715    2.00000
   21    -11.08132    2.00000
   22    -10.92830    2.00000
   23    -10.73408    2.00000
   24    -10.48590    2.00000
   25    -10.27330    2.00000
   26     -9.62562    2.00000
   27     -9.33404    2.00000
   28     -9.17105    2.00000
   29     -9.03207    2.00000
   30     -8.49560    2.00000
   31     -8.34963    2.00000
   32     -8.09206    2.00000
   33     -7.97928    2.00000
   34     -7.71167    2.00000
   35     -7.46921    2.00000
   36     -7.23181    2.00000
   37     -7.14138    2.00000
   38     -6.98340    2.00000
   39     -6.78206    2.00000
   40     -6.63724    2.00000
   41     -6.40163    2.00000
   42     -6.08254    1.99999
   43     -6.01488    1.99999
   44     -5.73157    1.99981
   45     -5.36992    1.99307
   46     -5.13091    1.92687
   47     -4.87701    1.35068
   48     -4.74039    0.69329
   49     -4.40227    0.03545
   50     -4.02008    0.00079
   51     -3.74851    0.00005
   52     -3.40214    0.00000
   53     -3.12602    0.00000
   54     -3.01316    0.00000
   55     -2.26640    0.00000
   56     -1.92836    0.00000
   57     -1.59341    0.00000
   58     -1.56887    0.00000
   59     -1.04043    0.00000
[...]
   83      8.20007    0.00000
   84      8.49766    0.00000
   85      8.65785    0.00000
   86      8.79775    0.00000
   87      8.91668    0.00000
   88      9.15737    0.00000
   89      9.23363    0.00000
   90      9.26198    0.00000
   91      9.48566    0.00000
   92      9.63449    0.00000
   93      9.73388    0.00000
   94      9.74979    0.00000
   95      9.77698    0.00000
   96     10.00250    0.00000
   97     10.19095    0.00000

Forces in eV/Ang:
  0 C     5.44938    3.02355    0.06585
  1 C    -8.84506   -3.47571    2.12471
  2 C    -1.92406   -0.22750   -1.55187
  3 C     4.04028    0.88333   -3.08872
  4 C     0.39081   -1.87051   -1.46998
  5 C     0.97279   -2.77471   -2.80024
  6 C     0.18519   -0.47888    0.18856
  7 C    -2.91130   -0.19865    0.64251
  8 C     1.93933    2.61194    5.49406
  9 C    -0.17822   -0.40030   -0.06356
 10 C    -1.87021    1.94964   -0.21649
 11 C     1.96775    1.32591    0.29420
 12 C    -0.28218    1.17372   -0.53386
 13 C    -3.69705    0.15006    2.58938
 14 C    -0.62254   -1.33934    1.61099
 15 C     9.17244   -3.16231    0.96418
 16 C     2.77181    0.77222   -1.27441
 17 C     2.19805    5.66092   -0.65512
 18 C    -4.51863    1.71267   -2.61083
 19 C    -9.66875  -13.51144    0.98966
 20 C    -1.54713   -6.54285    0.64135
 21 C    -0.70192    1.00702   -0.70104
 22 C     2.40051   -2.03444    0.20567
 23 C     5.31386   15.82804   -0.89849

System changes: positions

[...]

Density initialized from wave functions
   /       |                   CC                 |
  /        |           C                          |
 *         |   C C        C    C C C              |
 |         |  C C C C     C   CC                  |
 |         .---------C--CC--C-C-------------------.
 |        /             C                        /

[...]

Density initialized from wave functions
   /       |                   CC                 |
  /        |           C                          |
[...]
 *         |   C C  C  C  C    C CC               |
 |         |  C C C   C   C   CC                  |
 |         .------------CC--C---------------------.
 |        /              C                       /

[...]

Density initialized from wave functions
   /       |                     C                |
  /        |                 C  C                 |
 *         |   C C  C  C  C    C CC               |
 |         |  C C C   C   C   CC                  |
 |         .------------CC--C---------------------.
 |        /              C                       /

[...]

Density initialized from wave functions
   /       |                     C                |
  /        |                 C  C                 |
 *         |   C C  C  C  C    C CC               |
 |         |  C C C   C   C   CC                  |
 |         .------------CC--C---------------------.
 |        /              C                       /

[...]

Density initialized from wave functions
   /       |                     C                |
  /        |                 C  C                 |
 *         |   C C  C  C  C    C C                |
 |         |  C C C   C   C   CC                  |
 |         .------------CC--C---------------------.
 |        /              C                       /

[...]

Density initialized from wave functions
   /       |                     C                |
  /        |                 C  C                 |
 *         |   C C  C  C  C    C C                |
 |         |  C C C   C   C   CC                  |
 |         .------------CC--C---------------------.
 |        /              C                       /

[...]

Density initialized from wave functions
   /       |                     C                |
  /        |                 C  C                 |
 *         |   C C  C  C  C    C C                |
 |         |  C C C   C   C   C  C                |
 |         .------------CC--C---------------------.
 |        /              C                       /

[...]

Density initialized from wave functions
   /       |                     C                |
  /        |                 C  C                 |
 *         |   C C  C  C  C    C C                |
 |         |  C C C   C   C C C   C               |
 |         .------------CC--C---------------------.
 |        /              C                       /

[...]

Density initialized from wave functions
   /       |                     C                |
  /        |                 C  C                 |
 *         |   C C  C  C  C    C C                |
 |         |  C C C   C   C C C   C               |
 |         .------------CC--C---------------------.
 |        /              C                       /

[...]

Density initialized from wave functions
   /       |                     C                |
  /        |                 C  C                 |
 *         |   C C  C  C  C    C C                |
 |         |  C C C   C    CC C   C               |
 |         .------------CC--C---------------------.
 |        /              C                       /

[...]

Density initialized from wave functions
   /       |                    C                 |
  /        |                 C  C                 |
 *         |   C C  C  C  C    C C                |
 |         |  C C C        CC C   C               |
 |         .----------C-CC--C---------------------.
 |        /              C                       /

[...]

Density initialized from wave functions
   /       |                    C                 |
  /        |                 C  C                 |
 *         |   C C  C  C  C      C                |
 |         |  C C C        CC CC  C               |
 |         .----------C-CC--C---------------------.
 |        /              C                       /

[...]

Density initialized from wave functions
   /       |                    C                 |
  /        |                 C  C                 |
 *         |   C C  C  C  C      CC               |
 |         |  C C C        CC CC                  |
 |         .----------C-CC--C---------------------.
 |        /              C                       /

[...]

Density initialized from wave functions
   /       |                    C                 |
  /        |                 C  C                 |
 *         |   C C  C  C  C      CC               |
 |         |  C C C        CC CC                  |
 |         .----------C-CC--C---------------------.
 |        /              C                       /

[...]

Density initialized from wave functions
   /       |                    C                 |
  /        |                 C  C                 |
 *         |   C C  C  C  C      CC               |
 |         |  C C C        CC CC                  |
 |         .---------C--CC--C---------------------.
 |        /              C                       /

[...]

Density initialized from wave functions
   /       |                    C                 |
  /        |                 C  C                 |
 *         |   C C  C  C  C      CC               |
 |         |  C C C        CC CC                  |
 |         .---------C--CC--C---------------------.
 |        /              C                       /

[...]

Density initialized from wave functions
   /       |                    C                 |
  /        |                 C  C                 |
 *         |   C C  C  C  C      CC               |
 |         |  C C C        CC CC                  |
 |         .---------C--CC--C---------------------.

[...]

Density initialized from wave functions
   /       |                    C                 |
  /        |                 C  C                 |
 *         |   C C  C  C  C      CC               |
 |         |  C C C        CC CC                  |
 |         .---------C--CC--C---------------------.

[...]

Density initialized from wave functions
   /       |                    C                 |
  /        |                 C  C                 |
 *         |   C C  C  C  C      CC               |
 |         |  C C          CC CC                  |
 |         .------C--C--CC--C---------------------.

[...]

Density initialized from wave functions
   /       |                    C                 |
  /        |                 C  C                 |
 *         |   C C  C  C  C      CC               |
 |         |  C C          CC CC                  |
 |         .------C--C--CC--C---------------------.

[...]

Density initialized from wave functions
   /       |                     C                |
  /        |                 C  C                 |
 *         |   C C  C  C  C      CC               |
 |         |  C C          C  CC                  |
 |         .------C--C--CC--C---------------------.

[...]

Density initialized from wave functions
   /       |                     C                |
  /        |                 C  C                 |
 *         |   C C  C  C  C       C               |
 |         |  C C          C  CC C                |
 |         .------C--C--CC--C---------------------.

[...]

Density initialized from wave functions
   /       |                     C                |
  /        |                 C  C                 |
 *         |   C C  C  C  C       C               |
 |         |  C C          C  CC C                |
 |         .------C--C--CC--C---------------------.

[...]

Density initialized from wave functions
   /       |                     C                |
  /        |                 C  C                 |
 *         |   C C  C  C  C       C               |
 |         |  C C          C  CC C                |
 |         .------C---C-CC--C---------------------.

[...]

Density initialized from wave functions
   /       |                    C                 |
  /        |                 C  C                 |
 *         |   C C  C  C  C       C               |
 |         |  C C          C  CC C                |
 |         .------C---C-CC--C---------------------.

[...]

Density initialized from wave functions
   /       |                    C                 |
  /        |                 C  C                 |
 *         |   C C  C  C  C   C   C               |
 |         |  C C          C   C C                |
 |         .------C---C-CC--C---------------------.

[...]

Density initialized from wave functions
  /        |                 C  CC                |
 *         |   C C  C  C  C   C   C               |
 |         |  C C         C    C C                |
 |         .------C---C-CC--C---------------------.

[...]

Density initialized from wave functions
   /       |                     C                |
  /        |                 C  C                 |
 *         |   C C  C  C  C   C   C               |
 |         |  C C         C    C C                |
 |         .------C---C-CC--C---------------------.

[...]

Density initialized from wave functions
  /        |                 C  CC                |
 *         |   C C  C  C  C   C   C               |
 |         |  C C         C    C C                |
 |         .------C---C-CC--C---------------------.

[...]

Density initialized from wave functions
  /        |                 C  CC                |
 *         |   C C  C  C  C   C   C               |
 |         |  C C         C   CC C                |
 |         .------C---C-CC--C---------------------.

[...]

Density initialized from wave functions
  /        |                 C  CC                |
 *         |   C C  C  C  C   C   C               |
 |         |  C C         C   CC C                |
 |         .------C---C-CC--C---------------------.

[...]

Density initialized from wave functions
  /        |                 C  CC                |
 *         |   C C  C  C  C   C   C               |
 |         |  C C         C   CC C                |
 |         .-------C--C-CC--C---------------------.

[...]

Density initialized from wave functions
  /        |                 C  CC                |
 *         |   C C  C  C  C   C   C               |
 |         |  CCC         C C CC C                |
 |         .-------C--C-CC--C---------------------.

[...]

Density initialized from wave functions
  /        |                 C  CC                |
 *         |   C C  C  C  C   C   C               |
 |         |  CCC         C C CC C                |
 |         .-------C--C-CC--C---------------------.

[...]

System changes: positions

Initializing position-dependent things.

Density initialized from wave functions
  /        |                 C  CC                |
 *         |   C C  C  C  C   C   C               |
 |         |  C C         C   CC C                |
 |         .-------C--C-CC--C---------------------.

Positions:
   0 C      6.109356   10.724318    4.587181
   1 C      5.002496   10.138557    4.764403
   2 C      8.623441   11.367017    4.767283
   3 C      4.036205    9.296221    5.162889
   4 C      7.509525   10.538073    4.552001
   5 C      9.933289   11.799914    4.977087
   6 C      3.574570    8.175864    5.543810
   7 C      8.011976    9.163822    4.624036
   8 C      9.858653   10.421551    5.070145
   9 C      3.560286    6.904203    5.957265
  10 C      7.355364    7.908021    4.524602
  11 C      9.422307    9.084404    4.993991
  12 C      8.665734    4.364641    6.062541
  13 C      7.438542    4.108760    6.190785
  14 C     11.081623    5.208559    6.317269
  15 C      6.103657    4.221599    6.313579
  16 C      9.731897    5.284600    5.874400
  17 C     11.612298    6.409360    6.202597
  18 C      4.968954    4.788400    6.329425
  19 C      9.271008    6.576419    5.323905
  20 C     11.419870    7.644342    5.809301
  21 C      4.059629    5.759108    6.193472
  22 C      7.990707    6.862019    4.855156
  23 C     10.081878    7.822915    5.339924

Unit cell:
           periodic     x           y           z      points  spacing
  1. axis:    yes   16.000000    0.000000    0.000000    80     0.2000
  2. axis:    yes    0.000000   16.000000    0.000000    80     0.2000
  3. axis:    yes    0.000000    0.000000   10.000000    48     0.2083

Effective grid spacing dv^(1/3) = 0.2027

                     log10-error:    total        iterations:
           time      wfs    density  energy       fermi  poisson
iter:   1  09:30:44          +inf  -182.147559    3      5
iter:   2  09:30:45         -2.14  -182.109975    3      2
iter:   3  09:30:45         -2.51  -182.107232    3      1
iter:   4  09:30:46         -2.75  -182.108602    3      2
iter:   5  09:30:46         -2.83  -182.107863    3      1
iter:   6  09:30:47         -2.97  -182.106981    3      2
iter:   7  09:30:47         -2.91  -182.105778    3      1
iter:   8  09:30:48         -3.21  -182.107404    2      1
iter:   9  09:30:48         -3.46  -182.107735    2      1
iter:  10  09:30:49         -3.62  -182.107731    2      1
iter:  11  09:30:49         -3.61  -182.107779    3      1
iter:  12  09:30:50         -3.83  -182.107434    2      1
iter:  13  09:30:50         -3.98  -182.107575    2      1
iter:  14  09:30:51         -4.05  -182.107824    2      1

Converged after 14 iterations.

Dipole moment: (-0.463887, -0.122860, -0.007160) |e|*Ang

Energy contributions relative to reference atoms: (reference = -24663.074771)

Kinetic:       +106.696468
Potential:     -116.584630
External:        +0.000000
XC:            -175.091453
Entropy (-ST):   -0.339198
Local:           +3.041391
Free energy:   -182.277423
Extrapolated:  -182.107824

Fermi level: -4.51959

 Band  Eigenvalues  Occupancy
    0    -23.34563    2.00000
    1    -22.03640    2.00000
    2    -20.96775    2.00000
    3    -20.60190    2.00000
    4    -20.24776    2.00000
    5    -20.02448    2.00000
    6    -19.66714    2.00000
    7    -19.10840    2.00000
    8    -18.84142    2.00000
    9    -18.25993    2.00000
   10    -17.96338    2.00000
   11    -17.53822    2.00000
   12    -16.60345    2.00000
   13    -15.83707    2.00000
   14    -15.28328    2.00000
   15    -15.23656    2.00000
   16    -14.69267    2.00000
   17    -14.28824    2.00000
   18    -13.58270    2.00000
   19    -13.21889    2.00000
   20    -12.88810    2.00000
   21    -11.94023    2.00000
   22    -11.61432    2.00000
   23    -10.93860    2.00000
   24    -10.79098    2.00000
   25    -10.45876    2.00000
   26    -10.31178    2.00000
   27    -10.03496    2.00000
   28     -9.65029    2.00000
   29     -9.30607    2.00000
   30     -9.29117    2.00000
   31     -8.75450    2.00000
   32     -8.67826    2.00000
   33     -8.60823    2.00000
   34     -8.25175    2.00000
   35     -8.22099    2.00000
   36     -7.68160    2.00000
   37     -7.42486    2.00000
   38     -7.00831    2.00000
   39     -6.99137    2.00000
   40     -6.58082    2.00000
   41     -6.37508    2.00000
   42     -6.31793    2.00000
   43     -5.97439    2.00000
   44     -5.42164    1.99976
   45     -5.23338    1.99841
   46     -4.73709    1.79596
   47     -4.56688    1.23217
   48     -4.51433    0.97369
   49     -3.22493    0.00000
   50     -3.20621    0.00000
   51     -2.78624    0.00000
   52     -2.18322    0.00000
   53     -1.85612    0.00000
   54     -1.74423    0.00000
   55     -1.54246    0.00000
   56     -1.27758    0.00000
   57     -0.43123    0.00000
   58     -0.14894    0.00000
   59      0.26549    0.00000
[...]
   83      8.85557    0.00000
   84      8.93223    0.00000
   85      9.01179    0.00000
   86      9.14800    0.00000
   87      9.28170    0.00000
   88      9.32973    0.00000
   89      9.45490    0.00000
   90      9.62284    0.00000
   91      9.76465    0.00000
   92      9.80298    0.00000
   93      9.95073    0.00000
   94     10.05986    0.00000
   95     10.16124    0.00000
   96     10.25615    0.00000
   97     10.32793    0.00000

Forces in eV/Ang:
  0 C     0.04802   -0.00051    0.01922
  1 C    -0.01032    0.03184    0.02638
  2 C    -0.03495    0.04576   -0.01990
  3 C    -0.03622    0.02121   -0.01130
  4 C    -0.00250   -0.04024    0.00509
  5 C    -0.05133    0.05572   -0.02472
  6 C     0.01811   -0.01667   -0.00289
  7 C    -0.04903   -0.02360   -0.01161
  8 C     0.02394   -0.04914    0.01494
  9 C    -0.02772   -0.00579   -0.05242
 10 C     0.01789   -0.01242    0.01145
 11 C    -0.01284   -0.06185   -0.01519
 12 C    -0.00552    0.03143    0.02452
 13 C     0.01727   -0.03076   -0.00294
 14 C     0.04549    0.00835    0.01163
 15 C    -0.00801   -0.03860    0.02474
 16 C     0.03659    0.03320    0.00211
 17 C     0.04040   -0.00781   -0.04193
 18 C    -0.01544   -0.00458   -0.02055
 19 C    -0.05915   -0.04725    0.00314
 20 C     0.01587    0.05759   -0.03025
 21 C    -0.03965   -0.02277   -0.01655
 22 C    -0.01624   -0.01066    0.06085
 23 C     0.00340    0.05267    0.01647