User:   esb@s65n71.grendel.cscaa.dk
Date:   Wed Nov  8 14:13:03 2017
Arch:   x86_64
Pid:    55556
Python: 2.7.13
gpaw:   /home/esb/DFT/gpaw_git/gpaw
_gpaw:  /home/esb/DFT/gpaw_git/build/bin.linux-x86_64-2.7/gpaw-python
ase:    /home/esb/DFT/ase_git/ase (version 3.15.0b1)
numpy:  /comm/swstack/core/python/2.7.13/lib/python2.7/site-packages/numpy (version 1.13.3)
scipy:  /comm/swstack/core/python/2.7.13/lib/python2.7/site-packages/scipy (version 0.19.1)
units:  Angstrom and eV
cores:  16
Extra parameters: {'blacs': True}

Input parameters:
  basis: dzp
  gpts: [80 80 48]
  kpts: [1 1 1]
  maxiter: 99
  mixer: {backend: pulay,
          beta: 0.05,
          method: separate,
          nmaxold: 5,
          weight: 75}
  mode: lcao
  nbands: -50
  occupations: {name: fermi-dirac,
                width: 0.1}
  poissonsolver: {eps: 1e-07,
                  name: fd,
                  nn: 3,
                  relax: GS}
  xc: PBE

System changes: positions, numbers, cell, pbc, initial_charges, initial_magmoms

Initialize ...

C-setup:
  name: Carbon
  id: 4aa54d4b901d75f77cc0ea3eec22967b
  Z: 6
  valence: 4
  core: 2
  charge: 0.0
  file: /home/esb/DFT/gpaw-setups-0.8.7929/C.PBE.gz
  cutoffs: 0.64(comp), 1.14(filt), 1.14(core), lmax=2
  valence states:
                energy  radius
    2s(2.00)   -13.751   0.635
    2p(2.00)    -5.284   0.635
    *s          13.461   0.635
    *p          21.927   0.635
    *d           0.000   0.635

  LCAO basis set for C:
    Name: dzp
    File: /home/esb/DFT/gpaw-setups-0.8.7929/C.dzp.basis.gz
    Number of radial functions: 5
    Number of spherical harmonics: 13
      l=0, rc=5.5469 Bohr: 2s-sz confined orbital
      l=1, rc=6.6719 Bohr: 2p-sz confined orbital
      l=0, rc=3.0312 Bohr: 2s-dz split-valence wave
      l=1, rc=3.7500 Bohr: 2p-dz split-valence wave
      l=2, rc=6.6719 Bohr: d-type Gaussian polarization

Reference energy: -24663.074771

Spin-paired calculation

Occupation numbers:
  Fermi-Dirac: width=0.1000 eV

Convergence criteria:
  Maximum total energy change: 0.0005 eV / electron
  Maximum integral of absolute density change: 0.0001 electrons
  Maximum integral of absolute eigenstate change: 4e-08 eV^2
  Maximum number of iterations: 99

Symmetries present (total): 1

  ( 1  0  0)
  ( 0  1  0)
  ( 0  0  1)

1 k-point (Gamma)
1 k-point in the irreducible part of the Brillouin zone
       k-points in crystal coordinates                weights
   0:     0.00000000    0.00000000    0.00000000          1/1

Wave functions: LCAO
  Diagonalizer: Serial LAPACK
  Atomic Correction: dense with blas
  Datatype: float
  Eigensolver: None

LCAO using direct dense diagonalizer

Densities:
  Coarse grid: 80*80*48 grid
  Fine grid: 160*160*96 grid
  Total Charge: 0.000000

Density mixing:
  Method: separate
  Backend: pulay
  Linear mixing parameter: 0.05
  Mixing with 5 old densities
  Damping of long wave oscillations: 75

Hamiltonian:
  XC and Coulomb potentials evaluated on a 160*160*96 grid
  Using the PBE Exchange-Correlation functional
  Interpolation: tri-quintic (5. degree polynomial)
  Poisson solver: Gauss-Seidel solver with 6 multi-grid levels
    Coarsest grid: 5 x 5 x 3 points
    Stencil: 6*3+1=19 point O(h^6) finite-difference Laplacian
    Max iterations: 1000
    Tolerance: 1.000000e-07

Total number of cores used: 16
Domain decomposition: 2 x 4 x 2

Number of atoms: 24
Number of atomic orbitals: 312
Number of bands in calculation: 98
Bands to converge: occupied states only
Number of valence electrons: 96

... initialized

Initializing position-dependent things.

Density initialized from atomic densities
   /       |                   C                  |
  /        |      C  C     C   C                  |
 *         |   C      C     CC                    |
 |         |     C C    C  C      CC              |
 |         .-C----CC--C----------C----------------.
 |        /      C            C                  /
 |       /           C   C                      /

Positions:
   0 C      7.620328   11.794925    4.755152
   1 C      8.603737    7.976561    4.600103
   2 C      7.008093    4.205616    4.650219
   3 C      5.526880    5.480259    5.388786
   4 C      9.055946    8.963320    4.929638
   5 C     11.396593    7.740886    5.441005
   6 C      6.284830    4.753918    5.580027
   7 C      8.446619   10.447892    4.265448
   8 C      4.472040    7.734921    4.857183
   9 C      9.930254    9.045085    5.745875
  10 C      9.464066   11.338732    5.484141
  11 C      3.297508    8.885930    5.299031
  12 C      8.811899    3.237096    5.145199
  13 C      7.277569    8.569197    4.687449
  14 C     10.564863    5.667842    4.316019
  15 C      5.130455    9.289881    4.579729
  16 C      6.750808    7.806023    5.654260
  17 C     11.214841    9.863345    4.363788
  18 C     11.181169    7.727362    4.315908
  19 C      5.989651    9.370837    5.698748
  20 C      4.184649   10.375687    5.708485
  21 C      3.470476    6.291140    4.940302
  22 C      5.551418    4.527925    4.738751
  23 C      7.362427    4.710947    5.678670

Unit cell:
           periodic     x           y           z      points  spacing
  1. axis:    yes   16.000000    0.000000    0.000000    80     0.2000
  2. axis:    yes    0.000000   16.000000    0.000000    80     0.2000
  3. axis:    yes    0.000000    0.000000   10.000000    48     0.2083

Effective grid spacing dv^(1/3) = 0.2027

                     log10-error:    total        iterations:
           time      wfs    density  energy       fermi  poisson
iter:   1  14:13:05          +inf  -116.862348    3      6
iter:   2  14:13:05         -0.79  -110.610105    4      3
iter:   3  14:13:06         -0.87  -109.111896    4      3
iter:   4  14:13:07         -0.84  -106.718133    3      2
iter:   5  14:13:07         -0.92  -105.546024    3      3
iter:   6  14:13:08         -1.04  -105.117166    3      3
iter:   7  14:13:09         -1.07  -104.113025    3      3
iter:   8  14:13:10         -1.20  -103.747370    3      3
iter:   9  14:13:10         -1.36  -103.543357    2      3
iter:  10  14:13:11         -1.58  -103.499134    3      3
iter:  11  14:13:11         -1.70  -103.466415    2      2
iter:  12  14:13:12         -1.81  -103.449292    2      3
iter:  13  14:13:13         -1.96  -103.449533    2      2
iter:  14  14:13:13         -2.01  -103.439352    2      2
iter:  15  14:13:14         -2.15  -103.433602    2      2
iter:  16  14:13:15         -2.31  -103.430366    2      2
iter:  17  14:13:15         -2.49  -103.429096    2      2
iter:  18  14:13:16         -2.64  -103.428869    2      2
iter:  19  14:13:16         -2.73  -103.433911    2      1
iter:  20  14:13:17         -2.81  -103.428929    2      2
iter:  21  14:13:18         -2.97  -103.431118    2      1
iter:  22  14:13:18         -3.09  -103.430528    2      1
iter:  23  14:13:19         -3.20  -103.430276    2      1
iter:  24  14:13:19         -3.34  -103.429721    2      1
iter:  25  14:13:20         -3.49  -103.429264    2      1
iter:  26  14:13:20         -3.58  -103.428993    2      1
iter:  27  14:13:21         -3.68  -103.429269    2      1
iter:  28  14:13:21         -3.92  -103.428849    2      1
iter:  29  14:13:22         -4.03  -103.428530    2      1

Converged after 29 iterations.

Dipole moment: (-0.175155, -0.997610, -0.224680) |e|*Ang

Energy contributions relative to reference atoms: (reference = -24663.074771)

Kinetic:       +226.552543
Potential:     -184.073823
External:        +0.000000
XC:            -148.315611
Entropy (-ST):   -0.631503
Local:           +2.724113
Free energy:   -103.744281
Extrapolated:  -103.428530

Fermi level: -4.76271

 Band  Eigenvalues  Occupancy
    0    -32.61982    2.00000
    1    -26.61586    2.00000
    2    -24.25997    2.00000
    3    -21.95874    2.00000
    4    -20.57110    2.00000
    5    -19.60085    2.00000
    6    -18.91330    2.00000
    7    -18.53655    2.00000
    8    -17.89711    2.00000
    9    -16.91093    2.00000
   10    -16.29791    2.00000
   11    -15.55128    2.00000
   12    -15.20133    2.00000
   13    -14.42825    2.00000
   14    -13.96032    2.00000
   15    -13.78084    2.00000
   16    -13.28418    2.00000
   17    -12.72082    2.00000
   18    -12.49545    2.00000
   19    -12.08812    2.00000
   20    -11.80923    2.00000
   21    -11.19282    2.00000
   22    -10.74356    2.00000
   23    -10.53396    2.00000
   24    -10.05770    2.00000
   25     -9.80919    2.00000
   26     -9.41527    2.00000
   27     -8.87988    2.00000
   28     -8.80949    2.00000
   29     -8.32130    2.00000
   30     -8.26074    2.00000
   31     -8.11511    2.00000
   32     -8.04917    2.00000
   33     -7.52327    2.00000
   34     -7.33915    2.00000
   35     -6.98673    2.00000
   36     -6.86983    2.00000
   37     -6.80784    2.00000
   38     -6.54798    2.00000
   39     -6.50767    2.00000
   40     -6.16076    2.00000
   41     -6.12682    2.00000
   42     -5.91773    1.99998
   43     -5.78044    1.99992
   44     -5.22174    1.97990
   45     -5.05402    1.89698
   46     -4.83774    1.35848
   47     -4.80563    1.21139
   48     -4.75849    0.97892
   49     -4.60912    0.35425
   50     -4.51789    0.15914
   51     -4.36123    0.03545
   52     -4.31789    0.02313
   53     -4.08311    0.00223
   54     -3.81846    0.00016
   55     -3.70772    0.00005
   56     -3.54340    0.00001
   57     -3.34040    0.00000
   58     -3.09283    0.00000
   59     -3.00579    0.00000
[...]
   83      5.81592    0.00000
   84      5.86273    0.00000
   85      6.24400    0.00000
   86      6.44108    0.00000
   87      6.97651    0.00000
   88      7.76942    0.00000
   89      7.90239    0.00000
   90      8.11481    0.00000
   91      8.42128    0.00000
   92      8.57919    0.00000
   93      8.68637    0.00000
   94      8.81455    0.00000
   95      8.84841    0.00000
   96      9.14814    0.00000
   97      9.34173    0.00000

Forces in eV/Ang:
  0 C     4.55447   -4.98865   -0.85168
  1 C   -11.72399  -19.47093   -8.32086
  2 C     5.83660  -10.53516  -18.57357
  3 C   -32.54660   38.94049    2.28826
  4 C     1.47142   19.93278   -3.83993
  5 C     1.02366    1.24782   18.10657
  6 C     5.57846   -9.73968   29.54131
  7 C    -0.38229    4.46708    4.59982
  8 C    -5.91909    0.30725   -0.35809
  9 C    14.96189    3.04471    8.72634
 10 C    -2.85491   -0.95484   -2.59943
 11 C     4.78412    1.49180   -0.03874
 12 C    -2.79482    2.82969   -0.04105
 13 C     0.05717   -2.17845   -1.94947
 14 C     0.41473    2.66619    0.11411
 15 C    -3.50372   -2.16613    1.67290
 16 C    -3.27587    0.31895    2.22134
 17 C    -1.87384   -2.54659    1.91085
 18 C    -2.88490   -1.08155  -17.86700
 19 C     1.36976   -0.98196    0.07538
 20 C    -0.70653   -4.25808   -1.71555
 21 C     5.28163    4.73876    0.52647
 22 C   -18.47233  -19.88413  -28.97957
 23 C    41.59095   -1.20014   15.44997

System changes: positions

[...]

Density initialized from wave functions
   /       |                   C                  |
  /        |      C  C     C   C                  |
 *         |   C      C     CC                    |
[...]
   /       |                 C                    |
  /        |    C C        C   C                  |
 *         |   C     C   C       C                |
 |         |          C           C               |
 |         .--CC-----C------------C---------------.
 |        /      C     C          C              /
 |       /      C  C  C          C              /

[...]

Density initialized from wave functions
   /       |                 C                    |
  /        |   C  C        C   C                  |
 *         |   C     C   C       C                |
 |         |          C           C               |
 |         .--CC-----C------------C---------------.
 |        /      C     C          C              /
 |       /      C  C  C          C              /

[...]

Density initialized from wave functions
   /       |                 C                    |
  /        |   C  C        C   C                  |
 *         |   C     C   C       C                |
 |         |          C           C               |
 |         .--C------C------------C---------------.
 |        /    C C     C          C              /
 |       /      C  C  C          C              /

[...]

Density initialized from wave functions
   /       |                 C                    |
  /        |   C  C        C   C                  |
 *         |   C     C  C        C                |
 |         |          C          C                |
 |         .---C-----C------------C---------------.
 |        /    C C     C          C              /
 |       /      C  C  C          C              /

[...]

Density initialized from wave functions
   /       |                 C                    |
  /        |   C  C        C   C                  |
 *         |   C     C  C        C                |
 |         |          C          C                |
 |         .---C-----C------------C---------------.
 |        /    C C     C          C              /
 |       /      C  C  C          C              /

[...]

Density initialized from wave functions
   /       |                 C                    |
  /        |   C  C        C   C                  |
 *         |   C     C  C       C                 |
 |         |          C          C                |
 |         .--C------C------------C---------------.
 |        /    C C     C          C              /
 |       /       C C  C          C              /

[...]

Density initialized from wave functions
   /       |                 C                    |
  /        |   C  C        C   C                  |
 *         |         C  C       C                 |
 |         |   C      C          C                |
 |         .--C------C-C----------C---------------.
 |        /    C C                C              /
 |       /       C C  C          C              /

[...]

Density initialized from wave functions
   /       |                 C                    |
  /        |   C  C        C   C                  |
 *         |         C  C       C                 |
 |         |   C      C          C                |
 |         .--C------C-C----------C---------------.
 |        /    C C                C              /
 |       /       C C  C           C             /

[...]

Density initialized from wave functions
   /       |               C C                    |
  /        |   C  C        C   C                  |
 *         |         C  C       C                 |
 |         |   C      C          C                |
 |         .--C------C-C----------C---------------.
 |        /    C C                C              /
 |       /       C C  C           C             /

[...]

Density initialized from wave functions
   /       |               C C                    |
  /        |   C  C        C   C                  |
 *         |         C  C       C                 |
 |         |   C      C          C                |
 |         .--C------C-C----------C---------------.
 |        /    C C                C              /
 |       /       C C  C           C             /

[...]

Density initialized from wave functions
   /       |               C C                    |
  /        |   C  C        C   C                  |
 *         |   C     C  C       C                 |
 |         |          C          C                |
 |         .--C------C-C---------C----------------.
 |        /    C C                C              /
 |       /       C C  C           C             /

[...]

Density initialized from wave functions
   /       |               C C                    |
  /        |   C  C        C   C                  |
 *         |   C     C  C       C                 |
 |         |          C          C                |
 |         .--C------C-C---------C----------------.
 |        /    C C                C              /
 |       /       C C  C           C             /

[...]

Density initialized from wave functions
   /       |               C C                    |
  /        |   C  C        C   C                  |
 *         |         C  C       C                 |
 |         |   C      C          C                |
 |         .--C------C-C---------C----------------.
 |        /    C C                C              /
 |       /       C C  C           C             /

[...]

Density initialized from wave functions
   /       |                 C                    |
  /        |   C  C        C   C                  |
 *         |        C   C       C                 |
 |         |   C      C          C                |
 |         .--C------C--C--------C----------------.
 |        /    C C                C              /
 |       /       C C  C           C             /

[...]

Density initialized from wave functions
   /       |                 C                    |
  /        |   C  C        C   C                  |
 *         |         C  C       C                 |
 |         |   C      C          C                |
 |         .--C------C--C--------C----------------.
 |        /    C C                C              /
 |       /       C C  C           C             /

[...]

Density initialized from wave functions
   /       |                 C                    |
  /        |   C  C        C  CC                  |
 *         |         C  C       C                 |
 |         |   C      C          C                |
 |         .--C------C--C--------C----------------.
 |        /    C C                C              /
 |       /       C C  C           C             /

[...]

Density initialized from wave functions
   /       |                 C                    |
  /        |   C C         C  CC                  |
 *         |        C   C       C                 |
 |         |  C       C          C                |
 |         .--C------C--C--------C----------------.
 |        /    C  C               C              /
 |       /       C C  C           C             /

[...]

Density initialized from wave functions
   /       |                 C                    |
  /        |   C C         C   C                  |
 *         |        C   C     C C                 |
 |         |  C       C          C                |
 |         .--C------C--C--------C----------------.
 |        /    C  C               C              /
 |       /       C C  C           C             /

[...]

Density initialized from wave functions
   /       |                 C                    |
  /        |   C C         C   C                  |
 *         |        C   C     C C                 |
 |         |  C       C          C                |
 |         .--C------C--C--------C----------------.
 |        /    C  C               C              /
 |       /       C C  C           C             /

[...]

Density initialized from wave functions
   /       |               C C                    |
  /        |   C C         C   C                  |
 *         |        C   C     C C                 |
 |         |  C       C          C                |
 |         .--C------C--C--------C----------------.
 |        /    C  C               C              /
 |       /       C C  C           C             /

[...]

Density initialized from wave functions
   /       |               C  C                   |
  /        |  C  C         C   C                  |
 *         |        C   C     C C                 |
 |         |  C       C          C                |
 |         .--C------C--C--------C----------------.
 |        /    C  C               C              /
 |       /       C  C  C          C             /

[...]

Density initialized from wave functions
   /       |               C  C                   |
  /        |  C  C         C   C                  |
 *         |        C   C     C C                 |
 |         |  C       C          C                |
 |         .--C------C--C--------C----------------.
 |        /    C  C    C          C              /
 |       /       C  C             C             /

[...]

Density initialized from wave functions
   /       |               C  C                   |
  /        |  C  C         C   C                  |
 *         |        C   C     C C                 |
 |         |  C      C          C                 |
 |         .--C------C--C--------C----------------.
 |        /    C  C    C          C              /
 |       /       C  C              C            /

[...]

Density initialized from wave functions
   /       |               C  C                   |
  /        |  C  C        C    C                  |
 *         |        C   C     C                   |
 |         |  C      C         CC                 |
 |         .--C------C--C--------C----------------.
 |        /    C  C    C          C              /
 |       /       C  C              C            /

[...]

Density initialized from wave functions
   /       |               C  C                   |
  /        |  C  C         C   C                  |
 *         |        C  C      C                   |
 |         |  C      C         C                  |
 |         .--C------C--C-------CC----------------.
 |        /    C  C    C          C              /
 |       /        C C              C            /

[...]

Density initialized from wave functions
   /       |               C  C                   |
  /        |  C  C         C   C                  |
 *         |        C  C      C                   |
 |         |  C      C         C                  |
 |         .--C------C--C-------CC----------------.
 |        /    C  C    C          C              /
 |       /        C C              C            /

[...]

System changes: positions

Initializing position-dependent things.

Density initialized from wave functions
   /       |               C  C                   |
  /        |  C  C         C   C                  |
 *         |        C  C      C                   |
 |         |  C      C         CC                 |
 |         .--C------C--C--------C----------------.
 |        /    C  C    C          C              /
 |       /        C C              C            /

Positions:
   0 C      7.850727   11.472029    5.529125
   1 C      7.895296   10.039666    5.425789
   2 C      6.908401    3.727009    4.483349
   3 C      5.418503    5.569273    4.541758
   4 C      9.342271    9.941066    5.089755
   5 C     11.474986    6.698707    4.526353
   6 C      6.590223    6.412423    5.081401
   7 C      9.525494   11.413063    5.131687
   8 C      3.401807    7.222069    4.519843
   9 C     10.782493    7.780302    4.702700
  10 C      8.744922   12.535168    5.372898
  11 C      3.083775    8.443709    5.077806
  12 C      7.892649    4.553776    4.815378
  13 C      6.872689    9.122489    5.537321
  14 C     12.814697    4.455745    4.210101
  15 C      4.096945    9.215720    5.692010
  16 C      6.338648    7.800158    5.408211
  17 C     10.134539    8.884209    4.877540
  18 C     12.162239    5.591438    4.353005
  19 C      5.470607    8.867590    5.686063
  20 C      2.728874    9.651694    5.814742
  21 C      4.198666    6.267099    4.384691
  22 C      5.724758    4.230767    4.245415
  23 C      7.857680    5.803218    5.193532

Unit cell:
           periodic     x           y           z      points  spacing
  1. axis:    yes   16.000000    0.000000    0.000000    80     0.2000
  2. axis:    yes    0.000000   16.000000    0.000000    80     0.2000
  3. axis:    yes    0.000000    0.000000   10.000000    48     0.2083

Effective grid spacing dv^(1/3) = 0.2027

                     log10-error:    total        iterations:
           time      wfs    density  energy       fermi  poisson
iter:   1  14:40:54          +inf  -175.963400    2      4
iter:   2  14:40:54         -3.25  -175.962986    2      1
iter:   3  14:40:55         -3.40  -175.963043    2      1
iter:   4  14:40:55         -3.63  -175.963430    2      1
iter:   5  14:40:56         -3.81  -175.962998    2      1
iter:   6  14:40:56         -3.99  -175.963419    2      1
iter:   7  14:40:57         -3.78  -175.963364    2      1
iter:   8  14:40:57         -4.38  -175.963440    2      1

Converged after 8 iterations.

Dipole moment: (-0.659005, -0.294425, -0.015000) |e|*Ang

Energy contributions relative to reference atoms: (reference = -24663.074771)

Kinetic:       +104.495002
Potential:     -112.861939
External:        +0.000000
XC:            -170.473094
Entropy (-ST):   -0.180605
Local:           +2.966894
Free energy:   -176.053742
Extrapolated:  -175.963440

Fermi level: -4.51418

 Band  Eigenvalues  Occupancy
    0    -23.81992    2.00000
    1    -23.29826    2.00000
    2    -22.94825    2.00000
    3    -22.40652    2.00000
    4    -20.44278    2.00000
    5    -20.27136    2.00000
    6    -19.65414    2.00000
    7    -19.45367    2.00000
    8    -18.81578    2.00000
    9    -18.76417    2.00000
   10    -17.83898    2.00000
   11    -17.15411    2.00000
   12    -16.77178    2.00000
   13    -16.46844    2.00000
   14    -15.91068    2.00000
   15    -15.16722    2.00000
   16    -14.89105    2.00000
   17    -14.30864    2.00000
   18    -13.56217    2.00000
   19    -13.10475    2.00000
   20    -12.42087    2.00000
   21    -12.18366    2.00000
   22    -11.93472    2.00000
   23    -11.14129    2.00000
   24    -10.89849    2.00000
   25    -10.60802    2.00000
   26    -10.25762    2.00000
   27    -10.05145    2.00000
   28     -9.87626    2.00000
   29     -9.50572    2.00000
   30     -9.16201    2.00000
   31     -8.90698    2.00000
   32     -8.83596    2.00000
   33     -8.76106    2.00000
   34     -8.41566    2.00000
   35     -8.20531    2.00000
   36     -7.60652    2.00000
   37     -7.34985    2.00000
   38     -7.25824    2.00000
   39     -7.20756    2.00000
   40     -6.74535    2.00000
   41     -6.51119    2.00000
   42     -6.13089    2.00000
   43     -5.89183    2.00000
   44     -5.66235    1.99998
   45     -5.34510    1.99951
   46     -5.02988    1.98855
   47     -4.69769    1.72475
   48     -4.32359    0.25889
   49     -4.07975    0.02563
   50     -3.84174    0.00240
   51     -3.62362    0.00027
   52     -3.40306    0.00003
   53     -2.69830    0.00000
   54     -2.31981    0.00000
   55     -1.40126    0.00000
   56     -1.29489    0.00000
   57     -1.03460    0.00000
   58     -0.79701    0.00000
   59     -0.27875    0.00000
[...]
   83      8.16921    0.00000
   84      8.29756    0.00000
   85      8.38578    0.00000
   86      8.63117    0.00000
   87      8.73439    0.00000
   88      8.87086    0.00000
   89      9.06382    0.00000
   90      9.21899    0.00000
   91      9.29494    0.00000
   92      9.45696    0.00000
   93      9.47402    0.00000
   94      9.73876    0.00000
   95      9.90255    0.00000
   96      9.93792    0.00000
   97     10.00715    0.00000

Forces in eV/Ang:
  0 C    -0.01104    0.01802    0.02219
  1 C     0.05779   -0.02320   -0.00751
  2 C     0.00572    0.03878    0.02383
  3 C     0.02841   -0.05741   -0.02137
  4 C    -0.01867   -0.01371    0.04935
  5 C    -0.00252   -0.03741    0.00451
  6 C    -0.04178    0.01355   -0.04492
  7 C     0.03259    0.01541   -0.01535
  8 C     0.03608   -0.03349    0.01318
  9 C     0.00225   -0.02500   -0.00184
 10 C     0.03372   -0.00414    0.02939
 11 C    -0.01920    0.04473    0.03120
 12 C    -0.02441    0.06054   -0.00988
 13 C    -0.03945   -0.00379   -0.01443
 14 C    -0.00941    0.04499   -0.00375
 15 C    -0.03465    0.01113    0.01280
 16 C    -0.04824   -0.02360    0.00239
 17 C    -0.00842    0.04174   -0.00256
 18 C    -0.03499   -0.01879    0.02405
 19 C     0.05066   -0.01735   -0.02783
 20 C     0.00694   -0.00988   -0.05762
 21 C    -0.01743    0.00716   -0.00789
 22 C     0.04592   -0.01208    0.03767
 23 C     0.00956   -0.05218   -0.03272