User:   esb@s65n32.grendel.cscaa.dk
Date:   Thu Nov  9 11:13:07 2017
Arch:   x86_64
Pid:    23803
Python: 2.7.13
gpaw:   /home/esb/DFT/gpaw_git/gpaw
_gpaw:  /home/esb/DFT/gpaw_git/build/bin.linux-x86_64-2.7/gpaw-python
ase:    /home/esb/DFT/ase_git/ase (version 3.15.0b1)
numpy:  /comm/swstack/core/python/2.7.13/lib/python2.7/site-packages/numpy (version 1.13.3)
scipy:  /comm/swstack/core/python/2.7.13/lib/python2.7/site-packages/scipy (version 0.19.1)
units:  Angstrom and eV
cores:  16
Extra parameters: {'blacs': True}

Input parameters:
  basis: dzp
  gpts: [80 80 48]
  kpts: [1 1 1]
  maxiter: 99
  mixer: {backend: pulay,
          beta: 0.05,
          method: separate,
          nmaxold: 5,
          weight: 75}
  mode: lcao
  nbands: -50
  occupations: {name: fermi-dirac,
                width: 0.1}
  poissonsolver: {eps: 1e-07,
                  name: fd,
                  nn: 3,
                  relax: GS}
  xc: PBE

System changes: positions, numbers, cell, pbc, initial_charges, initial_magmoms

Initialize ...

C-setup:
  name: Carbon
  id: 4aa54d4b901d75f77cc0ea3eec22967b
  Z: 6
  valence: 4
  core: 2
  charge: 0.0
  file: /home/esb/DFT/gpaw-setups-0.8.7929/C.PBE.gz
  cutoffs: 0.64(comp), 1.14(filt), 1.14(core), lmax=2
  valence states:
                energy  radius
    2s(2.00)   -13.751   0.635
    2p(2.00)    -5.284   0.635
    *s          13.461   0.635
    *p          21.927   0.635
    *d           0.000   0.635

  LCAO basis set for C:
    Name: dzp
    File: /home/esb/DFT/gpaw-setups-0.8.7929/C.dzp.basis.gz
    Number of radial functions: 5
    Number of spherical harmonics: 13
      l=0, rc=5.5469 Bohr: 2s-sz confined orbital
      l=1, rc=6.6719 Bohr: 2p-sz confined orbital
      l=0, rc=3.0312 Bohr: 2s-dz split-valence wave
      l=1, rc=3.7500 Bohr: 2p-dz split-valence wave
      l=2, rc=6.6719 Bohr: d-type Gaussian polarization

Reference energy: -24663.074771

Spin-paired calculation

Occupation numbers:
  Fermi-Dirac: width=0.1000 eV

Convergence criteria:
  Maximum total energy change: 0.0005 eV / electron
  Maximum integral of absolute density change: 0.0001 electrons
  Maximum integral of absolute eigenstate change: 4e-08 eV^2
  Maximum number of iterations: 99

Symmetries present (total): 1

  ( 1  0  0)
  ( 0  1  0)
  ( 0  0  1)

1 k-point (Gamma)
1 k-point in the irreducible part of the Brillouin zone
       k-points in crystal coordinates                weights
   0:     0.00000000    0.00000000    0.00000000          1/1

Wave functions: LCAO
  Diagonalizer: Serial LAPACK
  Atomic Correction: dense with blas
  Datatype: float
  Eigensolver: None

LCAO using direct dense diagonalizer

Densities:
  Coarse grid: 80*80*48 grid
  Fine grid: 160*160*96 grid
  Total Charge: 0.000000

Density mixing:
  Method: separate
  Backend: pulay
  Linear mixing parameter: 0.05
  Mixing with 5 old densities
  Damping of long wave oscillations: 75

Hamiltonian:
  XC and Coulomb potentials evaluated on a 160*160*96 grid
  Using the PBE Exchange-Correlation functional
  Interpolation: tri-quintic (5. degree polynomial)
  Poisson solver: Gauss-Seidel solver with 6 multi-grid levels
    Coarsest grid: 5 x 5 x 3 points
    Stencil: 6*3+1=19 point O(h^6) finite-difference Laplacian
    Max iterations: 1000
    Tolerance: 1.000000e-07

Total number of cores used: 16
Domain decomposition: 2 x 4 x 2

Number of atoms: 24
Number of atomic orbitals: 312
Number of bands in calculation: 98
Bands to converge: occupied states only
Number of valence electrons: 96

... initialized

Initializing position-dependent things.

Density initialized from atomic densities
     /     |        C  C                          |
    /      |             C  C                     |
   /       |   C  C           C                   |
  /        |        C   C                         |
 *         |  C           C   C                   |
 |         |    C  C            C                 |
 |         .---------C---C-----C------------------.
 |        /    C           C                     /
 |       /       C  C  C  C                     /

Positions:
   0 C     10.715932    5.805012    5.393940
   1 C      9.254909    3.733691    4.872528
   2 C      9.547810    5.049461    5.246283
   3 C     10.809828    7.008931    5.740239
   4 C      8.125382    3.193699    4.772432
   5 C      9.771382    7.891246    6.055786
   6 C      8.308609    5.846477    5.541365
   7 C      6.878563    3.785099    5.003931
   8 C      8.419114    7.244377    5.946798
   9 C      6.994755    5.226605    5.413361
  10 C      9.694564    9.229946    6.455859
  11 C      5.548347    3.356786    4.939193
  12 C      5.614277    8.442918    8.716481
  13 C      4.212881    6.340766    8.156237
  14 C      5.251692    7.270849    8.044205
  15 C      6.599858    9.185774    8.482055
  16 C      4.011666    5.320773    7.451561
  17 C      7.571650    9.028658    7.488399
  18 C      6.192189    6.940811    6.919720
  19 C      4.778885    4.870777    6.371383
  20 C      7.338870    7.802937    6.650325
  21 C      5.954266    5.764609    6.090998
  22 C      8.712174    9.737909    7.095658
  23 C      4.709775    3.790385    5.485327

Unit cell:
           periodic     x           y           z      points  spacing
  1. axis:    yes   16.000000    0.000000    0.000000    80     0.2000
  2. axis:    yes    0.000000   16.000000    0.000000    80     0.2000
  3. axis:    yes    0.000000    0.000000   10.000000    48     0.2083

Effective grid spacing dv^(1/3) = 0.2027

                     log10-error:    total        iterations:
           time      wfs    density  energy       fermi  poisson
iter:   1  11:13:09          +inf  -191.184585    2      6
iter:   2  11:13:10         -0.90  -190.231282    4      3
iter:   3  11:13:11         -0.93  -185.845688    27     4
iter:   4  11:13:11         -1.46  -185.502499    4      3
iter:   5  11:13:12         -1.63  -185.613484    4      3
iter:   6  11:13:13         -1.84  -185.536048    4      3
iter:   7  11:13:14         -2.24  -185.524032    2      2
iter:   8  11:13:15         -2.27  -185.535650    3      2
iter:   9  11:13:15         -2.73  -185.532643    2      1
iter:  10  11:13:16         -2.77  -185.519298    2      2
iter:  11  11:13:17         -3.05  -185.523788    2      1
iter:  12  11:13:18         -3.09  -185.526728    2      1
iter:  13  11:13:18         -3.26  -185.521164    1      1
iter:  14  11:13:19         -3.30  -185.528021    2      1
iter:  15  11:13:20         -3.44  -185.520070    1      1
iter:  16  11:13:20         -3.53  -185.509064    2      1
iter:  17  11:13:21         -3.75  -185.519811    1      1
iter:  18  11:13:22         -3.86  -185.518427    2      1
iter:  19  11:13:23         -3.87  -185.512600    2      1
iter:  20  11:13:23         -4.44  -185.518272    1      1

Converged after 20 iterations.

Dipole moment: (-0.047810, -0.041529, 0.849443) |e|*Ang

Energy contributions relative to reference atoms: (reference = -24663.074771)

Kinetic:       +150.456890
Potential:     -150.511531
External:        +0.000000
XC:            -188.574804
Entropy (-ST):   -0.000879
Local:           +3.111613
Free energy:   -185.518711
Extrapolated:  -185.518272

Fermi level: -4.11927

 Band  Eigenvalues  Occupancy
    0    -22.76283    2.00000
    1    -21.99928    2.00000
    2    -21.58721    2.00000
    3    -20.78847    2.00000
    4    -20.45258    2.00000
    5    -20.14617    2.00000
    6    -19.53717    2.00000
    7    -18.73648    2.00000
    8    -18.51527    2.00000
    9    -17.85210    2.00000
   10    -17.72613    2.00000
   11    -17.50894    2.00000
   12    -15.78708    2.00000
   13    -15.51416    2.00000
   14    -15.21814    2.00000
   15    -15.01780    2.00000
   16    -14.67188    2.00000
   17    -13.17886    2.00000
   18    -12.70901    2.00000
   19    -12.53188    2.00000
   20    -12.49704    2.00000
   21    -12.32787    2.00000
   22    -11.96730    2.00000
   23    -11.45987    2.00000
   24    -11.29209    2.00000
   25    -10.98909    2.00000
   26    -10.67309    2.00000
   27    -10.57751    2.00000
   28     -9.88736    2.00000
   29     -9.71314    2.00000
   30     -9.43053    2.00000
   31     -9.38245    2.00000
   32     -9.14622    2.00000
   33     -8.46228    2.00000
   34     -8.14855    2.00000
   35     -7.99879    2.00000
   36     -7.04906    2.00000
   37     -6.94758    2.00000
   38     -6.51721    2.00000
   39     -6.48416    2.00000
   40     -6.44821    2.00000
   41     -6.37611    2.00000
   42     -6.28664    2.00000
   43     -6.21850    2.00000
   44     -6.13729    2.00000
   45     -5.90781    2.00000
   46     -5.24604    1.99997
   47     -4.96507    1.99958
   48     -3.26072    0.00037
   49     -3.08985    0.00007
   50     -2.87489    0.00001
   51     -2.63262    0.00000
   52     -2.43308    0.00000
   53     -2.28130    0.00000
   54     -2.04862    0.00000
   55     -1.71382    0.00000
   56     -1.19384    0.00000
   57     -0.97453    0.00000
   58     -0.86175    0.00000
   59      0.73762    0.00000
[...]
   83      9.28866    0.00000
   84      9.33676    0.00000
   85      9.46384    0.00000
   86      9.46694    0.00000
   87      9.72689    0.00000
   88      9.73504    0.00000
   89      9.91193    0.00000
   90      9.92398    0.00000
   91      9.94027    0.00000
   92     10.14203    0.00000
   93     10.17370    0.00000
   94     10.52009    0.00000
   95     10.59877    0.00000
   96     10.67970    0.00000
   97     10.69722    0.00000

Forces in eV/Ang:
  0 C     0.09468    0.14937    0.05145
  1 C     0.16952    0.10833    0.02501
  2 C    -0.19030   -0.05975   -0.16641
  3 C     0.02703   -0.04717   -0.19289
  4 C    -0.34751    0.08647   -0.12365
  5 C     0.13026    0.35588   -0.85547
  6 C     0.52277   -0.00363   -0.82290
  7 C     1.10297   -0.00871   -1.50083
  8 C     1.51202   -1.32264   -0.02675
  9 C     3.59950   -2.32799   -1.14956
 10 C    -0.91308    0.33395    0.83468
 11 C    16.89428   -8.96452  -10.81536
 12 C     0.10560    0.13265    0.04253
 13 C     0.05847    0.17206    0.10233
 14 C    -0.13926   -0.08632   -0.22090
 15 C    -0.17888    0.07977   -0.07780
 16 C     0.03258   -0.08537   -0.36715
 17 C    -0.45666    0.66745   -0.45683
 18 C    -0.72136    0.61231   -0.02671
 19 C    -1.34629    1.23684    0.11312
 20 C    -1.11465    0.07267    1.68160
 21 C    -2.96206    1.07376    3.09944
 22 C     1.00445   -0.65314   -0.42015
 23 C   -16.84404    8.52408   11.18711

System changes: positions

[...]

Density initialized from wave functions
     /     |        C  C                          |
    /      |             C  C                     |
   /       |   C  C           C                   |
  /        |        C   C                         |
 *         |  C           C   C                   |
 |         |    C  C            C                 |
 |         .---------C---C-----C------------------.
 |        /    C           C                     /
 |       /       C  C  C  C                     /

[...]

Density initialized from wave functions
     /     |        C  C                          |
    /      |             C  C                     |
   /       |   C  C           C                   |
  /        |        C   C                         |
 *         |  C           C   C                   |
 |         |   C   C            C                 |
 |         .---------C---C-----C------------------.
 |        /    C            C                    /
 |       /       C  C  C  C                     /

[...]

Density initialized from wave functions
     /     |        C  C                          |
    /      |             C  C                     |
   /       |   C  C           C                   |
  /        |        C   C                         |
 *         |  C           C   C                   |
 |         |   C   C            C                 |
 |         .---------C---C-----C------------------.
 |        /    C            C                    /
 |       /       C  C     C                     /
 |      /              C                       /

[...]

Density initialized from wave functions
     /     |        C  C                          |
    /      |             C  C                     |
   /       |   C  C           C                   |
  /        |        C   C                         |
 *         |  C           C   C                   |
 |         |   C   C            C                 |
 |         .---------C---C-----C------------------.
 |        /    C            C                    /
 |       /       C  C     C                     /
 |      /              C                       /

[...]

Density initialized from wave functions
     /     |        C  C                          |
    /      |             C  C                     |
   /       |   C  C           C                   |
  /        |        C   C                         |
 *         |  C           C   C                   |
 |         |   C   C            C                 |
 |         .----------C--C-----C------------------.
 |        /    C            C                    /
 |       /       C  C     C                     /
 |      /              C                       /

[...]

Density initialized from wave functions
     /     |        C  C                          |
    /      |             C  C                     |
   /       |   C  C                               |
  /        |        C   C     C                   |
 *         |  C           C   C                   |
 |         |    C  C            C                 |
 |         .----------C--C-----C------------------.
 |        /    C            C                    /
 |       /       C  C     C                     /
 |      /              C                       /

[...]

Density initialized from wave functions
     /     |        C C                           |
    /      |             C  C                     |
   /       |   C  C                               |
  /        |        C   C     C                   |
 *         |  C           C   C                   |
 |         |    C  C            C                 |
 |         .----------C--C-----C------------------.
 |        /    C            C                    /
 |       /       C  C     C                     /
 |      /              C                       /

[...]

System changes: positions

Initializing position-dependent things.

Density initialized from wave functions
     /     |        C  C                          |
    /      |             C   C                    |
   /       |   C  C            C                  |
  /        |        C   C                         |
 *         |  C           C   C                   |
 |         |    C  C            C                 |
 |         .----------C--C-----C------------------.
 |        /    C            C                    /
 |       /       C  C     C                     /
 |      /              C                       /

Positions:
   0 C     10.692401    5.970584    4.880153
   1 C      9.255071    3.886307    4.346313
   2 C      9.564880    5.142666    4.880196
   3 C     10.811222    7.104521    5.404637
   4 C      8.159939    3.277575    4.418648
   5 C      9.844170    7.819532    6.118883
   6 C      8.409757    5.753245    5.621567
   7 C      6.989294    3.696174    5.058286
   8 C      8.549781    7.066304    6.239489
   9 C      7.146232    5.035173    5.719325
  10 C      9.799762    9.063655    6.756290
  11 C      5.708739    3.158161    5.223853
  12 C      5.357577    8.754561    8.426104
  13 C      3.906197    6.683597    7.870640
  14 C      5.037905    7.507867    7.875647
  15 C      6.435183    9.389219    8.317726
  16 C      3.775784    5.574255    7.298115
  17 C      7.584756    8.996214    7.623858
  18 C      6.179866    6.917527    7.096930
  19 C      4.726908    4.880772    6.543396
  20 C      7.436440    7.646826    6.979654
  21 C      6.031018    5.618635    6.452140
  22 C      8.840903    9.566706    7.392013
  23 C      4.748184    3.663144    5.855929

Unit cell:
           periodic     x           y           z      points  spacing
  1. axis:    yes   16.000000    0.000000    0.000000    80     0.2000
  2. axis:    yes    0.000000   16.000000    0.000000    80     0.2000
  3. axis:    yes    0.000000    0.000000   10.000000    48     0.2083

Effective grid spacing dv^(1/3) = 0.2027

                     log10-error:    total        iterations:
           time      wfs    density  energy       fermi  poisson
iter:   1  11:18:44          +inf  -188.486317    1      4
iter:   2  11:18:45         -3.17  -188.486600    1      1
iter:   3  11:18:46         -3.27  -188.487421    1      1
iter:   4  11:18:46         -3.70  -188.486949    1      1
iter:   5  11:18:47         -3.97  -188.486931    1      1
iter:   6  11:18:48         -3.85  -188.485974    1      1
iter:   7  11:18:49         -4.45  -188.485983    1      1

Converged after 7 iterations.

Dipole moment: (-0.003323, -0.004941, 0.341979) |e|*Ang

Energy contributions relative to reference atoms: (reference = -24663.074771)

Kinetic:       +117.729570
Potential:     -126.724968
External:        +0.000000
XC:            -182.576499
Entropy (-ST):   -0.000388
Local:           +3.086108
Free energy:   -188.486177
Extrapolated:  -188.485983

Fermi level: -4.17090

 Band  Eigenvalues  Occupancy
    0    -22.46426    2.00000
    1    -21.67002    2.00000
    2    -21.66374    2.00000
    3    -20.54334    2.00000
    4    -20.54087    2.00000
    5    -19.83139    2.00000
    6    -19.43380    2.00000
    7    -18.85467    2.00000
    8    -18.00748    2.00000
    9    -17.99945    2.00000
   10    -17.65809    2.00000
   11    -17.65057    2.00000
   12    -15.65761    2.00000
   13    -15.65332    2.00000
   14    -15.09082    2.00000
   15    -14.84861    2.00000
   16    -14.84745    2.00000
   17    -13.29549    2.00000
   18    -12.51644    2.00000
   19    -12.47516    2.00000
   20    -12.46417    2.00000
   21    -12.43972    2.00000
   22    -12.11508    2.00000
   23    -11.36468    2.00000
   24    -11.35769    2.00000
   25    -10.83915    2.00000
   26    -10.83129    2.00000
   27    -10.36252    2.00000
   28     -9.75838    2.00000
   29     -9.50365    2.00000
   30     -9.49952    2.00000
   31     -9.35755    2.00000
   32     -9.35483    2.00000
   33     -8.28853    2.00000
   34     -8.28505    2.00000
   35     -7.82462    2.00000
   36     -6.90024    2.00000
   37     -6.69494    2.00000
   38     -6.49682    2.00000
   39     -6.41697    2.00000
   40     -6.41220    2.00000
   41     -6.29559    2.00000
   42     -6.29020    2.00000
   43     -6.17809    2.00000
   44     -6.17119    2.00000
   45     -6.14324    2.00000
   46     -5.17736    1.99991
   47     -5.17403    1.99991
   48     -3.17324    0.00009
   49     -3.09277    0.00004
   50     -3.08376    0.00004
   51     -2.64420    0.00000
   52     -2.46073    0.00000
   53     -2.44591    0.00000
   54     -2.19828    0.00000
   55     -2.19567    0.00000
   56     -1.06060    0.00000
   57     -1.05876    0.00000
   58     -0.89976    0.00000
   59      0.60986    0.00000
[...]
   83      9.36462    0.00000
   84      9.37302    0.00000
   85      9.38552    0.00000
   86      9.39582    0.00000
   87      9.49573    0.00000
   88      9.83697    0.00000
   89      9.83967    0.00000
   90      9.96817    0.00000
   91      9.97576    0.00000
   92      9.98238    0.00000
   93     10.25260    0.00000
   94     10.52186    0.00000
   95     10.52340    0.00000
   96     10.55552    0.00000
   97     10.88696    0.00000

Forces in eV/Ang:
  0 C    -0.00017   -0.06100   -0.03766
  1 C     0.05774    0.06486   -0.00048
  2 C    -0.01467    0.00804    0.01687
  3 C    -0.00115    0.03655    0.00801
  4 C    -0.01726   -0.03736   -0.01054
  5 C    -0.00518   -0.02041    0.00791
  6 C    -0.00444    0.00945    0.02416
  7 C     0.00972    0.00051   -0.01021
  8 C    -0.00499   -0.00637    0.00705
  9 C    -0.00486    0.01320   -0.02987
 10 C     0.03199   -0.01788   -0.00447
 11 C    -0.02011    0.01007    0.02088
 12 C    -0.06762   -0.04871    0.00317
 13 C     0.03179    0.06515    0.04017
 14 C     0.02572   -0.00537   -0.00509
 15 C     0.02633   -0.00327   -0.02861
 16 C    -0.03025   -0.03263    0.00589
 17 C     0.00965   -0.01617   -0.00967
 18 C     0.00535   -0.01152    0.02293
 19 C    -0.01973    0.00976    0.00349
 20 C     0.00486    0.00254    0.00393
 21 C    -0.01012    0.02455   -0.00721
 22 C     0.00284   -0.01764    0.01896
 23 C     0.02153   -0.00682   -0.01224