User:   esb@s65n31.grendel.cscaa.dk
Date:   Thu Nov  9 11:13:10 2017
Arch:   x86_64
Pid:    17589
Python: 2.7.13
gpaw:   /home/esb/DFT/gpaw_git/gpaw
_gpaw:  /home/esb/DFT/gpaw_git/build/bin.linux-x86_64-2.7/gpaw-python
ase:    /home/esb/DFT/ase_git/ase (version 3.15.0b1)
numpy:  /comm/swstack/core/python/2.7.13/lib/python2.7/site-packages/numpy (version 1.13.3)
scipy:  /comm/swstack/core/python/2.7.13/lib/python2.7/site-packages/scipy (version 0.19.1)
units:  Angstrom and eV
cores:  16
Extra parameters: {'blacs': True}

Input parameters:
  basis: dzp
  gpts: [80 80 48]
  kpts: [1 1 1]
  maxiter: 99
  mixer: {backend: pulay,
          beta: 0.05,
          method: separate,
          nmaxold: 5,
          weight: 75}
  mode: lcao
  nbands: -50
  occupations: {name: fermi-dirac,
                width: 0.1}
  poissonsolver: {eps: 1e-07,
                  name: fd,
                  nn: 3,
                  relax: GS}
  xc: PBE

System changes: positions, numbers, cell, pbc, initial_charges, initial_magmoms

Initialize ...

C-setup:
  name: Carbon
  id: 4aa54d4b901d75f77cc0ea3eec22967b
  Z: 6
  valence: 4
  core: 2
  charge: 0.0
  file: /home/esb/DFT/gpaw-setups-0.8.7929/C.PBE.gz
  cutoffs: 0.64(comp), 1.14(filt), 1.14(core), lmax=2
  valence states:
                energy  radius
    2s(2.00)   -13.751   0.635
    2p(2.00)    -5.284   0.635
    *s          13.461   0.635
    *p          21.927   0.635
    *d           0.000   0.635

  LCAO basis set for C:
    Name: dzp
    File: /home/esb/DFT/gpaw-setups-0.8.7929/C.dzp.basis.gz
    Number of radial functions: 5
    Number of spherical harmonics: 13
      l=0, rc=5.5469 Bohr: 2s-sz confined orbital
      l=1, rc=6.6719 Bohr: 2p-sz confined orbital
      l=0, rc=3.0312 Bohr: 2s-dz split-valence wave
      l=1, rc=3.7500 Bohr: 2p-dz split-valence wave
      l=2, rc=6.6719 Bohr: d-type Gaussian polarization

Reference energy: -24663.074771

Spin-paired calculation

Occupation numbers:
  Fermi-Dirac: width=0.1000 eV

Convergence criteria:
  Maximum total energy change: 0.0005 eV / electron
  Maximum integral of absolute density change: 0.0001 electrons
  Maximum integral of absolute eigenstate change: 4e-08 eV^2
  Maximum number of iterations: 99

Symmetries present (total): 1

  ( 1  0  0)
  ( 0  1  0)
  ( 0  0  1)

1 k-point (Gamma)
1 k-point in the irreducible part of the Brillouin zone
       k-points in crystal coordinates                weights
   0:     0.00000000    0.00000000    0.00000000          1/1

Wave functions: LCAO
  Diagonalizer: Serial LAPACK
  Atomic Correction: dense with blas
  Datatype: float
  Eigensolver: None

LCAO using direct dense diagonalizer

Densities:
  Coarse grid: 80*80*48 grid
  Fine grid: 160*160*96 grid
  Total Charge: 0.000000

Density mixing:
  Method: separate
  Backend: pulay
  Linear mixing parameter: 0.05
  Mixing with 5 old densities
  Damping of long wave oscillations: 75

Hamiltonian:
  XC and Coulomb potentials evaluated on a 160*160*96 grid
  Using the PBE Exchange-Correlation functional
  Interpolation: tri-quintic (5. degree polynomial)
  Poisson solver: Gauss-Seidel solver with 6 multi-grid levels
    Coarsest grid: 5 x 5 x 3 points
    Stencil: 6*3+1=19 point O(h^6) finite-difference Laplacian
    Max iterations: 1000
    Tolerance: 1.000000e-07

Total number of cores used: 16
Domain decomposition: 2 x 4 x 2

Number of atoms: 24
Number of atomic orbitals: 312
Number of bands in calculation: 98
Bands to converge: occupied states only
Number of valence electrons: 96

... initialized

Initializing position-dependent things.

Density initialized from atomic densities
  /        |     C  C  C C                        |
 *         |    C         C    C                  |
 |         |     C C  C  C        C               |
 |         C-----------C----------C---------------.
 |        /C                C  C                 /
 |       /   C  C   C              C            /
 |      /             C   C                    /

Positions:
   0 C      9.973854    9.361838    5.266605
   1 C      2.546639    6.112033    5.472372
   2 C     11.109510    8.736560    4.813124
   3 C      7.755534    3.983360    4.009813
   4 C      8.952012    4.366534    3.928409
   5 C      5.237694    4.324388    4.471930
   6 C      6.585516    4.702559    4.423678
   7 C     12.237015    6.343361    3.754586
   8 C      3.996697    4.330604    4.665500
   9 C      9.508981    5.654185    4.253378
  10 C     10.816857    6.227426    4.128124
  11 C      2.860389    4.956718    5.051592
  12 C     11.465383    7.421036    4.331556
  13 C      3.768232   11.167211    4.941976
  14 C      6.704463    7.641744    4.846146
  15 C      7.328004    6.296022    4.857131
  16 C      5.356259    7.954801    4.904032
  17 C      3.669239    9.889271    4.986511
  18 C      7.592231   10.028324    4.760504
  19 C      7.766382    8.661297    4.790218
  20 C      6.032913   12.054091    4.818448
  21 C      4.754116   12.072949    4.918193
  22 C      4.369973    8.753078    4.938765
  23 C      7.031688   11.163748    4.790239

Unit cell:
           periodic     x           y           z      points  spacing
  1. axis:    yes   16.000000    0.000000    0.000000    80     0.2000
  2. axis:    yes    0.000000   16.000000    0.000000    80     0.2000
  3. axis:    yes    0.000000    0.000000   10.000000    48     0.2083

Effective grid spacing dv^(1/3) = 0.2027

                     log10-error:    total        iterations:
           time      wfs    density  energy       fermi  poisson
iter:   1  11:13:12          +inf  -175.171030    3      6
iter:   2  11:13:13         -0.88  -173.675590    3      3
iter:   3  11:13:13         -0.92  -171.251654    32     3
iter:   4  11:13:14         -1.04  -170.868098    3      2
iter:   5  11:13:14         -1.08  -169.897957    35     4
iter:   6  11:13:15         -1.32  -169.854361    34     3
iter:   7  11:13:15         -1.52  -169.798813    3      2
iter:   8  11:13:16         -1.66  -169.724577    3      3
iter:   9  11:13:16         -1.79  -169.696272    3      2
iter:  10  11:13:17         -1.93  -169.674768    3      3
iter:  11  11:13:17         -2.11  -169.664234    3      2
iter:  12  11:13:18         -2.20  -169.665737    3      2
iter:  13  11:13:18         -2.47  -169.659362    3      2
iter:  14  11:13:19         -2.78  -169.653566    3      2
iter:  15  11:13:19         -2.93  -169.666410    3      1
iter:  16  11:13:20         -3.03  -169.654027    2      1
iter:  17  11:13:20         -3.22  -169.645536    2      1
iter:  18  11:13:21         -3.42  -169.652389    2      1
iter:  19  11:13:21         -3.57  -169.646998    2      1
iter:  20  11:13:22         -3.70  -169.648115    2      1
iter:  21  11:13:22         -3.81  -169.651582    2      1
iter:  22  11:13:22         -3.90  -169.648745    2      1
iter:  23  11:13:23         -4.12  -169.650398    2      1

Converged after 23 iterations.

Dipole moment: (-0.055260, 0.302464, -0.220495) |e|*Ang

Energy contributions relative to reference atoms: (reference = -24663.074771)

Kinetic:        +73.139170
Potential:      -88.718505
External:        +0.000000
XC:            -156.817633
Entropy (-ST):   -0.428742
Local:           +2.960941
Free energy:   -169.864768
Extrapolated:  -169.650398

Fermi level: -4.85798

 Band  Eigenvalues  Occupancy
    0    -22.89901    2.00000
    1    -21.43704    2.00000
    2    -21.04177    2.00000
    3    -20.71351    2.00000
    4    -20.30242    2.00000
    5    -19.95723    2.00000
    6    -19.06350    2.00000
    7    -18.64316    2.00000
    8    -18.52025    2.00000
    9    -18.10957    2.00000
   10    -17.62165    2.00000
   11    -17.08327    2.00000
   12    -16.56692    2.00000
   13    -16.20280    2.00000
   14    -15.15457    2.00000
   15    -14.41689    2.00000
   16    -14.25145    2.00000
   17    -13.99537    2.00000
   18    -13.63708    2.00000
   19    -13.35658    2.00000
   20    -12.73396    2.00000
   21    -12.47509    2.00000
   22    -10.99893    2.00000
   23    -10.57101    2.00000
   24     -9.90924    2.00000
   25     -9.79085    2.00000
   26     -9.71931    2.00000
   27     -9.29246    2.00000
   28     -9.19009    2.00000
   29     -8.91863    2.00000
   30     -8.80556    2.00000
   31     -8.66169    2.00000
   32     -8.35523    2.00000
   33     -8.19442    2.00000
   34     -8.01136    2.00000
   35     -7.81997    2.00000
   36     -6.97420    2.00000
   37     -6.97002    2.00000
   38     -6.66626    2.00000
   39     -6.47351    2.00000
   40     -6.36996    2.00000
   41     -6.25000    2.00000
   42     -6.03681    1.99998
   43     -5.78675    1.99981
   44     -5.30407    1.97716
   45     -5.11382    1.85628
   46     -5.10408    1.84273
   47     -4.96204    1.47794
   48     -4.77814    0.62074
   49     -4.65152    0.22517
   50     -3.92729    0.00018
   51     -3.46308    0.00000
   52     -2.89688    0.00000
   53     -2.75121    0.00000
   54     -2.49274    0.00000
   55     -2.38223    0.00000
   56     -1.96933    0.00000
   57     -1.81902    0.00000
   58     -1.46156    0.00000
   59     -0.99643    0.00000
[...]
   83      8.52930    0.00000
   84      8.57951    0.00000
   85      8.66598    0.00000
   86      8.88771    0.00000
   87      9.00746    0.00000
   88      9.12032    0.00000
   89      9.25647    0.00000
   90      9.40597    0.00000
   91      9.43594    0.00000
   92      9.58657    0.00000
   93      9.62863    0.00000
   94      9.78705    0.00000
   95      9.93739    0.00000
   96     10.03026    0.00000
   97     10.13915    0.00000

Forces in eV/Ang:
  0 C     2.61865   -1.16032   -0.84091
  1 C    -1.45056    2.42858    1.02792
  2 C    -3.17768   -1.47226    0.08603
  3 C    -3.27489    0.25986    0.53474
  4 C     2.67717    4.11807    0.82570
  5 C     3.06243    0.61683   -0.18528
  6 C     1.06655   -0.37475   -0.23208
  7 C    -1.10741    0.45588    0.65790
  8 C    -0.99399    1.21615    0.57503
  9 C     0.12188   -2.63931   -0.93401
 10 C    -2.77913   -2.37784   -0.18027
 11 C     0.88754   -2.68606   -1.07255
 12 C     1.44277    3.92234    0.66566
 13 C     0.11360   -0.18492   -0.02542
 14 C     2.31872   -2.25970   -0.01598
 15 C    -0.78862   -0.40904   -1.04312
 16 C    -0.83200    0.02240   -0.01682
 17 C    -0.19417    0.16900    0.02029
 18 C     0.51895   -3.01420   -0.07408
 19 C     0.05960    2.17304    0.16929
 20 C     0.64058   -0.56890   -0.11398
 21 C    -0.46077    0.21532    0.09167
 22 C     0.19573   -0.16686   -0.02351
 23 C    -0.69894    1.74463    0.04615

System changes: positions

[...]

Density initialized from wave functions
  /        |     C  C  C C                        |
 *         |    C         C    C                  |
 |         |     C C  C  C       C                |
 |         C-----------C----------C---------------.
 |        /C                C  C                 /
 |       /   C   C  C              C            /
 |      /             C   C                    /

[...]

Density initialized from wave functions
  /        |     C  C  C C                        |
 *         |    C         C    C                  |
[...]
 |        /    C  C  C            C              /
 |       /           C          C               /
 |      /              C  C   C                /

[...]

Density initialized from wave functions
  /        |      C C  C  C                       |
 *         |   C C        C                       |
 |         |       C  C  C   C  C                 |
 |       C C---------------------C----------------.
 |        /    C  C  C            C              /
 |       /           C          C               /
 |      /              C  C   C                /

[...]

Density initialized from wave functions
  /        |      C C  C  C                       |
 *         |   C C        C                       |
 |         |       C  C  C   C  C                 |
 |       C .---------C-----------C----------------.
 |        /C   C  C               C              /
 |       /           C          C               /
 |      /              C  C   C                /

[...]

Density initialized from wave functions
  /        |      C C  C  C                       |
 *         |   C C        C                       |
 |         |       C  C  C   C  C                 |
 |       C .---------C-----------C----------------.
 |        / C  C  C               C              /
 |       /           C          C               /
 |      /              C  C   C                /

[...]

Density initialized from wave functions
  /        |      C C  C  C                       |
 *         |   C C        C                       |
 |         |       C  C  C   C  C                 |
 |       C .---------C-----------C----------------.
 |        / C  C  C               C              /
 |       /           C          C               /
 |      /              C  C   C                /

[...]

Density initialized from wave functions
   /       |        C                             |
  /        |      C    C  C                       |
 *         |   C C        C                       |
 |         |       C  C  C  C   C                 |
 |       C .---------C-----------C----------------.
 |        / C  C  C               C              /
 |       /           C          C               /
 |      /              C  C   C                /

[...]

Density initialized from wave functions
   /       |        C                             |
  /        |      C    C  C                       |
 *         |   C C        C C                     |
 |         |       C  C  C     C                  |
 |       C .---------C-----------C----------------.
 |        / C  C  C               C              /
 |       /           C          C               /
 |      /              C  C   C                /

[...]

Density initialized from wave functions
   /       |        C                             |
  /        |      C    C  C                       |
 *         |   C C        C                       |
 |         |       C  C  C  C  C                  |
 |       C .---------C-----------C----------------.
 |        / C  C  C               C              /
 |       /           C          C               /
 |      /              C  C   C                /

[...]

Density initialized from wave functions
   /       |        C                             |
  /        |      C    C  C                       |
 *         |    CC        C                       |
 |         |       C  C  C  C  C                  |
 |       C .---------C-----------C----------------.
 |        / C  C  C               C              /
 |       /           C          C               /
 |      /              C  C   C                /

[...]

Density initialized from wave functions
   /       |         C                            |
  /        |      C     C C                       |
 *         |    CC        C                       |
 |         |      C  C   C  C  C                  |
 |      C  .---------C-----------C----------------.
 |        / C  C  C               C              /
 |       /            C         C               /
 |      /               C  C  C                /

[...]

Density initialized from wave functions
   /       |         C                            |
  /        |      C     C C                       |
 *         |    CC        C                       |
 |         |      C  C   C  C  C                  |
 |         .---------C----------C-----------------.
 |      C / C  C  C               C              /
 |       /            C         C               /
 |      /               C  C  C                /

[...]

Density initialized from wave functions
   /       |         C                            |
  /        |    C C     C C                       |
 *         |     C        C                       |
 |         |      C  C   C  C  C                  |
 |         .---------C----------C-----------------.
 |      C / C  C  C               C              /
 |       /            C         C               /
 |      /               C  C  C                /

[...]

Density initialized from wave functions
   /       |         C                            |
  /        |    C C     C C                       |
 *         |     C        C                       |
 |         |      C  C   C  C  C                  |
 |         .---------C----------C-----------------.
 |      C / C  C  C               C              /
 |       /            C         C               /
 |      /               C  C  C                /

[...]

Density initialized from wave functions
   /       |         C                            |
  /        |    C C     C C                       |
 *         |     C        C                       |
 |         |      C  C   C  C  C                  |
 |         .---------C----------C-----------------.
 |      C / C  C  C               C              /
 |       /            C C       C               /
 |      /                  C  C                /

[...]

Density initialized from wave functions
   /       |         C                            |
  /        |    C C     C C                       |
 *         |     C        C                       |
 |         |      C  C   C  C  C                  |
 |         .---------C----------C-----------------.
 |      C / C  C  C               C              /
 |       /            C C       C               /
 |      /                  C  C                /

[...]

Density initialized from wave functions
   /       |         C                            |
  /        |    C C     C C                       |
 *         |     C        C                       |
 |         |      C  C   C  C  C                  |
 |         .---------C----------C-----------------.
 |      C /C   C  C               C              /
 |       /            C C       C               /
 |      /                  C  C                /

[...]

Density initialized from wave functions
   /       |         C                            |
  /        |    C C     C C                       |
 *         |     C        C                       |
 |         |      C  C   C  C  C                  |
 |         .---------C----------C-----------------.
 |      C /C   C  C               C              /
 |       /            C C       C               /
 |      /                  C  C                /

[...]

Density initialized from wave functions
   /       |         C                            |
  /        |    C C     C C                       |
 *         |     C        C                       |
 |         |      C  C   C  C  C                  |
 |         .---------C----------C-----------------.
 |      C /C   C  C   C           C              /
 |       /              C       C               /
 |      /                  C  C                /

[...]

Density initialized from wave functions
   /       |         C                            |
  /        |    C  C    C C                       |
 *         |     C        C                       |
 |         |       C C   C  C  C                  |
 |         .---------C----------C-----------------.
 |      C /C   C  C  C           C               /
 |       /              C       C               /
 |      /                  C  C                /

[...]

Density initialized from wave functions
   /       |       C C                            |
  /        |    C       C C                       |
 *         |     C        C                       |
 |         |       C C   C  C  C                  |
 |         .---------C----------C-----------------.
 |      C /C   C  C  C           C               /
 |       /              C       C               /
 |      /                 C   C                /

[...]

Density initialized from wave functions
   /       |       C  C                           |
  /        |    C       C C                       |
 *         |     C        C                       |
 |         |       C C   C  C  C                  |
 |         .---------C----------C-----------------.
 |      C /C  C   C  C            C              /
 |       /             C        C               /
 |      /                 C   C                /

[...]

Density initialized from wave functions
   /       |       C  C                           |
  /        |    C       C C                       |
 *         |     C        C                       |
 |         |       C C   C  C  C                  |
 |         .--------C-----------C-----------------.
 |      C /C  C   C  C            C              /
 |       /             C        C               /
 |      /                 C   C                /

[...]

Density initialized from wave functions
   /       |       C  C                           |
  /        |    C       C C                       |
 *         |     C        C                       |
 |         |       C C   C  C  C                  |
 |         .--------C-----------C-----------------.
 |      C /C  C   C  C            C              /
 |       /             C        C               /
 |      /                 C  C                 /

[...]

Density initialized from wave functions
   /       |       C  C                           |
  /        |    C       C C                       |
 *         |     C        C                       |
 |         |       C C   C  C  C                  |
 |         .--------C-----------C-----------------.
 |        /C  C   C  C            C              /
 |      C/             C        C               /
 |      /                 C  C                 /

[...]

System changes: positions

Initializing position-dependent things.

Density initialized from wave functions
   /       |       C  C                           |
  /        |    C       C C                       |
 *         |     C        C                       |
 |         |      C  C   C  C  C                  |
 |         .--------C-----------C-----------------.
 |        /C  C   C  C            C              /
 |      C/             C        C               /
 |      /                 C   C                /

Positions:
   0 C      8.829910    8.971996    4.640444
   1 C      1.966138    3.485256    5.236259
   2 C     10.111464    8.496964    4.549181
   3 C      8.049121    4.392542    4.206429
   4 C      9.300737    4.197910    3.992911
   5 C      5.475509    5.246364    4.763855
   6 C      6.981133    5.162805    4.486043
   7 C     11.760639    6.508413    4.129567
   8 C      4.289156    4.675013    4.917302
   9 C     10.629371    4.161359    3.853309
  10 C     11.301909    5.302815    3.944182
  11 C      3.149743    4.054578    5.066917
  12 C     10.960402    7.574304    4.339566
  13 C      4.331518   11.730811    5.274591
  14 C      6.263953    7.814101    4.860760
  15 C      6.327042    6.378012    4.728183
  16 C      5.019680    8.422791    5.077363
  17 C      3.621751   10.623059    5.377801
  18 C      7.861301   10.021466    4.735544
  19 C      7.420463    8.667907    4.749740
  20 C      6.441288   12.063113    4.950738
  21 C      5.241305   12.682291    5.138229
  22 C      4.301030    9.464865    5.237956
  23 C      7.490446   11.355133    4.798613

Unit cell:
           periodic     x           y           z      points  spacing
  1. axis:    yes   16.000000    0.000000    0.000000    80     0.2000
  2. axis:    yes    0.000000   16.000000    0.000000    80     0.2000
  3. axis:    yes    0.000000    0.000000   10.000000    48     0.2083

Effective grid spacing dv^(1/3) = 0.2027

                     log10-error:    total        iterations:
           time      wfs    density  energy       fermi  poisson
iter:   1  11:30:03          +inf  -179.841972    2      4
iter:   2  11:30:03         -3.12  -179.840667    2      1
iter:   3  11:30:03         -3.27  -179.839648    2      1
iter:   4  11:30:04         -3.41  -179.839312    2      1
iter:   5  11:30:04         -3.60  -179.838593    2      1
iter:   6  11:30:05         -3.57  -179.840325    2      1
iter:   7  11:30:05         -3.67  -179.839853    2      1
iter:   8  11:30:06         -3.87  -179.839643    2      1
iter:   9  11:30:06         -4.33  -179.839867    2      1

Converged after 9 iterations.

Dipole moment: (0.621198, 0.230152, -0.108125) |e|*Ang

Energy contributions relative to reference atoms: (reference = -24663.074771)

Kinetic:       +100.027184
Potential:     -111.124334
External:        +0.000000
XC:            -171.652169
Entropy (-ST):   -0.221581
Local:           +3.020243
Free energy:   -179.950657
Extrapolated:  -179.839867

Fermi level: -4.59977

 Band  Eigenvalues  Occupancy
    0    -23.42280    2.00000
    1    -23.21164    2.00000
    2    -21.15659    2.00000
    3    -20.88740    2.00000
    4    -20.50607    2.00000
    5    -20.01290    2.00000
    6    -19.80363    2.00000
    7    -19.62502    2.00000
    8    -18.94025    2.00000
    9    -18.65512    2.00000
   10    -18.13680    2.00000
   11    -17.63607    2.00000
   12    -17.33129    2.00000
   13    -16.20286    2.00000
   14    -15.69810    2.00000
   15    -15.52421    2.00000
   16    -15.08358    2.00000
   17    -14.38476    2.00000
   18    -14.07869    2.00000
   19    -13.85125    2.00000
   20    -13.24934    2.00000
   21    -12.47673    2.00000
   22    -12.01960    2.00000
   23    -10.81257    2.00000
   24    -10.54890    2.00000
   25    -10.30128    2.00000
   26    -10.24989    2.00000
   27     -9.90466    2.00000
   28     -9.59655    2.00000
   29     -9.33981    2.00000
   30     -9.17515    2.00000
   31     -9.06162    2.00000
   32     -8.98842    2.00000
   33     -8.63494    2.00000
   34     -8.38148    2.00000
   35     -7.83619    2.00000
   36     -7.78723    2.00000
   37     -7.62553    2.00000
   38     -7.43485    2.00000
   39     -7.28205    2.00000
   40     -6.37762    2.00000
   41     -6.19074    2.00000
   42     -6.00618    2.00000
   43     -5.96835    2.00000
   44     -5.86492    1.99999
   45     -5.29874    1.99816
   46     -5.04191    1.97625
   47     -4.73736    1.59667
   48     -4.46868    0.42468
   49     -3.96083    0.00335
   50     -3.82868    0.00090
   51     -2.41086    0.00000
   52     -2.00345    0.00000
   53     -1.75076    0.00000
   54     -1.64322    0.00000
   55     -1.46493    0.00000
   56     -0.87167    0.00000
   57     -0.84141    0.00000
   58     -0.68786    0.00000
   59     -0.58084    0.00000
[...]
   83      8.08458    0.00000
   84      8.25198    0.00000
   85      8.45966    0.00000
   86      8.49011    0.00000
   87      8.76376    0.00000
   88      8.91998    0.00000
   89      9.02320    0.00000
   90      9.10876    0.00000
   91      9.26528    0.00000
   92      9.38310    0.00000
   93      9.44577    0.00000
   94      9.71415    0.00000
   95      9.84560    0.00000
   96     10.17804    0.00000
   97     10.27002    0.00000

Forces in eV/Ang:
  0 C    -0.05032   -0.04651   -0.04481
  1 C    -0.00874   -0.01089   -0.00465
  2 C    -0.01150   -0.04326   -0.01275
  3 C    -0.02127    0.04060    0.00122
  4 C     0.02923    0.03939    0.03857
  5 C    -0.04538    0.00581    0.03120
  6 C     0.03473    0.00571   -0.05521
  7 C     0.01676   -0.00603    0.00271
  8 C    -0.04405   -0.01506    0.03031
  9 C    -0.02353    0.05343    0.00695
 10 C    -0.05378   -0.05470   -0.00390
 11 C     0.06151   -0.01825   -0.02096
 12 C     0.00151    0.01361    0.00157
 13 C     0.02277   -0.03145    0.00723
 14 C    -0.02273    0.05798    0.01097
 15 C     0.08694    0.01585    0.00586
 16 C    -0.03901    0.03890    0.04696
 17 C     0.03669   -0.03297   -0.06108
 18 C     0.04691    0.00465    0.01373
 19 C     0.04257   -0.02556    0.02462
 20 C     0.02221    0.00047    0.01492
 21 C    -0.02473    0.01665    0.01659
 22 C     0.01248   -0.03048   -0.00898
 23 C    -0.02002    0.03212   -0.02504