User:   esb@s65n21.grendel.cscaa.dk
Date:   Thu Nov  9 09:19:02 2017
Arch:   x86_64
Pid:    1820
Python: 2.7.13
gpaw:   /home/esb/DFT/gpaw_git/gpaw
_gpaw:  /home/esb/DFT/gpaw_git/build/bin.linux-x86_64-2.7/gpaw-python
ase:    /home/esb/DFT/ase_git/ase (version 3.15.0b1)
numpy:  /comm/swstack/core/python/2.7.13/lib/python2.7/site-packages/numpy (version 1.13.3)
scipy:  /comm/swstack/core/python/2.7.13/lib/python2.7/site-packages/scipy (version 0.19.1)
units:  Angstrom and eV
cores:  16
Extra parameters: {'blacs': True}

Input parameters:
  basis: dzp
  gpts: [80 80 48]
  kpts: [1 1 1]
  maxiter: 99
  mixer: {backend: pulay,
          beta: 0.05,
          method: separate,
          nmaxold: 5,
          weight: 75}
  mode: lcao
  nbands: -50
  occupations: {name: fermi-dirac,
                width: 0.1}
  poissonsolver: {eps: 1e-07,
                  name: fd,
                  nn: 3,
                  relax: GS}
  xc: PBE

System changes: positions, numbers, cell, pbc, initial_charges, initial_magmoms

Initialize ...

C-setup:
  name: Carbon
  id: 4aa54d4b901d75f77cc0ea3eec22967b
  Z: 6
  valence: 4
  core: 2
  charge: 0.0
  file: /home/esb/DFT/gpaw-setups-0.8.7929/C.PBE.gz
  cutoffs: 0.64(comp), 1.14(filt), 1.14(core), lmax=2
  valence states:
                energy  radius
    2s(2.00)   -13.751   0.635
    2p(2.00)    -5.284   0.635
    *s          13.461   0.635
    *p          21.927   0.635
    *d           0.000   0.635

  LCAO basis set for C:
    Name: dzp
    File: /home/esb/DFT/gpaw-setups-0.8.7929/C.dzp.basis.gz
    Number of radial functions: 5
    Number of spherical harmonics: 13
      l=0, rc=5.5469 Bohr: 2s-sz confined orbital
      l=1, rc=6.6719 Bohr: 2p-sz confined orbital
      l=0, rc=3.0312 Bohr: 2s-dz split-valence wave
      l=1, rc=3.7500 Bohr: 2p-dz split-valence wave
      l=2, rc=6.6719 Bohr: d-type Gaussian polarization

Reference energy: -24663.074771

Spin-paired calculation

Occupation numbers:
  Fermi-Dirac: width=0.1000 eV

Convergence criteria:
  Maximum total energy change: 0.0005 eV / electron
  Maximum integral of absolute density change: 0.0001 electrons
  Maximum integral of absolute eigenstate change: 4e-08 eV^2
  Maximum number of iterations: 99

Symmetries present (total): 1

  ( 1  0  0)
  ( 0  1  0)
  ( 0  0  1)

1 k-point (Gamma)
1 k-point in the irreducible part of the Brillouin zone
       k-points in crystal coordinates                weights
   0:     0.00000000    0.00000000    0.00000000          1/1

Wave functions: LCAO
  Diagonalizer: Serial LAPACK
  Atomic Correction: dense with blas
  Datatype: float
  Eigensolver: None

LCAO using direct dense diagonalizer

Densities:
  Coarse grid: 80*80*48 grid
  Fine grid: 160*160*96 grid
  Total Charge: 0.000000

Density mixing:
  Method: separate
  Backend: pulay
  Linear mixing parameter: 0.05
  Mixing with 5 old densities
  Damping of long wave oscillations: 75

Hamiltonian:
  XC and Coulomb potentials evaluated on a 160*160*96 grid
  Using the PBE Exchange-Correlation functional
  Interpolation: tri-quintic (5. degree polynomial)
  Poisson solver: Gauss-Seidel solver with 6 multi-grid levels
    Coarsest grid: 5 x 5 x 3 points
    Stencil: 6*3+1=19 point O(h^6) finite-difference Laplacian
    Max iterations: 1000
    Tolerance: 1.000000e-07

Total number of cores used: 16
Domain decomposition: 2 x 4 x 2

Number of atoms: 24
Number of atomic orbitals: 312
Number of bands in calculation: 98
Bands to converge: occupied states only
Number of valence electrons: 96

... initialized

Initializing position-dependent things.

Density initialized from atomic densities
    /      |             C  C                     |
   /       |           C                          |
  /        |    C  C    C     C  C                |
 *         |        C              C              |
 |         |  C    C                C             |
 |         .-C-C--------C-------------------------.
 |        /               C  C  C                /
 |       /     C C  C     C                     /
 |      /              C                       /

Positions:
   0 C     10.056441    4.945694    4.619791
   1 C      9.520816    3.647699    4.424035
   2 C     11.593640    9.011697    5.452197
   3 C      7.804192    6.305257    4.965145
   4 C      9.270143    9.999101    5.652306
   5 C      7.040947    3.414764    4.491503
   6 C     12.162129    7.903492    5.201614
   7 C      8.349783    3.141796    4.391366
   8 C     10.520340    9.802169    5.624984
   9 C      8.941237    5.819386    4.811950
  10 C     11.350773    5.512892    4.693819
  11 C      3.430618    6.367236    5.224453
  12 C      4.721990    4.126056    4.903132
  13 C      4.538842    5.494375    5.231172
  14 C      5.740551    3.387568    4.956784
  15 C      3.535561    7.625926    5.527187
  16 C      3.944378    8.872441    5.859287
  17 C      5.881275    6.011394    5.643247
  18 C      5.317840    8.640212    6.091316
  19 C      6.038032    7.372145    5.963123
  20 C      8.558352    9.994768    7.241098
  21 C      7.309711   10.459733    7.004496
  22 C      6.676280    9.281223    6.551234
  23 C      7.279238    7.958209    6.384313

Unit cell:
           periodic     x           y           z      points  spacing
  1. axis:    yes   16.000000    0.000000    0.000000    80     0.2000
  2. axis:    yes    0.000000   16.000000    0.000000    80     0.2000
  3. axis:    yes    0.000000    0.000000   10.000000    48     0.2083

Effective grid spacing dv^(1/3) = 0.2027

                     log10-error:    total        iterations:
           time      wfs    density  energy       fermi  poisson
iter:   1  09:19:04          +inf  -170.637389    3      6
iter:   2  09:19:04         -0.87  -169.201040    3      3
iter:   3  09:19:05         -0.92  -167.319721    3      3
iter:   4  09:19:06         -1.02  -166.431963    4      3
iter:   5  09:19:06         -1.11  -165.806227    34     3
iter:   6  09:19:07         -1.28  -165.633611    3      3
iter:   7  09:19:07         -1.43  -165.692091    4      3
iter:   8  09:19:08         -1.48  -165.564968    3      3
iter:   9  09:19:09         -1.72  -165.532735    3      2
iter:  10  09:19:09         -1.81  -165.507463    3      2
iter:  11  09:19:10         -1.91  -165.490525    3      2
iter:  12  09:19:10         -2.10  -165.481209    3      3
iter:  13  09:19:11         -2.34  -165.480010    3      2
iter:  14  09:19:11         -2.45  -165.478586    3      2
iter:  15  09:19:12         -2.61  -165.478382    3      2
iter:  16  09:19:13         -2.74  -165.477621    3      2
iter:  17  09:19:13         -2.91  -165.493133    3      1
iter:  18  09:19:14         -3.08  -165.485136    2      1
iter:  19  09:19:14         -3.28  -165.472853    2      1
iter:  20  09:19:15         -3.40  -165.472639    2      1
iter:  21  09:19:15         -3.54  -165.473806    2      1
iter:  22  09:19:16         -3.70  -165.469787    2      1
iter:  23  09:19:16         -4.02  -165.472586    2      1

Converged after 23 iterations.

Dipole moment: (-0.634344, -0.697712, -0.095356) |e|*Ang

Energy contributions relative to reference atoms: (reference = -24663.074771)

Kinetic:       +102.284259
Potential:     -110.629183
External:        +0.000000
XC:            -159.752213
Entropy (-ST):   -0.497880
Local:           +2.873491
Free energy:   -165.721526
Extrapolated:  -165.472586

Fermi level: -4.92975

 Band  Eigenvalues  Occupancy
    0    -22.81793    2.00000
    1    -21.67594    2.00000
    2    -21.50524    2.00000
    3    -20.72119    2.00000
    4    -20.15748    2.00000
    5    -19.95959    2.00000
    6    -19.54930    2.00000
    7    -19.22949    2.00000
    8    -18.34320    2.00000
    9    -17.83653    2.00000
   10    -17.59293    2.00000
   11    -17.44906    2.00000
   12    -16.53254    2.00000
   13    -15.20361    2.00000
   14    -14.82555    2.00000
   15    -14.48965    2.00000
   16    -14.15137    2.00000
   17    -13.91842    2.00000
   18    -13.07727    2.00000
   19    -12.96507    2.00000
   20    -12.23116    2.00000
   21    -11.91317    2.00000
   22    -10.75420    2.00000
   23    -10.58863    2.00000
   24    -10.39834    2.00000
   25     -9.88590    2.00000
   26     -9.62951    2.00000
   27     -9.39691    2.00000
   28     -9.19349    2.00000
   29     -8.61339    2.00000
   30     -8.56844    2.00000
   31     -8.27489    2.00000
   32     -8.11408    2.00000
   33     -7.92657    2.00000
   34     -7.82091    2.00000
   35     -7.50767    2.00000
   36     -7.32531    2.00000
   37     -7.25373    2.00000
   38     -6.93472    2.00000
   39     -6.57748    2.00000
   40     -6.36922    2.00000
   41     -6.20115    1.99999
   42     -5.84289    1.99978
   43     -5.63879    1.99834
   44     -5.32701    1.96305
   45     -5.29536    1.94964
   46     -5.08029    1.63676
   47     -4.99858    1.33119
   48     -4.87069    0.71300
   49     -4.79340    0.40737
   50     -4.15250    0.00084
   51     -3.83553    0.00004
   52     -3.69490    0.00001
   53     -3.01234    0.00000
   54     -2.65980    0.00000
   55     -2.42865    0.00000
   56     -2.16055    0.00000
   57     -2.09226    0.00000
   58     -1.65079    0.00000
   59     -1.61037    0.00000
[...]
   83      8.37080    0.00000
   84      8.51121    0.00000
   85      8.57149    0.00000
   86      8.65124    0.00000
   87      8.93023    0.00000
   88      9.13572    0.00000
   89      9.24894    0.00000
   90      9.32357    0.00000
   91      9.47014    0.00000
   92      9.48897    0.00000
   93      9.64206    0.00000
   94      9.81396    0.00000
   95      9.89339    0.00000
   96     10.02226    0.00000
   97     10.05848    0.00000

Forces in eV/Ang:
  0 C     0.50791    1.30736    0.31189
  1 C     1.49431    0.22344   -0.35117
  2 C    -0.77543    0.86767   -0.10589
  3 C    -3.04952    0.51173    1.67513
  4 C    -2.66486    0.99191    4.53533
  5 C    -0.88655   -2.12753    1.34486
  6 C     0.65172   -1.73159   -0.31985
  7 C    -3.03645    0.18782    0.14773
  8 C     2.23821   -0.99149   -0.40103
  9 C     2.03727   -0.39415   -0.14604
 10 C     0.11481   -0.57407   -0.18906
 11 C     0.54045   -0.22632    0.05392
 12 C    -2.32925    1.33284    0.51041
 13 C     0.52845   -1.17325   -0.23513
 14 C     4.43243   -1.14447   -2.10670
 15 C    -0.50361    1.05540   -0.08815
 16 C     0.24938   -0.95112   -0.13820
 17 C     0.78106    3.24953   -1.07006
 18 C     0.27955    0.73125    0.80771
 19 C    -0.78654   -0.89044    0.97800
 20 C     1.30596    1.79388   -4.38706
 21 C    -0.13106   -1.13047    0.46935
 22 C    -1.02638   -0.58743   -0.08154
 23 C    -0.03499   -0.37292   -1.21873

System changes: positions

[...]

Density initialized from wave functions
    /      |             C  C                     |
   /       |           C                          |
  /        |    C  C    C     C  C                |
 *         |        C              C              |
 |         |  C    C                C             |
 |         .-C--C-------C-------------------------.
 |        /               C  C  C                /
 |       /     C C  C      C                    /
[...]
 |        /     C            C  C                /
 |       /     C C        C                     /
 |      /           C  C                       /

[...]

Density initialized from wave functions
    /      |              C  C                    |
   /       |           C        C                 |
  /        |    C  C             C                |
 *         |        C  C          C               |
 |         |  C        C         C                |
 |         .--C-----C-----C-----------------------.
 |        /     C            C  C                /
 |       /     C C        C                     /
 |      /           C  C                       /

[...]

Density initialized from wave functions
    /      |              C  C                    |
   /       |           C        C                 |
  /        |    C  C             C                |
 *         |        C  C          C               |
 |         |  C        C          C               |
 |         .--C-----C-----C-----------------------.
 |        /     C            C  C                /
 |       /      CC        C                     /
 |      /           C  C                       /

[...]

Density initialized from wave functions
    /      |              C  C                    |
   /       |           C        C                 |
  /        |    C  C             C                |
 *         |        C  C          C               |
 |         |  C        C          C               |
 |         .--C-----C-----C-----------------------.
 |        /     C            C  C                /
 |       /      CC        C                     /
 |      /           C  C                       /

[...]

Density initialized from wave functions
    /      |              C                       |
   /       |           C     C  C                 |
  /        |    C  C             C                |
 *         |        C  C          C               |
 |         |  C        C          C               |
 |         .--C----C------C-----------------------.
 |        /     C            C  C                /
 |       /      CC        C                     /
 |      /           C  C                       /

[...]

Density initialized from wave functions
    /      |              C                       |
   /       |           C     C  C                 |
  /        |    C  C             C                |
 *         |        C  C          C               |
 |         |  C        C          C               |
 |         .--C----C------C-----------------------.
 |        /     C            C  C                /
 |       /      CC        C                     /
 |      /           C  C                       /

[...]

Density initialized from wave functions
   /       |           C  C  C  C                 |
  /        |    C  C             C                |
 *         |        C  C          C               |
 |         |  C        C          C               |
 |         .--C----C------C-----------------------.
 |        /     C            C  C                /
 |       /      C         C                     /
 |      /        C  C  C                       /

[...]

Density initialized from wave functions
   /       |           C  C  C  C                 |
  /        |    C  C             C                |
 *         |        C  C          C               |
 |         |  C        C          C               |
 |         .--C----C------C-----------------------.
 |        /     C            C  C                /
 |       /      C         C                     /
 |      /        C  C  C                       /

[...]

Density initialized from wave functions
   /       |           C  C  C  C                 |
  /        |    C  C             C                |
 *         |        C  C           C              |
 |         |  C    C   C          C               |
 |         .--C-----------C-----------------------.
 |        /     C            C  C                /
 |       /      C         C                     /
 |      /        C  C  C                       /

[...]

Density initialized from wave functions
   /       |           C  C  C  C                 |
  /        |    C  C             C                |
 *         |        C  C           C              |
 |         |  C    C   C          C               |
 |         .--C-----------C-----------------------.
 |        /     C            C  C                /
 |       /      C         C                     /
 |      /        C  C  C                       /

[...]

Density initialized from wave functions
   /       |              C  C  C                 |
  /        |    C  C   C         C                |
 *         |        C  C           C              |
 |         |  C    C   C          C               |
 |         .--C-----------C-----------------------.
 |        /     C            C  C                /
 |       /      C         C                     /
 |      /        C  C  C                       /

[...]

Density initialized from wave functions
   /       |              C  C  C                 |
  /        |    C  C   C         C                |
 *         |        C  C           C              |
 |         |  C    C   C          C               |
 |         .--C-C---------C-----------------------.
 |        /                  C  C                /
 |       /      C         C                     /
 |      /        C  C  C                       /

[...]

Density initialized from wave functions
   /       |              C  C  C                 |
  /        |    C  C   C          C               |
 *         |        C  C           C              |
 |         |  C    C   C          C               |
 |         .--C-C--------C------------------------.
 |        /                  C  C                /
 |       /      C         C                     /
 |      /        C  C  C                       /

[...]

Density initialized from wave functions
   /       |              C  C  C                 |
  /        |    C  C   C          C               |
 *         |        C  C           C              |
 |         |  C    C   C          C               |
 |         .--C-C--------C------------------------.
 |        /                  C  C                /
 |       /      C         C                     /
 |      /        C  C  C                       /

[...]

Density initialized from wave functions
   /       |              C  C  C                 |
  /        |    C  C   C          C               |
 *         |        C  C           C              |
 |         |  C    C   C          C               |
 |         .--C-C--------C------C-----------------.
 |        /                  C                   /
 |       /      C         C                     /
 |      /        C  C  C                       /

[...]

Density initialized from wave functions
   /       |              C  C  C                 |
  /        |    C  C   C          C               |
 *         |        C  C           C              |
 |         |  C    C   C          C               |
 |         .--C-C--------C------C-----------------.
 |        /                 C                    /
 |       /      C         C                     /
 |      /        C  C  C                       /

[...]

Density initialized from wave functions
   /       |              C  C  C                 |
  /        |    C  CC  C          C               |
 *         |           C           C              |
 |         |  C    C   C          C               |
 |         .--C-C--------C------C-----------------.
 |        /                 C                    /
 |       /      C         C                     /
 |      /        C  C  C                       /

[...]

Density initialized from wave functions
   /       |              C  C  C                 |
  /        |    C  CC  C          C               |
 *         |           C           C              |
 |         |  C    C   C          C               |
 |         .--C-C--------C------C-----------------.
 |        /                 C                    /
 |       /      C         C                     /
 |      /        C  C  C                       /

[...]

Density initialized from wave functions
   /       |              C  C  C                 |
  /        |       CC  C          C               |
 *         |    C                  C              |
 |         |  C    C   C          C               |
 |         .--C-C--------C------C-----------------.
 |        /                 C                    /
 |       /      C         C                     /
 |      /        C  C  C                       /

[...]

Density initialized from wave functions
   /       |              C  C  C                 |
  /        |       CC  C          C               |
 *         |    C                  C              |
 |         |  C    C   C          C               |
 |         .--C-C--------C------C-----------------.
 |        /                 C                    /
 |       /      C         C                     /
 |      /        C  C  C                       /

[...]

Density initialized from wave functions
   /       |              C  C  C                 |
  /        |       C   C          C               |
 *         |    C                  C              |
 |         |  C    C   C          C               |
 |         .--C-C--------C------C-----------------.
 |        /                 C                    /
 |       /      C         C                     /
 |      /        C  C  C                       /

[...]

Density initialized from wave functions
   /       |              C  C  C                 |
  /        |    C  C   C          C               |
 *         |                       C              |
 |         |   C   C   C          C               |
 |         .--C-C--------C------C-----------------.
 |        /                 C                    /
 |       /      C         C                     /
 |      /        C  C   C                      /

[...]

Density initialized from wave functions
   /       |              C  C  C                 |
  /        |    C  C   C          C               |
 *         |                       C              |
 |         |   C   C   C          C               |
 |         .--C-C--------C------C-----------------.
 |        /                 C                    /
 |       /      C         C                     /
 |      /        C  C   C                      /

[...]

System changes: positions

Initializing position-dependent things.

Density initialized from wave functions
   /       |              C  C  C                 |
  /        |       C   C          C               |
 *         |    C                  C              |
 |         |   C   C   C          C               |
 |         .--C-C--------C------C-----------------.
 |        /                 C                    /
 |       /      C         C                     /
 |      /        C  C   C                      /

Positions:
   0 C      9.843138    5.491139    5.051694
   1 C      8.968260    4.450313    4.705519
   2 C     11.731752    8.731920    5.268688
   3 C      7.364422    6.191203    6.056488
   4 C      9.996447   10.607856    5.778222
   5 C      7.158836    3.075587    3.854014
   6 C     11.433160    7.430872    5.160790
   7 C      8.375393    3.376856    4.048048
   8 C     10.964105    9.736630    5.576589
   9 C      8.446154    5.557932    5.481277
  10 C     10.994920    6.246222    4.970248
  11 C      3.636820    6.287097    5.080814
  12 C      5.064400    4.246118    4.516642
  13 C      4.773697    5.431222    5.211244
  14 C      5.865074    3.386267    4.056139
  15 C      3.620361    7.533860    5.455535
  16 C      4.021627    8.751805    5.855981
  17 C      5.857200    5.990572    6.049201
  18 C      5.268276    8.549043    6.534337
  19 C      5.704422    7.196844    6.814173
  20 C      8.718251   10.428748    6.063261
  21 C      7.487947   10.086051    6.268453
  22 C      6.714711    8.997363    6.561948
  23 C      7.100372    7.526621    6.726978

Unit cell:
           periodic     x           y           z      points  spacing
  1. axis:    yes   16.000000    0.000000    0.000000    80     0.2000
  2. axis:    yes    0.000000   16.000000    0.000000    80     0.2000
  3. axis:    yes    0.000000    0.000000   10.000000    48     0.2083

Effective grid spacing dv^(1/3) = 0.2027

                     log10-error:    total        iterations:
           time      wfs    density  energy       fermi  poisson
iter:   1  09:35:07          +inf  -180.847536    3      4
iter:   2  09:35:07         -2.53  -180.840104    3      1
iter:   3  09:35:08         -3.06  -180.839078    2      1
iter:   4  09:35:09         -3.16  -180.839820    2      1
iter:   5  09:35:09         -3.24  -180.839304    3      1
iter:   6  09:35:10         -3.12  -180.839681    2      1
iter:   7  09:35:10         -3.66  -180.841667    3      1
iter:   8  09:35:11         -2.91  -180.839245    3      1
iter:   9  09:35:11         -4.05  -180.838682    2      1

Converged after 9 iterations.

Dipole moment: (0.127670, -0.431821, 0.118888) |e|*Ang

Energy contributions relative to reference atoms: (reference = -24663.074771)

Kinetic:       +104.394323
Potential:     -112.260846
External:        +0.000000
XC:            -175.847753
Entropy (-ST):   -0.284028
Local:           +3.017607
Free energy:   -180.980696
Extrapolated:  -180.838682

Fermi level: -4.40497

 Band  Eigenvalues  Occupancy
    0    -23.45132    2.00000
    1    -22.85170    2.00000
    2    -20.96224    2.00000
    3    -20.53155    2.00000
    4    -20.40789    2.00000
    5    -20.28571    2.00000
    6    -19.67284    2.00000
    7    -19.22974    2.00000
    8    -18.51858    2.00000
    9    -18.26663    2.00000
   10    -17.84561    2.00000
   11    -17.07274    2.00000
   12    -16.70038    2.00000
   13    -16.02079    2.00000
   14    -15.78997    2.00000
   15    -14.95616    2.00000
   16    -14.56536    2.00000
   17    -13.78548    2.00000
   18    -13.62199    2.00000
   19    -13.22315    2.00000
   20    -12.60636    2.00000
   21    -12.40239    2.00000
   22    -12.05609    2.00000
   23    -11.11810    2.00000
   24    -10.57259    2.00000
   25    -10.39485    2.00000
   26    -10.20184    2.00000
   27     -9.96964    2.00000
   28     -9.58347    2.00000
   29     -9.15478    2.00000
   30     -9.13375    2.00000
   31     -8.92153    2.00000
   32     -8.65329    2.00000
   33     -8.46238    2.00000
   34     -8.09922    2.00000
   35     -8.00759    2.00000
   36     -7.81070    2.00000
   37     -7.59247    2.00000
   38     -7.49862    2.00000
   39     -7.07203    2.00000
   40     -6.92962    2.00000
   41     -5.87047    2.00000
   42     -5.82766    2.00000
   43     -5.71995    2.00000
   44     -5.49535    1.99996
   45     -5.32645    1.99980
   46     -4.67439    1.87337
   47     -4.51532    1.50182
   48     -4.32611    0.62497
   49     -3.39072    0.00008
   50     -3.07727    0.00000
   51     -2.61724    0.00000
   52     -2.48968    0.00000
   53     -1.65177    0.00000
   54     -1.43345    0.00000
   55     -1.30358    0.00000
   56     -1.08778    0.00000
   57     -0.80370    0.00000
   58     -0.43104    0.00000
   59     -0.30057    0.00000
[...]
   83      8.69419    0.00000
   84      8.73615    0.00000
   85      8.99278    0.00000
   86      9.07195    0.00000
   87      9.28916    0.00000
   88      9.45543    0.00000
   89      9.57636    0.00000
   90      9.61706    0.00000
   91      9.69873    0.00000
   92      9.84403    0.00000
   93      9.97089    0.00000
   94     10.09354    0.00000
   95     10.21965    0.00000
   96     10.28881    0.00000
   97     10.40006    0.00000

Forces in eV/Ang:
  0 C    -0.00084   -0.00234   -0.02030
  1 C    -0.01803    0.03905    0.05358
  2 C    -0.02314    0.01293   -0.04205
  3 C    -0.04395    0.04288   -0.02842
  4 C    -0.06531    0.03235   -0.01393
  5 C     0.01281    0.04798    0.04038
  6 C     0.00097    0.01925   -0.04026
  7 C     0.04126   -0.03401    0.03111
  8 C     0.02105   -0.01068   -0.00707
  9 C     0.06135   -0.02684   -0.03073
 10 C     0.03514   -0.00317    0.01215
 11 C    -0.03866    0.04345   -0.00893
 12 C    -0.01556   -0.02208   -0.01755
 13 C    -0.01039   -0.01523    0.00555
 14 C    -0.01684    0.02212   -0.02092
 15 C     0.01120    0.01672    0.01942
 16 C     0.06153   -0.04883    0.01618
 17 C    -0.01634    0.00617   -0.02466
 18 C     0.00200   -0.02401    0.04213
 19 C    -0.01903   -0.05210   -0.00435
 20 C    -0.02548   -0.05743   -0.00639
 21 C     0.05816    0.00708   -0.03184
 22 C     0.05995   -0.04049   -0.00499
 23 C    -0.03439   -0.01198    0.01564