User:   esb@s65n11.grendel.cscaa.dk
Date:   Thu Nov  9 11:33:19 2017
Arch:   x86_64
Pid:    77261
Python: 2.7.13
gpaw:   /home/esb/DFT/gpaw_git/gpaw
_gpaw:  /home/esb/DFT/gpaw_git/build/bin.linux-x86_64-2.7/gpaw-python
ase:    /home/esb/DFT/ase_git/ase (version 3.15.0b1)
numpy:  /comm/swstack/core/python/2.7.13/lib/python2.7/site-packages/numpy (version 1.13.3)
scipy:  /comm/swstack/core/python/2.7.13/lib/python2.7/site-packages/scipy (version 0.19.1)
units:  Angstrom and eV
cores:  16
Extra parameters: {'blacs': True}

Input parameters:
  basis: dzp
  gpts: [80 80 48]
  kpts: [1 1 1]
  maxiter: 99
  mixer: {backend: pulay,
          beta: 0.05,
          method: separate,
          nmaxold: 5,
          weight: 75}
  mode: lcao
  nbands: -50
  occupations: {name: fermi-dirac,
                width: 0.1}
  poissonsolver: {eps: 1e-07,
                  name: fd,
                  nn: 3,
                  relax: GS}
  xc: PBE

System changes: positions, numbers, cell, pbc, initial_charges, initial_magmoms

Initialize ...

C-setup:
  name: Carbon
  id: 4aa54d4b901d75f77cc0ea3eec22967b
  Z: 6
  valence: 4
  core: 2
  charge: 0.0
  file: /home/esb/DFT/gpaw-setups-0.8.7929/C.PBE.gz
  cutoffs: 0.64(comp), 1.14(filt), 1.14(core), lmax=2
  valence states:
                energy  radius
    2s(2.00)   -13.751   0.635
    2p(2.00)    -5.284   0.635
    *s          13.461   0.635
    *p          21.927   0.635
    *d           0.000   0.635

  LCAO basis set for C:
    Name: dzp
    File: /home/esb/DFT/gpaw-setups-0.8.7929/C.dzp.basis.gz
    Number of radial functions: 5
    Number of spherical harmonics: 13
      l=0, rc=5.5469 Bohr: 2s-sz confined orbital
      l=1, rc=6.6719 Bohr: 2p-sz confined orbital
      l=0, rc=3.0312 Bohr: 2s-dz split-valence wave
      l=1, rc=3.7500 Bohr: 2p-dz split-valence wave
      l=2, rc=6.6719 Bohr: d-type Gaussian polarization

Reference energy: -24663.074771

Spin-paired calculation

Occupation numbers:
  Fermi-Dirac: width=0.1000 eV

Convergence criteria:
  Maximum total energy change: 0.0005 eV / electron
  Maximum integral of absolute density change: 0.0001 electrons
  Maximum integral of absolute eigenstate change: 4e-08 eV^2
  Maximum number of iterations: 99

Symmetries present (total): 1

  ( 1  0  0)
  ( 0  1  0)
  ( 0  0  1)

1 k-point (Gamma)
1 k-point in the irreducible part of the Brillouin zone
       k-points in crystal coordinates                weights
   0:     0.00000000    0.00000000    0.00000000          1/1

Wave functions: LCAO
  Diagonalizer: Serial LAPACK
  Atomic Correction: dense with blas
  Datatype: float
  Eigensolver: None

LCAO using direct dense diagonalizer

Densities:
  Coarse grid: 80*80*48 grid
  Fine grid: 160*160*96 grid
  Total Charge: 0.000000

Density mixing:
  Method: separate
  Backend: pulay
  Linear mixing parameter: 0.05
  Mixing with 5 old densities
  Damping of long wave oscillations: 75

Hamiltonian:
  XC and Coulomb potentials evaluated on a 160*160*96 grid
  Using the PBE Exchange-Correlation functional
  Interpolation: tri-quintic (5. degree polynomial)
  Poisson solver: Gauss-Seidel solver with 6 multi-grid levels
    Coarsest grid: 5 x 5 x 3 points
    Stencil: 6*3+1=19 point O(h^6) finite-difference Laplacian
    Max iterations: 1000
    Tolerance: 1.000000e-07

Total number of cores used: 16
Domain decomposition: 2 x 4 x 2

Number of atoms: 24
Number of atomic orbitals: 312
Number of bands in calculation: 98
Bands to converge: occupied states only
Number of valence electrons: 96

... initialized

Initializing position-dependent things.

Density initialized from atomic densities
    /      |             C   C                    |
   /       |           C       C                  |
  /        |    C  C    C                         |
 *         |        C     C   C                   |
 |         |  C    C            C                 |
 |         .-C-C------C--C-----C------------------.
 |        /                 C                    /
 |       /     C C  C     C                     /
 |      /              C                       /

Positions:
   0 C     10.692401    5.970584    4.880153
   1 C      9.255071    3.886307    4.346313
   2 C      9.564880    5.142666    4.880196
   3 C     10.811222    7.104521    5.404637
   4 C      8.159939    3.277575    4.418648
   5 C      9.844170    7.819532    6.118883
   6 C      8.409757    5.753245    5.621567
   7 C      6.989294    3.696174    5.058286
   8 C      8.549781    7.066304    6.239489
   9 C      7.146232    5.035173    5.719325
  10 C      9.799762    9.063655    6.756290
  11 C      8.840903    9.566706    7.392013
  12 C      3.430618    6.367236    5.224453
  13 C      4.721990    4.126056    4.903132
  14 C      4.538842    5.494375    5.231172
  15 C      5.740551    3.387568    4.956784
  16 C      3.535561    7.625926    5.527187
  17 C      3.944378    8.872441    5.859287
  18 C      5.881275    6.011394    5.643247
  19 C      5.317840    8.640212    6.091316
  20 C      6.038032    7.372145    5.963123
  21 C      7.309711   10.459733    7.004496
  22 C      6.676280    9.281223    6.551234
  23 C      7.279238    7.958209    6.384313

Unit cell:
           periodic     x           y           z      points  spacing
  1. axis:    yes   16.000000    0.000000    0.000000    80     0.2000
  2. axis:    yes    0.000000   16.000000    0.000000    80     0.2000
  3. axis:    yes    0.000000    0.000000   10.000000    48     0.2083

Effective grid spacing dv^(1/3) = 0.2027

                     log10-error:    total        iterations:
           time      wfs    density  energy       fermi  poisson
iter:   1  11:33:21          +inf  -186.403132    3      6
iter:   2  11:33:21         -0.88  -185.528946    4      3
iter:   3  11:33:22         -0.92  -183.104579    35     4
iter:   4  11:33:23         -1.20  -183.224319    3      2
iter:   5  11:33:23         -1.20  -181.864029    28     3
iter:   6  11:33:24         -1.39  -182.143693    4      3
iter:   7  11:33:25         -1.53  -182.214444    3      3
iter:   8  11:33:25         -1.57  -181.959470    4      3
iter:   9  11:33:26         -1.69  -182.006269    3      2
iter:  10  11:33:27         -1.71  -181.898080    3      3
iter:  11  11:33:27         -1.67  -181.981759    4      3
iter:  12  11:33:28         -1.61  -181.746143    32     3
iter:  13  11:33:29         -2.10  -181.728629    3      2
iter:  14  11:33:29         -2.18  -181.709838    4      2
iter:  15  11:33:30         -2.29  -181.696969    2      2
iter:  16  11:33:31         -2.47  -181.701230    3      2
iter:  17  11:33:31         -2.35  -181.691156    3      2
iter:  18  11:33:32         -2.69  -181.683903    3      1
iter:  19  11:33:32         -2.93  -181.689127    3      2
iter:  20  11:33:33         -3.08  -181.688496    3      1
iter:  21  11:33:34         -3.23  -181.689038    2      1
iter:  22  11:33:34         -3.31  -181.696450    3      1
iter:  23  11:33:35         -3.44  -181.690617    2      1
iter:  24  11:33:35         -3.61  -181.691172    2      1
iter:  25  11:33:36         -3.70  -181.692064    2      1
iter:  26  11:33:37         -3.85  -181.691674    2      1
iter:  27  11:33:37         -4.10  -181.689842    2      1

Converged after 27 iterations.

Dipole moment: (0.320856, -1.035132, -0.260361) |e|*Ang

Energy contributions relative to reference atoms: (reference = -24663.074771)

Kinetic:       +115.027185
Potential:     -123.084896
External:        +0.000000
XC:            -176.495509
Entropy (-ST):   -0.238638
Local:           +2.982698
Free energy:   -181.809161
Extrapolated:  -181.689842

Fermi level: -4.60205

 Band  Eigenvalues  Occupancy
    0    -23.01094    2.00000
    1    -22.41668    2.00000
    2    -22.00461    2.00000
    3    -21.00466    2.00000
    4    -20.67161    2.00000
    5    -20.02785    2.00000
    6    -19.65429    2.00000
    7    -19.28054    2.00000
    8    -18.49582    2.00000
    9    -18.00391    2.00000
   10    -17.90243    2.00000
   11    -17.12917    2.00000
   12    -16.40811    2.00000
   13    -15.87149    2.00000
   14    -15.73364    2.00000
   15    -15.08822    2.00000
   16    -13.87555    2.00000
   17    -13.53226    2.00000
   18    -13.30255    2.00000
   19    -12.79697    2.00000
   20    -12.49743    2.00000
   21    -12.15044    2.00000
   22    -12.00129    2.00000
   23    -11.40788    2.00000
   24    -11.24614    2.00000
   25    -10.86614    2.00000
   26    -10.71655    2.00000
   27    -10.16836    2.00000
   28     -9.82679    2.00000
   29     -9.80700    2.00000
   30     -9.72906    2.00000
   31     -9.04441    2.00000
   32     -8.70906    2.00000
   33     -8.46937    2.00000
   34     -8.46371    2.00000
   35     -7.94567    2.00000
   36     -7.26526    2.00000
   37     -7.10044    2.00000
   38     -6.92915    2.00000
   39     -6.83449    2.00000
   40     -6.72138    2.00000
   41     -6.58273    2.00000
   42     -6.40715    2.00000
   43     -6.31808    2.00000
   44     -6.06083    2.00000
   45     -5.43956    1.99954
   46     -4.82797    1.81087
   47     -4.80398    1.76561
   48     -4.47074    0.42395
   49     -3.49448    0.00003
   50     -3.10679    0.00000
   51     -2.94262    0.00000
   52     -2.92894    0.00000
   53     -2.67118    0.00000
   54     -2.46086    0.00000
   55     -1.93632    0.00000
   56     -1.45180    0.00000
   57     -1.00416    0.00000
   58     -0.63469    0.00000
   59     -0.43542    0.00000
[...]
   83      8.82469    0.00000
   84      8.94347    0.00000
   85      8.98810    0.00000
   86      9.01739    0.00000
   87      9.20512    0.00000
   88      9.32488    0.00000
   89      9.41658    0.00000
   90      9.50964    0.00000
   91      9.55400    0.00000
   92      9.62353    0.00000
   93      9.86420    0.00000
   94      9.89793    0.00000
   95     10.05938    0.00000
   96     10.16051    0.00000
   97     10.36562    0.00000

Forces in eV/Ang:
  0 C     0.18128   -0.24532   -0.13904
  1 C     0.51885    0.13795    0.13333
  2 C    -0.07036   -0.14240    0.12917
  3 C    -0.02290    0.28576    0.09631
  4 C     0.06048   -0.40203    0.37013
  5 C    -0.43271   -0.37232    0.77424
  6 C    -0.24256   -0.20566    0.72266
  7 C     5.50140    1.82560    0.73410
  8 C    -1.31886    2.30622   -1.33737
  9 C    -1.42345    2.58373   -2.07856
 10 C     0.89376   -0.35160   -0.05194
 11 C    -3.80006    4.21099   -0.52243
 12 C     0.04356    0.12737   -0.07371
 13 C    -0.69631   -0.27108    0.41625
 14 C     0.21825   -0.19882    0.09156
 15 C    -6.60052   -1.39043   -0.89428
 16 C    -0.13473    0.07200   -0.18203
 17 C     0.14304   -0.16400    0.15811
 18 C     0.88125   -2.01892    0.56107
 19 C     0.23640    0.08335   -0.26502
 20 C     0.41662   -0.71470    0.37175
 21 C     2.72892   -1.91647    1.20178
 22 C     0.83486   -0.14847    0.34579
 23 C     2.07748   -3.08199   -0.50919

System changes: positions

[...]

Density initialized from wave functions
    /      |             C  C                     |
   /       |           C       C                  |
  /        |    C  C    C                         |
 *         |        C     C   C                   |
 |         |  C    C            C                 |
 |         .-C-C------C--C-----C------------------.
 |        /                 C                    /
 |       /     C C  C     C                     /
 |      /              C                       /

[...]

Density initialized from wave functions
    /      |             C  C                     |
   /       |           C       C                  |
  /        |    C  C    C                         |
 *         |        C     C   C                   |
 |         |  C    C            C                 |
 |         .-C--C-----C--C-----C------------------.
 |        /                 C                    /
 |       /     C C  C     C                     /
 |      /              C                       /

[...]

Density initialized from wave functions
    /      |              C C                     |
   /       |           C       C                  |
  /        |    C  C    C                         |
 *         |        C     C   C                   |
 |         |  C    C            C                 |
 |         .-C--C-----C--C-----C------------------.
 |        /                 C                    /
 |       /     C C  C     C                     /
 |      /              C                       /

[...]

Density initialized from wave functions
    /      |              C C                     |
   /       |           C      C                   |
  /        |    C  C    C                         |
 *         |        C     C   C                   |
 |         |  C    C            C                 |
 |         .-C-C------C--C-----C------------------.
 |        /                 C                    /
 |       /     C C  C     C                     /
 |      /              C                       /

[...]

Density initialized from wave functions
    /      |              C C                     |
   /       |           C      C                   |
  /        |    C  C                              |
 *         |        C   C C   C                   |
 |         |  C    C            C                 |
 |         .-C-C------C--C-----C------------------.
 |        /                 C                    /
 |       /     C C  C     C                     /
 |      /              C                       /

[...]

Density initialized from wave functions
    /      |              C C                     |
   /       |           C       C                  |
  /        |    C  C                              |
 *         |        C   C C   C                   |
 |         |  C    C            C                 |
 |         .-C-C------C--C-----C------------------.
 |        /    C            C                    /
 |       /       C  C     C                     /
 |      /              C                       /

[...]

Density initialized from wave functions
    /      |              C C                     |
   /       |           C       C                  |
  /        |    C  C                              |
 *         |        C   C C   C                   |
 |         |  C                 C                 |
 |         .-C-C---C-C---C-----C------------------.
 |        /    C            C                    /
 |       /       C  C     C                     /
 |      /              C                       /

[...]

Density initialized from wave functions
    /      |              C C                     |
   /       |           C       C                  |
  /        |    C  C                              |
 *         |        C   C C   C                   |
 |         |  C                 C                 |
 |         .-C-C---C-C---C-----C------------------.
 |        /    C            C                    /
 |       /       C  C     C                     /
 |      /              C                       /

[...]

Density initialized from wave functions
    /      |              C C                     |
   /       |           C       C                  |
  /        |    C  C                              |
 *         |        C   C C   C                   |
 |         |  C                 C                 |
 |         .-C-C---C--C--C-----C------------------.
 |        /    C            C                    /
 |       /       C  C     C                     /
 |      /              C                       /

[...]

Density initialized from wave functions
    /      |              C C                     |
   /       |           C       C                  |
  /        |    C  C                              |
 *         |        C   C C   C                   |
 |         |  C                 C                 |
 |         .-C-C---C--C--C-----C------------------.
 |        /    C            C                    /
 |       /       C  C     C                     /
 |      /              C                       /

[...]

Density initialized from wave functions
    /      |              C C                     |
   /       |           C       C                  |
  /        |    C  C                              |
 *         |  C     C   C C   C                   |
 |         |                    C                 |
 |         .-C-C---C--C--C-----C------------------.
 |        /    C            C                    /
 |       /       C  C     C                     /
 |      /              C                       /

[...]

Density initialized from wave functions
    /      |              C C                     |
   /       |           C       C                  |
  /        |    C  C                              |
 *         |  C     C   C C   C                   |
 |         |                    C                 |
 |         .-C-C---C--C--C-----C------------------.
 |        /    C            C                    /
 |       /       C  C     C                     /
 |      /              C                       /

[...]

Density initialized from wave functions
    /      |              C                       |
   /       |           C    C  C                  |
  /        |    C  C                              |
 *         |  C     C   C C   C                   |
 |         |                    C                 |
 |         .-C-C---C--C--C-----C------------------.
 |        /    C            C                    /
 |       /       C  C     C                     /
 |      /              C                       /

[...]

Density initialized from wave functions
    /      |              C                       |
   /       |           C    C  C                  |
  /        |    C  C                              |
 *         |  C     C   C C   C                   |
 |         |                    C                 |
 |         .-C-C---C--C--C-----C------------------.
 |        /                 C                    /
 |       /     C C  C     C                     /
 |      /              C                       /

[...]

Density initialized from wave functions
    /      |              C                       |
   /       |           C    C  C                  |
  /        |    C  C                              |
 *         |  C     C   C C   C                   |
 |         |                    C                 |
 |         .-C-C---C--C--C-----C------------------.
 |        /                 C                    /
 |       /     C C  C     C                     /
 |      /              C                       /

[...]

Density initialized from wave functions
    /      |              C                       |
   /       |           C    C  C                  |
  /        |    C  C                              |
 *         |  C     C   C C   C                   |
 |         | C                  C                 |
 |         .---C---C--C--C-----C------------------.
 |        /                 C                    /
 |       /     C C  C     C                     /
 |      /              C                       /

[...]

System changes: positions

Initializing position-dependent things.

Density initialized from wave functions
    /      |              C                       |
   /       |           C    C  C                  |
  /        |    C  C                              |
 *         |  C     C   C C   C                   |
 |         | C                  C                 |
 |         .---C---C--C--C-----C------------------.
 |        /                 C                    /
 |       /     C C  C     C                     /
 |      /              C                       /

Positions:
   0 C     10.806916    5.812102    5.412871
   1 C      9.332627    3.767634    4.716609
   2 C      9.631439    5.061326    5.156957
   3 C     10.867200    7.000003    5.825048
   4 C      8.196483    3.245403    4.540888
   5 C      9.839798    7.923426    6.151368
   6 C      8.394267    5.846468    5.416312
   7 C      6.943952    3.837904    4.726915
   8 C      8.544142    7.221970    5.899394
   9 C      7.068234    5.245421    5.193502
  10 C      9.840146    9.250934    6.629582
  11 C      8.733037    9.889053    6.865987
  12 C      3.352049    6.358422    5.445526
  13 C      4.568295    4.148335    4.788929
  14 C      4.446234    5.501828    5.204266
  15 C      5.591759    3.443262    4.585524
  16 C      3.500215    7.567474    5.894595
  17 C      3.951804    8.747438    6.381994
  18 C      5.836822    6.007366    5.420372
  19 C      5.344271    8.523028    6.330901
  20 C      6.038954    7.312438    5.900365
  21 C      7.455503   10.300399    7.034101
  22 C      6.761873    9.152721    6.591205
  23 C      7.331085    7.889891    6.135476

Unit cell:
           periodic     x           y           z      points  spacing
  1. axis:    yes   16.000000    0.000000    0.000000    80     0.2000
  2. axis:    yes    0.000000   16.000000    0.000000    80     0.2000
  3. axis:    yes    0.000000    0.000000   10.000000    48     0.2083

Effective grid spacing dv^(1/3) = 0.2027

                     log10-error:    total        iterations:
           time      wfs    density  energy       fermi  poisson
iter:   1  11:39:53          +inf  -185.817125    2      5
iter:   2  11:39:53         -2.94  -185.816484    2      1
iter:   3  11:39:54         -3.12  -185.816543    2      1
iter:   4  11:39:54         -3.25  -185.816574    2      1
iter:   5  11:39:55         -3.42  -185.816831    2      1
iter:   6  11:39:56         -3.58  -185.816664    2      1
iter:   7  11:39:56         -3.52  -185.816760    2      1
iter:   8  11:39:57         -3.39  -185.816885    2      1
iter:   9  11:39:57         -3.96  -185.816799    2      1
iter:  10  11:39:58         -4.16  -185.816843    2      1

Converged after 10 iterations.

Dipole moment: (0.382324, -0.762790, -0.281921) |e|*Ang

Energy contributions relative to reference atoms: (reference = -24663.074771)

Kinetic:       +118.373539
Potential:     -126.776030
External:        +0.000000
XC:            -180.326579
Entropy (-ST):   -0.187913
Local:           +3.006184
Free energy:   -185.910799
Extrapolated:  -185.816843

Fermi level: -4.38807

 Band  Eigenvalues  Occupancy
    0    -23.21466    2.00000
    1    -22.31725    2.00000
    2    -21.94761    2.00000
    3    -20.96409    2.00000
    4    -20.69138    2.00000
    5    -20.32006    2.00000
    6    -19.57075    2.00000
    7    -19.43892    2.00000
    8    -18.73615    2.00000
    9    -18.65393    2.00000
   10    -17.99502    2.00000
   11    -17.02690    2.00000
   12    -16.71619    2.00000
   13    -15.89489    2.00000
   14    -15.57657    2.00000
   15    -15.45967    2.00000
   16    -13.89672    2.00000
   17    -13.58237    2.00000
   18    -13.34622    2.00000
   19    -12.95810    2.00000
   20    -12.76624    2.00000
   21    -12.05399    2.00000
   22    -11.92647    2.00000
   23    -11.60873    2.00000
   24    -11.15402    2.00000
   25    -11.09858    2.00000
   26    -10.94988    2.00000
   27    -10.51175    2.00000
   28     -9.93811    2.00000
   29     -9.84295    2.00000
   30     -9.81679    2.00000
   31     -9.49894    2.00000
   32     -8.98095    2.00000
   33     -8.65126    2.00000
   34     -8.48292    2.00000
   35     -8.19939    2.00000
   36     -7.19849    2.00000
   37     -7.16233    2.00000
   38     -7.11601    2.00000
   39     -6.79597    2.00000
   40     -6.77100    2.00000
   41     -6.66734    2.00000
   42     -6.59448    2.00000
   43     -6.48619    2.00000
   44     -6.43619    2.00000
   45     -5.43708    1.99994
   46     -4.67364    1.89123
   47     -4.61591    1.81416
   48     -4.21244    0.29451
   49     -3.43924    0.00015
   50     -3.12073    0.00001
   51     -2.91082    0.00000
   52     -2.84676    0.00000
   53     -2.68093    0.00000
   54     -2.21190    0.00000
   55     -1.82915    0.00000
   56     -1.41129    0.00000
   57     -1.07570    0.00000
   58     -0.25442    0.00000
   59      0.02452    0.00000
[...]
   83      8.96966    0.00000
   84      9.03429    0.00000
   85      9.07062    0.00000
   86      9.16213    0.00000
   87      9.32579    0.00000
   88      9.43995    0.00000
   89      9.47261    0.00000
   90      9.48599    0.00000
   91      9.53344    0.00000
   92      9.76930    0.00000
   93     10.17809    0.00000
   94     10.21195    0.00000
   95     10.23300    0.00000
   96     10.31098    0.00000
   97     10.43296    0.00000

Forces in eV/Ang:
  0 C    -0.04011   -0.00068    0.00172
  1 C     0.02687    0.01769    0.03234
  2 C    -0.00007   -0.00595   -0.03467
  3 C     0.03870   -0.00803    0.02510
  4 C     0.00806   -0.01307   -0.00837
  5 C     0.04538    0.02081    0.00242
  6 C     0.03669   -0.02399   -0.01763
  7 C     0.03177    0.02845    0.00634
  8 C     0.01080   -0.01908   -0.00341
  9 C     0.03146    0.01802    0.00822
 10 C    -0.06615    0.00763    0.01786
 11 C     0.01637    0.04679    0.06096
 12 C    -0.02898   -0.02003    0.05267
 13 C    -0.03244    0.00949   -0.04798
 14 C     0.00622   -0.04574    0.03368
 15 C    -0.04649    0.01146   -0.03113
 16 C    -0.02167    0.00048    0.04307
 17 C    -0.02858   -0.00219   -0.05085
 18 C     0.01494   -0.02492    0.01473
 19 C     0.06381    0.02745    0.01811
 20 C     0.00331   -0.00931    0.00358
 21 C     0.02299   -0.01574   -0.07047
 22 C    -0.08104    0.02261    0.04523
 23 C     0.00737   -0.01968   -0.01744