User:   esb@s65n64.grendel.cscaa.dk
Date:   Wed Nov  8 17:09:53 2017
Arch:   x86_64
Pid:    81766
Python: 2.7.13
gpaw:   /home/esb/DFT/gpaw_git/gpaw
_gpaw:  /home/esb/DFT/gpaw_git/build/bin.linux-x86_64-2.7/gpaw-python
ase:    /home/esb/DFT/ase_git/ase (version 3.15.0b1)
numpy:  /comm/swstack/core/python/2.7.13/lib/python2.7/site-packages/numpy (version 1.13.3)
scipy:  /comm/swstack/core/python/2.7.13/lib/python2.7/site-packages/scipy (version 0.19.1)
units:  Angstrom and eV
cores:  16
Extra parameters: {'blacs': True}

Input parameters:
  basis: dzp
  gpts: [80 80 48]
  kpts: [1 1 1]
  maxiter: 99
  mixer: {backend: pulay,
          beta: 0.05,
          method: separate,
          nmaxold: 5,
          weight: 75}
  mode: lcao
  nbands: -50
  occupations: {name: fermi-dirac,
                width: 0.1}
  poissonsolver: {eps: 1e-07,
                  name: fd,
                  nn: 3,
                  relax: GS}
  xc: PBE

System changes: positions, numbers, cell, pbc, initial_charges, initial_magmoms

Initialize ...

C-setup:
  name: Carbon
  id: 4aa54d4b901d75f77cc0ea3eec22967b
  Z: 6
  valence: 4
  core: 2
  charge: 0.0
  file: /home/esb/DFT/gpaw-setups-0.8.7929/C.PBE.gz
  cutoffs: 0.64(comp), 1.14(filt), 1.14(core), lmax=2
  valence states:
                energy  radius
    2s(2.00)   -13.751   0.635
    2p(2.00)    -5.284   0.635
    *s          13.461   0.635
    *p          21.927   0.635
    *d           0.000   0.635

  LCAO basis set for C:
    Name: dzp
    File: /home/esb/DFT/gpaw-setups-0.8.7929/C.dzp.basis.gz
    Number of radial functions: 5
    Number of spherical harmonics: 13
      l=0, rc=5.5469 Bohr: 2s-sz confined orbital
      l=1, rc=6.6719 Bohr: 2p-sz confined orbital
      l=0, rc=3.0312 Bohr: 2s-dz split-valence wave
      l=1, rc=3.7500 Bohr: 2p-dz split-valence wave
      l=2, rc=6.6719 Bohr: d-type Gaussian polarization

Reference energy: -24663.074771

Spin-paired calculation

Occupation numbers:
  Fermi-Dirac: width=0.1000 eV

Convergence criteria:
  Maximum total energy change: 0.0005 eV / electron
  Maximum integral of absolute density change: 0.0001 electrons
  Maximum integral of absolute eigenstate change: 4e-08 eV^2
  Maximum number of iterations: 99

Symmetries present (total): 1

  ( 1  0  0)
  ( 0  1  0)
  ( 0  0  1)

1 k-point (Gamma)
1 k-point in the irreducible part of the Brillouin zone
       k-points in crystal coordinates                weights
   0:     0.00000000    0.00000000    0.00000000          1/1

Wave functions: LCAO
  Diagonalizer: Serial LAPACK
  Atomic Correction: dense with blas
  Datatype: float
  Eigensolver: None

LCAO using direct dense diagonalizer

Densities:
  Coarse grid: 80*80*48 grid
  Fine grid: 160*160*96 grid
  Total Charge: 0.000000

Density mixing:
  Method: separate
  Backend: pulay
  Linear mixing parameter: 0.05
  Mixing with 5 old densities
  Damping of long wave oscillations: 75

Hamiltonian:
  XC and Coulomb potentials evaluated on a 160*160*96 grid
  Using the PBE Exchange-Correlation functional
  Interpolation: tri-quintic (5. degree polynomial)
  Poisson solver: Gauss-Seidel solver with 6 multi-grid levels
    Coarsest grid: 5 x 5 x 3 points
    Stencil: 6*3+1=19 point O(h^6) finite-difference Laplacian
    Max iterations: 1000
    Tolerance: 1.000000e-07

Total number of cores used: 16
Domain decomposition: 2 x 4 x 2

Number of atoms: 24
Number of atomic orbitals: 312
Number of bands in calculation: 98
Bands to converge: occupied states only
Number of valence electrons: 96

... initialized

Initializing position-dependent things.

Density initialized from atomic densities
   /       |           C  C  C                    |
  /        |         C                            |
 *         |  C        C  C                       |
 |         |C      C        C  C  C               |
 |         .--C---------C-------C-----------------.
 |        /      C  C     C  C                   /
 |       /         CC     C                     /
 |      /              C                       /

Positions:
   0 C      5.356259    7.954801    4.904032
   1 C      9.019146    7.923105    4.803826
   2 C      6.500748    5.167736    4.821352
   3 C      5.224465    4.566235    4.742004
   4 C      8.506659    2.388800    4.957102
   5 C     11.696070    7.853692    4.825233
   6 C      9.563954    3.231182    5.000110
   7 C      6.333306    3.694741    4.806192
   8 C     10.366456    8.193381    4.803702
   9 C     10.182441    4.327776    4.981103
  10 C      7.271866    2.728715    4.867123
  11 C     11.085112    6.648478    4.874300
  12 C     10.027241    5.726528    4.910660
  13 C      6.276311   10.908919    5.587054
  14 C      6.820736    8.494227    5.755895
  15 C      3.221666    8.953746    5.073537
  16 C      3.583383    7.300031    4.754851
  17 C      2.326475    8.023627    4.685535
  18 C      5.801057    9.585181    5.710387
  19 C      7.207872   11.749818    5.506202
  20 C      8.182572    8.807970    5.696344
  21 C      8.526434   12.057310    5.365932
  22 C      9.078321    4.780271    4.853391
  23 C      7.899710    5.300935    5.169690

Unit cell:
           periodic     x           y           z      points  spacing
  1. axis:    yes   16.000000    0.000000    0.000000    80     0.2000
  2. axis:    yes    0.000000   16.000000    0.000000    80     0.2000
  3. axis:    yes    0.000000    0.000000   10.000000    48     0.2083

Effective grid spacing dv^(1/3) = 0.2027

                     log10-error:    total        iterations:
           time      wfs    density  energy       fermi  poisson
iter:   1  17:09:55          +inf  -160.253441    2      6
iter:   2  17:09:55         -0.89  -158.902259    3      3
iter:   3  17:09:56         -0.94  -157.319280    4      3
iter:   4  17:09:57         -1.05  -156.794517    3      3
iter:   5  17:09:57         -1.13  -156.218810    31     4
iter:   6  17:09:58         -1.41  -156.040341    4      3
iter:   7  17:09:58         -1.61  -156.054344    3      3
iter:   8  17:09:59         -1.72  -156.010568    3      3
iter:   9  17:09:59         -1.97  -156.001596    3      2
iter:  10  17:10:00         -2.07  -155.993049    3      2
iter:  11  17:10:00         -2.24  -155.985782    3      2
iter:  12  17:10:01         -2.41  -155.981180    3      2
iter:  13  17:10:01         -2.75  -155.976584    2      2
iter:  14  17:10:02         -2.89  -155.980650    2      1
iter:  15  17:10:02         -3.10  -155.981213    2      1
iter:  16  17:10:02         -3.22  -155.977385    2      1
iter:  17  17:10:03         -3.36  -155.973007    2      1
iter:  18  17:10:03         -3.55  -155.973046    2      1
iter:  19  17:10:04         -3.63  -155.974761    2      1
iter:  20  17:10:04         -3.68  -155.977681    2      1
iter:  21  17:10:05         -3.86  -155.976215    2      1
iter:  22  17:10:05         -3.99  -155.975273    2      1
iter:  23  17:10:06         -4.17  -155.975810    2      1

Converged after 23 iterations.

Dipole moment: (0.440906, -1.363574, -0.050035) |e|*Ang

Energy contributions relative to reference atoms: (reference = -24663.074771)

Kinetic:       +118.626879
Potential:     -116.288611
External:        +0.000000
XC:            -160.979745
Entropy (-ST):   -0.361038
Local:           +2.846185
Free energy:   -156.156329
Extrapolated:  -155.975810

Fermi level: -4.40242

 Band  Eigenvalues  Occupancy
    0    -28.05320    2.00000
    1    -23.66292    2.00000
    2    -22.93827    2.00000
    3    -21.83753    2.00000
    4    -21.38077    2.00000
    5    -20.65779    2.00000
    6    -20.24817    2.00000
    7    -19.35954    2.00000
    8    -19.25150    2.00000
    9    -18.33348    2.00000
   10    -17.54407    2.00000
   11    -16.80921    2.00000
   12    -16.53346    2.00000
   13    -15.95223    2.00000
   14    -15.51896    2.00000
   15    -14.48539    2.00000
   16    -14.41061    2.00000
   17    -13.26625    2.00000
   18    -13.16514    2.00000
   19    -12.60221    2.00000
   20    -12.31354    2.00000
   21    -11.62274    2.00000
   22    -11.34176    2.00000
   23    -10.71835    2.00000
   24    -10.50659    2.00000
   25    -10.35929    2.00000
   26    -10.15198    2.00000
   27     -9.73968    2.00000
   28     -9.35034    2.00000
   29     -8.91031    2.00000
   30     -8.75267    2.00000
   31     -8.51922    2.00000
   32     -8.20056    2.00000
   33     -8.17939    2.00000
   34     -7.97294    2.00000
   35     -7.70880    2.00000
   36     -7.33981    2.00000
   37     -7.19483    2.00000
   38     -6.83498    2.00000
   39     -6.38969    2.00000
   40     -6.31373    2.00000
   41     -6.18524    2.00000
   42     -6.07902    2.00000
   43     -5.90280    2.00000
   44     -5.58143    1.99998
   45     -4.84405    1.97613
   46     -4.66966    1.87075
   47     -4.46927    1.32233
   48     -4.34925    0.74021
   49     -4.08410    0.07960
   50     -3.88223    0.01095
   51     -3.32247    0.00004
   52     -3.17731    0.00001
   53     -2.75239    0.00000
   54     -2.61038    0.00000
   55     -2.39092    0.00000
   56     -2.14093    0.00000
   57     -1.97255    0.00000
   58     -1.50355    0.00000
   59     -1.44822    0.00000
[...]
   83      7.78088    0.00000
   84      8.10867    0.00000
   85      8.28876    0.00000
   86      8.48065    0.00000
   87      8.53779    0.00000
   88      8.64691    0.00000
   89      8.82724    0.00000
   90      9.01174    0.00000
   91      9.25758    0.00000
   92      9.42318    0.00000
   93      9.46602    0.00000
   94      9.50493    0.00000
   95      9.66250    0.00000
   96      9.70102    0.00000
   97      9.80137    0.00000

Forces in eV/Ang:
  0 C     0.82959    2.17954    1.33411
  1 C    -0.46254    4.87238    3.33111
  2 C     4.03941    0.45946    0.96382
  3 C    -0.00874    0.27396   -0.13205
  4 C     1.63540    0.06369    0.25894
  5 C     1.85310    0.99330   -0.10115
  6 C    -2.32335   -6.93767    0.11378
  7 C    -0.64369   -2.17220   -0.10066
  8 C    -1.65258   -0.81237   -0.59147
  9 C    19.43041   -5.23649    1.95841
 10 C    -1.38234    0.38764   -0.16623
 11 C    -2.37324   -1.31454   -0.12223
 12 C     8.37538    2.75552   -0.15482
 13 C    -3.91919   -6.05667    0.61486
 14 C    -3.21760    1.58694   -1.13017
 15 C     0.04465    1.52109    0.26610
 16 C     0.66594    1.45361    0.73450
 17 C     1.30597   -1.93090   -0.25538
 18 C     1.45700    0.07645   -1.10914
 19 C     4.10667    3.05837   -0.41662
 20 C     0.65990   -4.42892   -2.77641
 21 C    -1.63799   -0.16557    0.18034
 22 C   -20.67944    8.95524   -2.20901
 23 C    -6.02858    0.41291   -0.43293

System changes: positions

[...]

Density initialized from wave functions
   /       |           C  C  C                    |
  /        |         C                            |
 *         |  C        C  C                       |
 |         |C      C        C  C  C               |
 |         .--C---------C-------C-----------------.
 |        /      C  C     C  C                   /
 |       /         CC     C                     /
 |      /              C                       /

[...]

Density initialized from wave functions
[...]
 |         | C C          C C  C                  |
 |         .-------------------C--C---------------.
 |        /           C  C  C                    /
 |       /        CC        C                   /
 |      /         C    C  C                    /
 |     /            C                         /

[...]

Density initialized from wave functions
     /     |               C                      |
    /      |              C                       |
   /       |          C C                         |
 *         |      C  C  C                         |
 |         | C C          C C  C                  |
 |         .-------------------C--C---------------.
 |        /           C  C  C                    /
 |       /        CC        C                   /
 |      /         C    C  C                    /
 |     /            C                         /

[...]

Density initialized from wave functions
     /     |               C                      |
    /      |              C                       |
   /       |          C C                         |
  /        |         C                            |
 *         |      C     C                         |
 |         | C C          C C  C                  |
 |         .-------------------C--C---------------.
 |        /           C  C  C                    /
 |       /        CC        C                   /
 |      /         C    C  C                    /
 |     /            C                         /

[...]

Density initialized from wave functions
     /     |                C                     |
    /      |            C C                       |
   /       |          C                           |
  /        |          C                           |
 *         |      C     C                         |
 |         | C C          C  C C                  |
 |         .-------------------C--C---------------.
 |        /           C  C  C                    /
 |       /        CC        C                   /
 |      /          C   C  C                    /
 |     /            C                         /

[...]

Density initialized from wave functions
     /     |              C C                     |
    /      |            C                         |
   /       |          C                           |
  /        |          C                           |
 *         |      C     C                         |
 |         | C C          C  C C                  |
 |         .-------------------C--C---------------.
 |        /           C  C  C                    /
 |       /        CC        C                   /
 |      /          C   C  C                    /
 |     /            C                         /

[...]

Density initialized from wave functions
     /     |              C C                     |
    /      |            C                         |
   /       |          C                           |
  /        |          C                           |
 *         |      C     C                         |
 |         | C C          C  C C                  |
 |         .-------------------C--C---------------.
 |        /           C  C  C                    /
 |       /        CC        C                   /
 |      /          C   C  C                    /
 |     /            C                         /

[...]

Density initialized from wave functions
     /     |              C C                     |
    /      |            C                         |
   /       |          C                           |
  /        |          C                           |
 *         |      C     C C                       |
 |         | C C             C C                  |
 |         .-------------------C--C---------------.
 |        /           C  C  C                    /
 |       /         C        C                   /
 |      /         CC   C C                     /
 |     /            C                         /

[...]

Density initialized from wave functions
     /     |              C C                     |
    /      |            C                         |
   /       |          C                           |
  /        |          C                           |
 *         |      C     C C                       |
 |         | C C             C C                  |
 |         .-------------------C--C---------------.
 |        /           C  C  C                    /
 |       /         C        C                   /
 |      /         CC   C C                     /
 |     /            C                         /

[...]

Density initialized from wave functions
     /     |                C                     |
    /      |            C C                       |
   /       |          C                           |
  /        |          C                           |
 *         |      C     C C                       |
 |         | C C             C C                  |
 |         .-------------------C--C---------------.
 |        /           C  C  C                    /
 |       /         C        C                   /
 |      /         CC   C C                     /
 |     /            C                         /

[...]

Density initialized from wave functions
     /     |                C                     |
    /      |            C C                       |
   /       |           C                          |
  /        |          C                           |
 *         |      C     C C                       |
 |         | C C             C C                  |
 |         .-------------------C--C---------------.
 |        /           C  C  C                    /
 |       /        CC        C                   /
 |      /          C   C C                     /
 |     /            C                         /

[...]

Density initialized from wave functions
     /     |                C                     |
    /      |            C C                       |
   /       |           C                          |
  /        |          C                           |
 *         |      C     C  C                      |
 |         | C C             C C                  |
 |         .-------------------C--C---------------.
 |        /           C  C  C                    /
 |       /        CC        C                   /
 |      /         C C  C C                     /

[...]

Density initialized from wave functions
     /     |                C                     |
    /      |            C C                       |
   /       |           C                          |
  /        |          C                           |
 *         |      C     C  C                      |
 |         | C C             C C                  |
 |         .-------------------C--C---------------.
 |        /           C  C  C                    /
 |       /        CC       C                    /
 |      /         C C  C C                     /

[...]

Density initialized from wave functions
     /     |                C                     |
    /      |            C C                       |
   /       |           C                          |
  /        |          C                           |
 *         |      C     C  C                      |
 |         | C C             C C                  |
 |         .-------------------C--C---------------.
 |        /           C  C  C                    /
 |       /        CC       C                    /
 |      /         C    C C                     /
 |     /            C                         /

[...]

Density initialized from wave functions
     /     |                C                     |
    /      |              C                       |
   /       |           CC                         |
  /        |          C                           |
 *         |      C     C  C                      |
 |         | C C             C C                  |
 |         .-------------------C--C---------------.
 |        /           C  C  C                    /
 |       /        CC       C                    /
 |      /         C    C C                     /
 |     /            C                         /

[...]

Density initialized from wave functions
     /     |                C                     |
    /      |              C                       |
   /       |           CC                         |
  /        |          C                           |
 *         |      C     C  C                      |
 |         | C  C            C C                  |
 |         .-------------------C--C---------------.
 |        /          C   C  C                    /
 |       /        CC       C                    /
 |      /         C    C C                     /
 |     /            C                         /

[...]

Density initialized from wave functions
     /     |                C                     |
    /      |              C                       |
   /       |           CC                         |
  /        |          C                           |
 *         |      C     C  C                      |
 |         | C  C            C C                  |
 |         .-------------------C--C---------------.
 |        /          C   C  C                    /
 |       /        CC       C                    /
 |      /         C C  C C                     /

[...]

Density initialized from wave functions
     /     |                C                     |
    /      |              C                       |
   /       |           CC                         |
  /        |          C                           |
 *         |      C     C  C                      |
 |         | C  C            C C                  |
 |         .-------------------C--C---------------.
 |        /          C   C  C                    /
 |       /        CC       C                    /
 |      /         C C  C C                     /

[...]

Density initialized from wave functions
     /     |                C                     |
    /      |              C                       |
   /       |           CC                         |
  /        |          C                           |
 *         |      C     C  C                      |
 |         | C  C            C C                  |
 |         .-------------------C--C---------------.
 |        /          C   C  C                    /
 |       /        CC     C C                    /
 |      /         C C  C                       /

[...]

System changes: positions

Initializing position-dependent things.

Density initialized from wave functions
     /     |                C                     |
    /      |              C                       |
   /       |           CC                         |
  /        |          C                           |
 *         |      C     C  C                      |
 |         | C  C            C C                  |
 |         .-------------------C--C---------------.
 |        /          C   C  C                    /
 |       /        CC     C C                    /
 |      /         C C  C                       /

Positions:
   0 C      5.922761   10.091399    5.295577
   1 C      9.419700    8.147493    5.025138
   2 C      6.480967    4.105308    4.868756
   3 C      6.235276    2.836508    4.951907
   4 C      8.826747    1.093710    5.154862
   5 C     11.750744    6.682353    4.884868
   6 C      9.294876    2.322833    5.065056
   7 C      6.655634    1.613918    5.042299
   8 C     10.465445    7.414130    4.949136
   9 C      9.885396    3.473847    5.005113
  10 C      7.522279    0.537380    5.155610
  11 C     10.675853    5.881052    4.905587
  12 C      9.671041    4.847692    4.917130
  13 C      6.370772   12.699859    5.377250
  14 C      7.151268    9.378098    5.233553
  15 C      2.861797    7.575282    4.939496
  16 C      4.772944    9.353159    5.200180
  17 C      3.781201    8.523005    5.092448
  18 C      6.012640   11.508387    5.373358
  19 C      6.752338   14.001152    5.334133
  20 C      8.261014    8.811195    5.124816
  21 C      7.151978   15.174543    5.253813
  22 C      8.323541    5.235020    4.840912
  23 C      7.020460    5.334843    4.784384

Unit cell:
           periodic     x           y           z      points  spacing
  1. axis:    yes   16.000000    0.000000    0.000000    80     0.2000
  2. axis:    yes    0.000000   16.000000    0.000000    80     0.2000
  3. axis:    yes    0.000000    0.000000   10.000000    48     0.2083

Effective grid spacing dv^(1/3) = 0.2027

                     log10-error:    total        iterations:
           time      wfs    density  energy       fermi  poisson
iter:   1  17:31:27          +inf  -179.639290    2      5
iter:   2  17:31:27         -2.68  -179.636321    1      1
iter:   3  17:31:28         -2.82  -179.633217    2      1
iter:   4  17:31:28         -3.24  -179.633773    2      1
iter:   5  17:31:29         -3.37  -179.633270    2      1
iter:   6  17:31:29         -3.38  -179.633975    2      1
iter:   7  17:31:29         -3.73  -179.634823    2      1
iter:   8  17:31:30         -3.63  -179.634396    2      1
iter:   9  17:31:30         -4.10  -179.634554    2      1

Converged after 9 iterations.

Dipole moment: (0.077124, -5.438768, 0.026576) |e|*Ang

Energy contributions relative to reference atoms: (reference = -24663.074771)

Kinetic:       +105.036895
Potential:     -117.124275
External:        +0.000000
XC:            -170.539052
Entropy (-ST):   -0.088958
Local:           +3.036356
Free energy:   -179.679033
Extrapolated:  -179.634554

Fermi level: -4.43601

 Band  Eigenvalues  Occupancy
    0    -22.89128    2.00000
    1    -21.83583    2.00000
    2    -21.40883    2.00000
    3    -21.36725    2.00000
    4    -20.60116    2.00000
    5    -19.86641    2.00000
    6    -19.74901    2.00000
    7    -19.29348    2.00000
    8    -19.00123    2.00000
    9    -18.79037    2.00000
   10    -18.16388    2.00000
   11    -17.75000    2.00000
   12    -16.64049    2.00000
   13    -16.55357    2.00000
   14    -16.21278    2.00000
   15    -15.36491    2.00000
   16    -15.12844    2.00000
   17    -14.73303    2.00000
   18    -13.94488    2.00000
   19    -13.46551    2.00000
   20    -13.32457    2.00000
   21    -13.07388    2.00000
   22    -12.83503    2.00000
   23    -12.24483    2.00000
   24    -10.44968    2.00000
   25    -10.31382    2.00000
   26     -9.88380    2.00000
   27     -9.79074    2.00000
   28     -9.70241    2.00000
   29     -9.55954    2.00000
   30     -9.13977    2.00000
   31     -8.67059    2.00000
   32     -8.46366    2.00000
   33     -8.30104    2.00000
   34     -8.15761    2.00000
   35     -7.92615    2.00000
   36     -7.88614    2.00000
   37     -7.85245    2.00000
   38     -7.19170    2.00000
   39     -7.15506    2.00000
   40     -6.57193    2.00000
   41     -6.27656    2.00000
   42     -6.15612    2.00000
   43     -6.11049    2.00000
   44     -5.73981    2.00000
   45     -5.47941    1.99994
   46     -4.92000    1.98431
   47     -4.73995    1.90864
   48     -4.14731    0.10560
   49     -3.71493    0.00148
   50     -3.32810    0.00003
   51     -3.17713    0.00001
   52     -3.01218    0.00000
   53     -2.82844    0.00000
   54     -2.33021    0.00000
   55     -1.74901    0.00000
   56     -0.90633    0.00000
   57     -0.70718    0.00000
   58     -0.55467    0.00000
   59      0.27679    0.00000
[...]
   83      8.04163    0.00000
   84      8.27738    0.00000
   85      8.44611    0.00000
   86      8.54223    0.00000
   87      8.91513    0.00000
   88      9.12220    0.00000
   89      9.18088    0.00000
   90      9.25639    0.00000
   91      9.35634    0.00000
   92      9.51496    0.00000
   93      9.56649    0.00000
   94      9.71593    0.00000
   95      9.91041    0.00000
   96      9.94077    0.00000
   97     10.14319    0.00000

Forces in eV/Ang:
  0 C    -0.01467   -0.01919   -0.05693
  1 C     0.02416   -0.00293   -0.01070
  2 C     0.02764   -0.03314   -0.03198
  3 C     0.00869    0.01501   -0.01276
  4 C    -0.06379    0.03111   -0.01448
  5 C     0.06890   -0.01535   -0.03489
  6 C     0.02258   -0.00052    0.01102
  7 C    -0.04985   -0.00238    0.02567
  8 C    -0.01371    0.00889    0.03127
  9 C    -0.04906   -0.01583    0.00269
 10 C     0.00835   -0.02267    0.02599
 11 C     0.05761   -0.01353    0.01974
 12 C     0.01449    0.03191   -0.04209
 13 C    -0.01292   -0.01172    0.00643
 14 C    -0.00692    0.04290   -0.02414
 15 C     0.02930    0.01105    0.03664
 16 C    -0.00474   -0.04109   -0.00217
 17 C    -0.03659    0.03455   -0.02293
 18 C    -0.03831   -0.01121    0.00784
 19 C    -0.02141   -0.03216   -0.00877
 20 C     0.02372   -0.00227   -0.00039
 21 C    -0.02570    0.01751    0.01291
 22 C     0.04312    0.03340    0.01109
 23 C    -0.00686   -0.00435    0.04312