User:   esb@s66n13.grendel.cscaa.dk
Date:   Thu Nov  9 10:12:39 2017
Arch:   x86_64
Pid:    90818
Python: 2.7.13
gpaw:   /home/esb/DFT/gpaw_git/gpaw
_gpaw:  /home/esb/DFT/gpaw_git/build/bin.linux-x86_64-2.7/gpaw-python
ase:    /home/esb/DFT/ase_git/ase (version 3.15.0b1)
numpy:  /comm/swstack/core/python/2.7.13/lib/python2.7/site-packages/numpy (version 1.13.3)
scipy:  /comm/swstack/core/python/2.7.13/lib/python2.7/site-packages/scipy (version 0.19.1)
units:  Angstrom and eV
cores:  16
Extra parameters: {'blacs': True}

Input parameters:
  basis: dzp
  gpts: [80 80 48]
  kpts: [1 1 1]
  maxiter: 99
  mixer: {backend: pulay,
          beta: 0.05,
          method: separate,
          nmaxold: 5,
          weight: 75}
  mode: lcao
  nbands: -50
  occupations: {name: fermi-dirac,
                width: 0.1}
  poissonsolver: {eps: 1e-07,
                  name: fd,
                  nn: 3,
                  relax: GS}
  xc: PBE

System changes: positions, numbers, cell, pbc, initial_charges, initial_magmoms

Initialize ...

C-setup:
  name: Carbon
  id: 4aa54d4b901d75f77cc0ea3eec22967b
  Z: 6
  valence: 4
  core: 2
  charge: 0.0
  file: /home/esb/DFT/gpaw-setups-0.8.7929/C.PBE.gz
  cutoffs: 0.64(comp), 1.14(filt), 1.14(core), lmax=2
  valence states:
                energy  radius
    2s(2.00)   -13.751   0.635
    2p(2.00)    -5.284   0.635
    *s          13.461   0.635
    *p          21.927   0.635
    *d           0.000   0.635

  LCAO basis set for C:
    Name: dzp
    File: /home/esb/DFT/gpaw-setups-0.8.7929/C.dzp.basis.gz
    Number of radial functions: 5
    Number of spherical harmonics: 13
      l=0, rc=5.5469 Bohr: 2s-sz confined orbital
      l=1, rc=6.6719 Bohr: 2p-sz confined orbital
      l=0, rc=3.0312 Bohr: 2s-dz split-valence wave
      l=1, rc=3.7500 Bohr: 2p-dz split-valence wave
      l=2, rc=6.6719 Bohr: d-type Gaussian polarization

Reference energy: -24663.074771

Spin-paired calculation

Occupation numbers:
  Fermi-Dirac: width=0.1000 eV

Convergence criteria:
  Maximum total energy change: 0.0005 eV / electron
  Maximum integral of absolute density change: 0.0001 electrons
  Maximum integral of absolute eigenstate change: 4e-08 eV^2
  Maximum number of iterations: 99

Symmetries present (total): 1

  ( 1  0  0)
  ( 0  1  0)
  ( 0  0  1)

1 k-point (Gamma)
1 k-point in the irreducible part of the Brillouin zone
       k-points in crystal coordinates                weights
   0:     0.00000000    0.00000000    0.00000000          1/1

Wave functions: LCAO
  Diagonalizer: Serial LAPACK
  Atomic Correction: dense with blas
  Datatype: float
  Eigensolver: None

LCAO using direct dense diagonalizer

Densities:
  Coarse grid: 80*80*48 grid
  Fine grid: 160*160*96 grid
  Total Charge: 0.000000

Density mixing:
  Method: separate
  Backend: pulay
  Linear mixing parameter: 0.05
  Mixing with 5 old densities
  Damping of long wave oscillations: 75

Hamiltonian:
  XC and Coulomb potentials evaluated on a 160*160*96 grid
  Using the PBE Exchange-Correlation functional
  Interpolation: tri-quintic (5. degree polynomial)
  Poisson solver: Gauss-Seidel solver with 6 multi-grid levels
    Coarsest grid: 5 x 5 x 3 points
    Stencil: 6*3+1=19 point O(h^6) finite-difference Laplacian
    Max iterations: 1000
    Tolerance: 1.000000e-07

Total number of cores used: 16
Domain decomposition: 2 x 4 x 2

Number of atoms: 24
Number of atomic orbitals: 312
Number of bands in calculation: 98
Bands to converge: occupied states only
Number of valence electrons: 96

... initialized

Initializing position-dependent things.

Density initialized from atomic densities
    /      |                  C                   |
   /       |           C                          |
  /        |    C  C    C     C C                 |
 *         |        C     C    C                  |
 |         | CC    C                              |
 |         .----C-----C-------C-------------------.
 |        /    C  C     C   C                    /
 |       /          C  C   C C                  /

Positions:
   0 C      3.535561    7.625926    5.527187
   1 C      3.944378    8.872441    5.859287
   2 C      5.317840    8.640212    6.091316
   3 C      6.038032    7.372145    5.963123
   4 C      9.649535    9.300191    7.349884
   5 C     10.759126    6.972609    6.967925
   6 C      9.716283    7.935086    6.999952
   7 C     10.745136    5.749104    6.669709
   8 C      8.479059    7.237264    6.527302
   9 C      6.676280    9.281223    6.551234
  10 C      7.279238    7.958209    6.384313
  11 C     10.359173    4.563178    4.382357
  12 C      7.252239    6.043942    5.461289
  13 C      9.626277    3.499931    4.446701
  14 C      7.036266    3.069328    4.960335
  15 C      9.878865    7.165717    4.772173
  16 C      9.646979    5.747938    4.760416
  17 C      8.238096    3.703530    4.855152
  18 C      8.269004    5.191823    5.106994
  19 C      5.843413    3.635617    5.220171
  20 C      5.790969    6.395937    5.588713
  21 C      4.547479    5.694903    5.544622
  22 C      4.722877    4.250913    5.396976
  23 C      3.405582    6.559922    5.598811

Unit cell:
           periodic     x           y           z      points  spacing
  1. axis:    yes   16.000000    0.000000    0.000000    80     0.2000
  2. axis:    yes    0.000000   16.000000    0.000000    80     0.2000
  3. axis:    yes    0.000000    0.000000   10.000000    48     0.2083

Effective grid spacing dv^(1/3) = 0.2027

                     log10-error:    total        iterations:
           time      wfs    density  energy       fermi  poisson
iter:   1  10:12:41          +inf  -166.812143    3      6
iter:   2  10:12:42         -0.84  -165.035534    3      3
iter:   3  10:12:42         -0.89  -162.283958    32     3
iter:   4  10:12:43         -1.02  -161.486235    3      3
iter:   5  10:12:44         -1.09  -160.700191    35     3
iter:   6  10:12:44         -1.23  -160.198353    4      3
iter:   7  10:12:45         -1.40  -160.202191    4      3
iter:   8  10:12:46         -1.56  -160.110772    3      3
iter:   9  10:12:47         -1.75  -160.062587    3      3
iter:  10  10:12:47         -1.92  -160.053949    3      2
iter:  11  10:12:48         -2.04  -160.047358    3      2
iter:  12  10:12:48         -2.15  -160.041159    3      2
iter:  13  10:12:49         -2.27  -160.041203    3      2
iter:  14  10:12:50         -2.34  -160.039363    3      2
iter:  15  10:12:50         -2.52  -160.037084    3      2
iter:  16  10:12:51         -2.70  -160.034847    3      2
iter:  17  10:12:52         -2.83  -160.033055    3      2
iter:  18  10:12:52         -2.96  -160.031709    2      2
iter:  19  10:12:53         -3.28  -160.034076    2      1
iter:  20  10:12:54         -3.44  -160.031540    2      1
iter:  21  10:12:54         -3.56  -160.029446    2      1
iter:  22  10:12:55         -3.67  -160.029157    2      1
iter:  23  10:12:55         -3.78  -160.027215    2      1
iter:  24  10:12:56         -4.01  -160.027662    2      1

Converged after 24 iterations.

Dipole moment: (-0.487711, -0.394242, -0.258194) |e|*Ang

Energy contributions relative to reference atoms: (reference = -24663.074771)

Kinetic:       +181.208810
Potential:     -166.036332
External:        +0.000000
XC:            -177.932396
Entropy (-ST):   -0.465953
Local:           +2.965232
Free energy:   -160.260639
Extrapolated:  -160.027662

Fermi level: -5.03086

 Band  Eigenvalues  Occupancy
    0    -24.66052    2.00000
    1    -22.70842    2.00000
    2    -22.13346    2.00000
    3    -21.51977    2.00000
    4    -21.15772    2.00000
    5    -20.53821    2.00000
    6    -19.68563    2.00000
    7    -19.41435    2.00000
    8    -19.17327    2.00000
    9    -18.35092    2.00000
   10    -18.00947    2.00000
   11    -17.56570    2.00000
   12    -16.83730    2.00000
   13    -15.62122    2.00000
   14    -15.23764    2.00000
   15    -14.73484    2.00000
   16    -14.09949    2.00000
   17    -13.93798    2.00000
   18    -13.36617    2.00000
   19    -13.17739    2.00000
   20    -12.50606    2.00000
   21    -12.26653    2.00000
   22    -12.05379    2.00000
   23    -11.97788    2.00000
   24    -11.53400    2.00000
   25    -10.91596    2.00000
   26    -10.71041    2.00000
   27    -10.01934    2.00000
   28     -9.86934    2.00000
   29     -9.48427    2.00000
   30     -9.11389    2.00000
   31     -8.96350    2.00000
   32     -8.57834    2.00000
   33     -8.20061    2.00000
   34     -7.85912    2.00000
   35     -7.80716    2.00000
   36     -7.66460    2.00000
   37     -7.17027    2.00000
   38     -6.89048    2.00000
   39     -6.78284    2.00000
   40     -6.28896    1.99999
   41     -6.24323    1.99999
   42     -5.89753    1.99966
   43     -5.80073    1.99909
   44     -5.60849    1.99382
   45     -5.44921    1.96997
   46     -5.16863    1.59722
   47     -5.07977    1.23977
   48     -5.02432    0.96731
   49     -4.82746    0.23135
   50     -4.29909    0.00133
   51     -4.20014    0.00049
   52     -3.79354    0.00001
   53     -3.22831    0.00000
   54     -2.90299    0.00000
   55     -2.50076    0.00000
   56     -2.31725    0.00000
   57     -1.34178    0.00000
   58     -1.18261    0.00000
   59     -1.06472    0.00000
[...]
   83      8.21140    0.00000
   84      8.43228    0.00000
   85      8.57441    0.00000
   86      8.65120    0.00000
   87      8.83470    0.00000
   88      9.04312    0.00000
   89      9.09650    0.00000
   90      9.25267    0.00000
   91      9.39591    0.00000
   92      9.45974    0.00000
   93      9.62874    0.00000
   94      9.71866    0.00000
   95      9.81575    0.00000
   96      9.92165    0.00000
   97     10.06272    0.00000

Forces in eV/Ang:
  0 C     0.49692   26.70880   -0.96893
  1 C     2.28466    0.58561    0.12177
  2 C    -0.20201    3.34774    0.95284
  3 C     4.79104   33.31048   11.85997
  4 C     0.05686   -1.74757   -0.33879
  5 C     0.82142    2.54685    0.25501
  6 C    -1.11211    1.16715    1.42052
  7 C     1.02631   -2.98020   -1.13159
  8 C    -2.37388    2.42444   -2.28124
  9 C    -0.80873   -1.62211   -0.45964
 10 C     0.79534    2.71007    1.05066
 11 C     0.45394   -0.99281   -0.54783
 12 C     2.05637   -2.85895    0.37644
 13 C    -0.58636   -0.19172    0.20634
 14 C    -1.25535    0.24132    0.03180
 15 C    -0.20436   -0.94490    0.74111
 16 C    -1.12640   -0.15000    1.12241
 17 C     1.01154   -0.33139   -0.61205
 18 C     0.23384    0.64280   -0.85212
 19 C     1.44757   -1.02235   -0.27246
 20 C    -3.59514  -31.29571  -10.84532
 21 C    -1.79328   -4.01666   -1.00187
 22 C    -0.87294    1.97187    0.29083
 23 C    -1.44945  -27.61321    0.77534

System changes: positions

[...]

Density initialized from wave functions
    /      |                  C                   |
   /       |           C                          |
  /        |    C  C    C     C C                 |
 *         |        C     C    C                  |
 |         | CC    C                              |
 |         .----C-----C-------C-------------------.
 |        /    C  C     C   C                    /
 |       /          C  C   C C                  /

[...]

[...]
 *         |  C      C  C C    CC                 |
 |         |  C     C  C     C                    |
 |         .----C---------------------------------.
 |        /     C       C   C                    /
 |       /        C    C     C                  /
 |      /           C      C                   /

[...]

Density initialized from wave functions
   /       |           C    C  C                  |
  /        |    C  C                              |
 *         |  C      C  C C    CC                 |
 |         |  C     C  C     C                    |
 |         .----C---------------------------------.
 |        /     C       C   C                    /
 |       /        C C  C     C                  /
 |      /                  C                   /

[...]

Density initialized from wave functions
   /       |           C    C  C                  |
  /        |    C  C                              |
 *         |  C      C  C C    C C                |
 |         |  C     C  C     C                    |
 |         .----C---------------------------------.
 |        /     C       C   C                    /
 |       /        C C  C     C                  /
 |      /                  C                   /

[...]

Density initialized from wave functions
   /       |           C   C   C                  |
  /        |    C  C                              |
 *         |  C      C  C C     CC                |
 |         |  C     C  C     C                    |
 |         .----C---------------------------------.
 |        /     C       C   C                    /
 |       /        C C  C     C                  /
 |      /                 C                    /

[...]

Density initialized from wave functions
   /       |           C   C   C                  |
  /        |    C  C                              |
 *         |  C      C  C C     C C               |
 |         |  C     C  C     C                    |
 |         .----C---------------------------------.
 |        /     C       C   C                    /
 |       /        C C  C     C                  /
 |      /                 C                    /

[...]

Density initialized from wave functions
   /       |           C   C   C                  |
  /        |    C  C                              |
 *         |  C         C C     C C               |
 |         |  C     CC C     C                    |
 |         .----C---------------------------------.
 |        /     C       C   C                    /
 |       /        C    C     C                  /
 |      /           C     C                    /

[...]

Density initialized from wave functions
   /       |           C   C   C                  |
  /        |    C  C                              |
 *         |  C         C C     C C               |
 |         |  C     CC C     C                    |
 |         .----C---------------------------------.
 |        /     C       C   C                    /
 |       /        C    C     C                  /
 |      /           C     C                    /

[...]

Density initialized from wave functions
   /       |               C   C                  |
  /        |    C  C   C                          |
 *         |  C         C C     C C               |
 |         |  C     CC C     C                    |
 |         .----C---------------------------------.
 |        /     C       C   C                    /
 |       /        C    C     C                  /
 |      /           C     C                    /

[...]

Density initialized from wave functions
   /       |               C   C                  |
  /        |    C  C   C          C               |
 *         |  C         C C     C                 |
 |         |  C     CC C     C                    |
 |         .----C---------------------------------.
 |        /     C       C   C                    /
 |       /        C    C     C                  /
 |      /           C     C                    /

[...]

Density initialized from wave functions
   /       |               C  C                   |
  /        |    C  C   C          C               |
 *         |  C         C C     C                 |
 |         |  C     CC C     C                    |
 |         .----C---------------------------------.
 |        /    C        C   C                    /
 |       /       C     C     C                  /
 |      /           C     C                    /

[...]

Density initialized from wave functions
   /       |               C  C                   |
  /        |    C  C   C          C               |
 *         |  C         C C     C                 |
 |         |  C    C C C     C                    |
 |         .----C---------------------------------.
 |        /    C        C   C                    /
 |       /       C     C     C                  /
 |      /           C     C                    /

[...]

Density initialized from wave functions
   /       |               C  C                   |
  /        |    C  C   C          C               |
 *         |  C         C C     C                 |
 |         |  C    C C C     C                    |
 |         .----C---------------------------------.
 |        /    C        C   C                    /
 |       /       C     C     C                  /
 |      /           C     C                    /

[...]

Density initialized from wave functions
   /       |                   C                  |
  /        |    C  C   C   C      C               |
 *         |  C         C C     C                 |
 |         |  C    C C C     C                    |
 |         .----C---------------------------------.
 |        /    C        C   C                    /
 |       /       C     C     C                  /
 |      /           C     C                    /

[...]

Density initialized from wave functions
   /       |                   C                  |
  /        |    C  C   C   C      C               |
 *         |  C         C C     C                 |
 |         |  C    C C C     C                    |
 |         .----C---------------------------------.
 |        /    C        C   C                    /
 |       /       C     C     C                  /
 |      /           C     C                    /

[...]

Density initialized from wave functions
   /       |                   C                  |
  /        |    C  C   C   C      C               |
 *         |  C         C C     C                 |
 |         |  C    C C C     C                    |
 |         .----C---------------------------------.
 |        /    C        C   C                    /
 |       /       C  C  C     C                  /
 |      /                 C                    /

[...]

Density initialized from wave functions
   /       |                   C                  |
  /        |    C  C   C   C      C               |
 *         |  C         C C     C                 |
 |         |  C    C C C     C                    |
 |         .----C---------------------------------.
 |        /    C        C   C                    /
 |       /       C  C  C     C                  /
 |      /                 C                    /

[...]

Density initialized from wave functions
   /       |               C   C  C               |
  /        |    C  C   C                          |
 *         |  C         C C     C                 |
 |         |  C    C C C     C                    |
 |         .----C---------------------------------.
 |        /    C        C   C                    /
 |       /       C  C  C     C                  /
 |      /                 C                    /

[...]

Density initialized from wave functions
   /       |               C   C  C               |
  /        |    C  C   C                          |
 *         |  C         C C     C                 |
 |         |  C    C C C     C                    |
 |         .----C---------------------------------.
 |        /    C        C   C                    /
 |       /       C     C     C                  /
 |      /           C     C                    /

[...]

Density initialized from wave functions
   /       |               C   C  C               |
  /        |    C  C   C                          |
 *         |  C         C C     C                 |
 |         |  C     CC C     C                    |
 |         .----C---------------------------------.
 |        /    C        C   C                    /
 |       /       C     C     C                  /
 |      /           C     C                    /

[...]

Density initialized from wave functions
   /       |               C  C   C               |
  /        |    C   C  C                          |
 *         |  C         C C     C                 |
 |         |  C     CC C     C                    |
 |         .----C---------------------------------.
 |        /    C        C   C                    /
 |       /       C     C     C                  /
 |      /           C     C                    /

[...]

Density initialized from wave functions
   /       |               C  C   C               |
  /        |    C   C  C                          |
 *         |  C      C  C C     C                 |
 |         |  C     C  C     C                    |
 |         .----C---------------------------------.
 |        /    C        C   C                    /
 |       /       C     C     C                  /
 |      /           C     C                    /

[...]

Density initialized from wave functions
   /       |               C  C   C               |
  /        |    C   C  C                          |
 *         |  C      C  C C     C                 |
 |         |  C     C  C     C                    |
 |         .----C---------------------------------.
 |        /    C        C   C                    /
 |       /       C     C     C                  /
 |      /           C     C                    /

[...]

Density initialized from wave functions
   /       |           C   C  C   C               |
  /        |    C   C                             |
 *         |  C      C  C C     C                 |
 |         |  C     C  C     C                    |
 |         .----C---------------------------------.
 |        /    C        C   C                    /
 |       /       C     C     C                  /
 |      /           C     C                    /

[...]

System changes: positions

Initializing position-dependent things.

Density initialized from wave functions
   /       |           C   C  C   C               |
  /        |    C   C                             |
 *         |  C      C  C C     C                 |
 |         |  C     C  C     C                    |
 |         .----C---------------------------------.
 |        /    C        C   C                    /
 |       /       C     C     C                  /
 |      /           C     C                    /

Positions:
   0 C      3.510716    7.818123    5.927994
   1 C      4.011171    9.056473    6.199191
   2 C      5.353785    9.049416    5.946466
   3 C      6.121104    7.835024    5.537093
   4 C     10.038020    7.802319    7.610979
   5 C     10.796040    7.287147    6.302220
   6 C      8.843020    7.281618    7.554512
   7 C     11.347854    8.203237    7.131035
   8 C      8.355325    7.150486    6.080849
   9 C      6.728544    9.266681    6.451228
  10 C      7.478783    8.337194    5.665464
  11 C     10.292590    4.241110    4.509120
  12 C      7.400595    5.972649    5.691464
  13 C      9.454206    3.314037    4.222143
  14 C      6.843513    2.952390    4.531788
  15 C      9.749475    6.701792    5.501234
  16 C      9.603173    5.426410    4.968972
  17 C      8.051924    3.599516    4.513584
  18 C      8.171984    5.023970    5.029849
  19 C      5.746979    3.579764    4.970254
  20 C      5.992019    6.414214    5.750493
  21 C      4.717176    5.701955    5.655579
  22 C      4.756125    4.308794    5.348077
  23 C      3.573192    6.548330    5.800704

Unit cell:
           periodic     x           y           z      points  spacing
  1. axis:    yes   16.000000    0.000000    0.000000    80     0.2000
  2. axis:    yes    0.000000   16.000000    0.000000    80     0.2000
  3. axis:    yes    0.000000    0.000000   10.000000    48     0.2083

Effective grid spacing dv^(1/3) = 0.2027

                     log10-error:    total        iterations:
           time      wfs    density  energy       fermi  poisson
iter:   1  10:33:12          +inf  -177.571027    3      5
iter:   2  10:33:12         -2.65  -177.565886    3      1
iter:   3  10:33:13         -2.93  -177.564581    2      1
iter:   4  10:33:14         -3.03  -177.565120    2      1
iter:   5  10:33:14         -3.17  -177.564025    2      1
iter:   6  10:33:15         -3.22  -177.567495    3      1
iter:   7  10:33:15         -3.00  -177.566159    2      1
iter:   8  10:33:16         -3.34  -177.564504    2      1
iter:   9  10:33:17         -3.78  -177.564963    2      1
iter:  10  10:33:17         -3.62  -177.564533    2      1
iter:  11  10:33:18         -4.16  -177.564286    2      1

Converged after 11 iterations.

Dipole moment: (-0.126401, 0.039486, -0.278412) |e|*Ang

Energy contributions relative to reference atoms: (reference = -24663.074771)

Kinetic:       +111.946221
Potential:     -116.745210
External:        +0.000000
XC:            -175.589700
Entropy (-ST):   -0.268350
Local:           +2.958578
Free energy:   -177.698461
Extrapolated:  -177.564286

Fermi level: -4.66967

 Band  Eigenvalues  Occupancy
    0    -23.98722    2.00000
    1    -23.33823    2.00000
    2    -22.49405    2.00000
    3    -21.33970    2.00000
    4    -21.18102    2.00000
    5    -20.46301    2.00000
    6    -19.67512    2.00000
    7    -19.28913    2.00000
    8    -18.84423    2.00000
    9    -18.07770    2.00000
   10    -17.70223    2.00000
   11    -17.41656    2.00000
   12    -16.51685    2.00000
   13    -15.57130    2.00000
   14    -15.38766    2.00000
   15    -14.75520    2.00000
   16    -13.98220    2.00000
   17    -13.55651    2.00000
   18    -13.48163    2.00000
   19    -12.88396    2.00000
   20    -12.26304    2.00000
   21    -11.97391    2.00000
   22    -11.41859    2.00000
   23    -11.22482    2.00000
   24    -11.07043    2.00000
   25    -10.98561    2.00000
   26    -10.64057    2.00000
   27    -10.49639    2.00000
   28    -10.01225    2.00000
   29     -9.70192    2.00000
   30     -9.57599    2.00000
   31     -9.50370    2.00000
   32     -9.37448    2.00000
   33     -8.81351    2.00000
   34     -8.46403    2.00000
   35     -8.16406    2.00000
   36     -7.91865    2.00000
   37     -7.39173    2.00000
   38     -7.20841    2.00000
   39     -7.05155    2.00000
   40     -6.69015    2.00000
   41     -6.18008    2.00000
   42     -5.90402    1.99999
   43     -5.62940    1.99986
   44     -5.43139    1.99902
   45     -5.22041    1.99192
   46     -4.94443    1.87956
   47     -4.81026    1.60624
   48     -4.56502    0.51978
   49     -4.02872    0.00329
   50     -3.80093    0.00034
   51     -3.42239    0.00001
   52     -2.95501    0.00000
   53     -2.82003    0.00000
   54     -2.12140    0.00000
   55     -1.88205    0.00000
   56     -1.36283    0.00000
   57     -1.09028    0.00000
   58     -0.98090    0.00000
   59      0.47988    0.00000
[...]
   83      8.12751    0.00000
   84      8.36872    0.00000
   85      8.65779    0.00000
   86      8.74787    0.00000
   87      8.94619    0.00000
   88      9.06486    0.00000
   89      9.14495    0.00000
   90      9.23208    0.00000
   91      9.33962    0.00000
   92      9.60957    0.00000
   93      9.63652    0.00000
   94      9.77083    0.00000
   95      9.90849    0.00000
   96      9.95348    0.00000
   97     10.15502    0.00000

Forces in eV/Ang:
  0 C     0.00130   -0.04079    0.00421
  1 C    -0.00267   -0.00719    0.01087
  2 C     0.00815   -0.00921   -0.01025
  3 C    -0.04039    0.00230   -0.02537
  4 C     0.03721   -0.01073   -0.07445
  5 C     0.02541    0.00219    0.00211
  6 C    -0.00511    0.00463    0.00443
  7 C     0.07695    0.05428   -0.01880
  8 C    -0.03650    0.01792   -0.03834
  9 C    -0.00988    0.00599    0.00979
 10 C    -0.02936   -0.01982    0.07880
 11 C     0.02959    0.01693   -0.03555
 12 C    -0.02610   -0.02432    0.00554
 13 C    -0.00084   -0.01855    0.06031
 14 C    -0.02008   -0.01667   -0.00198
 15 C    -0.01727    0.00171    0.04101
 16 C     0.00063    0.00534    0.01717
 17 C    -0.00566   -0.03637   -0.01369
 18 C    -0.01014   -0.04217    0.03055
 19 C    -0.02686   -0.02053   -0.06217
 20 C    -0.01280    0.01082   -0.01304
 21 C     0.03133   -0.03102    0.04863
 22 C     0.03890    0.02982   -0.03173
 23 C     0.06743   -0.01068   -0.03116