User:   esb@s65n24.grendel.cscaa.dk
Date:   Wed Nov  8 14:13:01 2017
Arch:   x86_64
Pid:    38949
Python: 2.7.13
gpaw:   /home/esb/DFT/gpaw_git/gpaw
_gpaw:  /home/esb/DFT/gpaw_git/build/bin.linux-x86_64-2.7/gpaw-python
ase:    /home/esb/DFT/ase_git/ase (version 3.15.0b1)
numpy:  /comm/swstack/core/python/2.7.13/lib/python2.7/site-packages/numpy (version 1.13.3)
scipy:  /comm/swstack/core/python/2.7.13/lib/python2.7/site-packages/scipy (version 0.19.1)
units:  Angstrom and eV
cores:  16
Extra parameters: {'blacs': True}

Input parameters:
  basis: dzp
  gpts: [80 80 48]
  kpts: [1 1 1]
  maxiter: 99
  mixer: {backend: pulay,
          beta: 0.05,
          method: separate,
          nmaxold: 5,
          weight: 75}
  mode: lcao
  nbands: -50
  occupations: {name: fermi-dirac,
                width: 0.1}
  poissonsolver: {eps: 1e-07,
                  name: fd,
                  nn: 3,
                  relax: GS}
  xc: PBE

System changes: positions, numbers, cell, pbc, initial_charges, initial_magmoms

Initialize ...

C-setup:
  name: Carbon
  id: 4aa54d4b901d75f77cc0ea3eec22967b
  Z: 6
  valence: 4
  core: 2
  charge: 0.0
  file: /home/esb/DFT/gpaw-setups-0.8.7929/C.PBE.gz
  cutoffs: 0.64(comp), 1.14(filt), 1.14(core), lmax=2
  valence states:
                energy  radius
    2s(2.00)   -13.751   0.635
    2p(2.00)    -5.284   0.635
    *s          13.461   0.635
    *p          21.927   0.635
    *d           0.000   0.635

  LCAO basis set for C:
    Name: dzp
    File: /home/esb/DFT/gpaw-setups-0.8.7929/C.dzp.basis.gz
    Number of radial functions: 5
    Number of spherical harmonics: 13
      l=0, rc=5.5469 Bohr: 2s-sz confined orbital
      l=1, rc=6.6719 Bohr: 2p-sz confined orbital
      l=0, rc=3.0312 Bohr: 2s-dz split-valence wave
      l=1, rc=3.7500 Bohr: 2p-dz split-valence wave
      l=2, rc=6.6719 Bohr: d-type Gaussian polarization

Reference energy: -24663.074771

Spin-paired calculation

Occupation numbers:
  Fermi-Dirac: width=0.1000 eV

Convergence criteria:
  Maximum total energy change: 0.0005 eV / electron
  Maximum integral of absolute density change: 0.0001 electrons
  Maximum integral of absolute eigenstate change: 4e-08 eV^2
  Maximum number of iterations: 99

Symmetries present (total): 1

  ( 1  0  0)
  ( 0  1  0)
  ( 0  0  1)

1 k-point (Gamma)
1 k-point in the irreducible part of the Brillouin zone
       k-points in crystal coordinates                weights
   0:     0.00000000    0.00000000    0.00000000          1/1

Wave functions: LCAO
  Diagonalizer: Serial LAPACK
  Atomic Correction: dense with blas
  Datatype: float
  Eigensolver: None

LCAO using direct dense diagonalizer

Densities:
  Coarse grid: 80*80*48 grid
  Fine grid: 160*160*96 grid
  Total Charge: 0.000000

Density mixing:
  Method: separate
  Backend: pulay
  Linear mixing parameter: 0.05
  Mixing with 5 old densities
  Damping of long wave oscillations: 75

Hamiltonian:
  XC and Coulomb potentials evaluated on a 160*160*96 grid
  Using the PBE Exchange-Correlation functional
  Interpolation: tri-quintic (5. degree polynomial)
  Poisson solver: Gauss-Seidel solver with 6 multi-grid levels
    Coarsest grid: 5 x 5 x 3 points
    Stencil: 6*3+1=19 point O(h^6) finite-difference Laplacian
    Max iterations: 1000
    Tolerance: 1.000000e-07

Total number of cores used: 16
Domain decomposition: 2 x 4 x 2

Number of atoms: 24
Number of atomic orbitals: 312
Number of bands in calculation: 98
Bands to converge: occupied states only
Number of valence electrons: 96

... initialized

Initializing position-dependent things.

Density initialized from atomic densities
   /       |             C                        |
  /        |           C   C                      |
 *         |      C     C     C                   |
 |         |          CC  C  C C                  |
 |         .-C----C---C----CCC-C------------------.
 |        /   C CC                               /
 |       /          C     C                     /

Positions:
   0 C      6.781648   10.346228    4.748672
   1 C      4.025316    5.414944    4.953887
   2 C      7.091754    9.010871    5.580397
   3 C      9.642172    8.714117    5.619752
   4 C     10.326692    5.109300    5.552936
   5 C      7.282272    7.553460    4.904508
   6 C      9.032256    4.301893    4.485142
   7 C      4.760774    9.278411    4.900272
   8 C      7.868642   10.685752    5.196114
   9 C      5.186598    7.749587    4.332153
  10 C      7.020164    6.334322    4.934634
  11 C      9.044081    8.900278    4.453657
  12 C      4.350190    6.308530    4.390845
  13 C     10.218861    8.751845    4.651162
  14 C      3.261253    6.697183    4.955293
  15 C      6.620452    4.010669    4.721947
  16 C      9.025271    7.576670    4.451885
  17 C     10.922217    6.142907    4.957984
  18 C      5.483645    4.524972    5.226003
  19 C      7.884826    9.125199    4.456027
  20 C      6.773981   11.715606    5.247974
  21 C      6.375960   10.425814    5.740410
  22 C      9.136703    6.161832    4.941912
  23 C      6.329489    8.337031    5.064746

Unit cell:
           periodic     x           y           z      points  spacing
  1. axis:    yes   16.000000    0.000000    0.000000    80     0.2000
  2. axis:    yes    0.000000   16.000000    0.000000    80     0.2000
  3. axis:    yes    0.000000    0.000000   10.000000    48     0.2083

Effective grid spacing dv^(1/3) = 0.2027

                     log10-error:    total        iterations:
           time      wfs    density  energy       fermi  poisson
iter:   1  14:13:04          +inf  -122.127080    2      6
iter:   2  14:13:04         -0.85  -119.562471    3      3
iter:   3  14:13:05         -0.90  -116.209928    32     3
iter:   4  14:13:06         -1.00  -115.059391    4      3
iter:   5  14:13:06         -1.08  -113.952387    4      4
iter:   6  14:13:07         -1.31  -113.821677    3      3
iter:   7  14:13:07         -1.48  -113.735667    3      3
iter:   8  14:13:08         -1.63  -113.650383    2      3
iter:   9  14:13:08         -1.82  -113.623949    3      3
iter:  10  14:13:09         -1.95  -113.615139    3      2
iter:  11  14:13:09         -2.17  -113.600098    2      2
iter:  12  14:13:10         -2.29  -113.593411    3      2
iter:  13  14:13:11         -2.57  -113.591881    2      2
iter:  14  14:13:11         -2.68  -113.588588    2      2
iter:  15  14:13:12         -2.85  -113.585307    2      1
iter:  16  14:13:12         -2.94  -113.589912    2      2
iter:  17  14:13:13         -3.14  -113.599038    2      1
iter:  18  14:13:13         -3.26  -113.590382    2      1
iter:  19  14:13:14         -3.41  -113.589249    2      1
iter:  20  14:13:14         -3.53  -113.590480    2      1
iter:  21  14:13:15         -3.69  -113.589975    2      1
iter:  22  14:13:15         -3.83  -113.589649    2      1
iter:  23  14:13:16         -3.90  -113.589758    2      1
iter:  24  14:13:16         -3.96  -113.590219    2      1
iter:  25  14:13:17         -4.17  -113.589914    2      1

Converged after 25 iterations.

Dipole moment: (-0.162372, -0.302493, -0.539556) |e|*Ang

Energy contributions relative to reference atoms: (reference = -24663.074771)

Kinetic:       +350.244659
Potential:     -268.834896
External:        +0.000000
XC:            -197.816874
Entropy (-ST):   -0.206950
Local:           +2.920671
Free energy:   -113.693389
Extrapolated:  -113.589914

Fermi level: -4.65949

 Band  Eigenvalues  Occupancy
    0    -31.26593    2.00000
    1    -29.83589    2.00000
    2    -27.88888    2.00000
    3    -25.83494    2.00000
    4    -23.07670    2.00000
    5    -22.42523    2.00000
    6    -21.64066    2.00000
    7    -20.22571    2.00000
    8    -19.86415    2.00000
    9    -19.39766    2.00000
   10    -18.48149    2.00000
   11    -17.69336    2.00000
   12    -16.43782    2.00000
   13    -15.96638    2.00000
   14    -15.71042    2.00000
   15    -15.58527    2.00000
   16    -15.23648    2.00000
   17    -14.67336    2.00000
   18    -14.19672    2.00000
   19    -13.44383    2.00000
   20    -12.71744    2.00000
   21    -12.02549    2.00000
   22    -11.88905    2.00000
   23    -11.72193    2.00000
   24    -10.95113    2.00000
   25    -10.76922    2.00000
   26    -10.21986    2.00000
   27    -10.08216    2.00000
   28     -9.61055    2.00000
   29     -9.22076    2.00000
   30     -9.06519    2.00000
   31     -8.85060    2.00000
   32     -8.28729    2.00000
   33     -8.06661    2.00000
   34     -7.89463    2.00000
   35     -7.74383    2.00000
   36     -7.46786    2.00000
   37     -7.23835    2.00000
   38     -7.09209    2.00000
   39     -6.55574    2.00000
   40     -6.50713    2.00000
   41     -6.37863    2.00000
   42     -6.30152    2.00000
   43     -6.23233    2.00000
   44     -6.11065    2.00000
   45     -5.29937    1.99668
   46     -5.12063    1.98032
   47     -4.82503    1.67924
   48     -4.49062    0.31191
   49     -4.18256    0.01683
   50     -4.16794    0.01456
   51     -3.78906    0.00033
   52     -3.69445    0.00013
   53     -3.31264    0.00000
   54     -2.95440    0.00000
   55     -2.81734    0.00000
   56     -2.59043    0.00000
   57     -2.06349    0.00000
   58     -1.81297    0.00000
   59     -1.51552    0.00000
[...]
   83      7.35219    0.00000
   84      7.49145    0.00000
   85      7.73051    0.00000
   86      7.74793    0.00000
   87      8.09457    0.00000
   88      8.36825    0.00000
   89      8.49502    0.00000
   90      8.80646    0.00000
   91      8.97060    0.00000
   92      9.00733    0.00000
   93      9.26081    0.00000
   94      9.30469    0.00000
   95      9.56939    0.00000
   96      9.81209    0.00000
   97      9.83391    0.00000

Forces in eV/Ang:
  0 C     2.64781   -5.36127  -44.75920
  1 C    -2.19855  -24.98191   14.02701
  2 C     9.74947   11.20949   18.14435
  3 C    -4.80749   -2.95133   27.82592
  4 C    -3.34382   -1.10631   -1.47400
  5 C     8.47358   -7.59275   -2.54488
  6 C     1.17316    3.35523    1.50364
  7 C    -0.24347   -5.08375   -2.81682
  8 C    15.19311    9.91874    3.43727
  9 C    -3.60281    4.45696    2.64878
 10 C     1.47111   -8.79781    1.04153
 11 C    -2.88686    3.22620  -13.34764
 12 C    13.34209   25.87637  -17.22083
 13 C    29.81534    2.19275  -15.38552
 14 C    -7.38424    1.01185    3.27435
 15 C    -1.31674    1.45804    1.34684
 16 C    -0.87091  -11.51802    2.00075
 17 C     0.60537    0.17492    0.02343
 18 C    -1.22603   -0.21138   -0.95048
 19 C   -12.68618   10.75821   -4.95041
 20 C     1.68485    5.88162    2.13303
 21 C   -17.75686    0.77624   35.87170
 22 C     0.66941   -1.02768   -1.96905
 23 C   -26.42733  -11.70560   -7.92083

System changes: positions

[...]

Density initialized from wave functions
   /       |             C                        |
  /        |           C   C                      |
 *         |      C     C     C                   |
 |         |          CC  C  C C                  |
 |         .-C----C---C----CCC-C------------------.
 |        /   C CC                               /
 |       /          C     C                     /

[...]

Density initialized from wave functions
[...]
   /       |                      C               |
 *         |      C  C CC CC     C                |
 |         |   C  C   C    C C                    |
 |         C--C---------C----C--------------------.
 |        /     C  C  C  C  C   C                /

[...]

Density initialized from wave functions
   /       |                      C               |
 *         |      C  C CC CC C   C                |
 |         |   C  C   C    C                      |
 |         C--C---------C----C--------------------.
 |        /     C  C  C  C  C   C                /

[...]

Density initialized from wave functions
   /       |                      C               |
 *         |      C  C CC CC C   C                |
 |         |   C  C   C    C                      |
 |         C--C---------C----C--------------------.
 |        /     C  C  C  C  C  C                 /

[...]

Density initialized from wave functions
   /       |                      C               |
 *         |      C  C CC CC C   C                |
 |         |   C  C   C    C                      |
 |         C--C---------C----C--------------------.
 |        /     C  C  C     C  C                 /
 |       /               C                      /

[...]

Density initialized from wave functions
   /       |                      C               |
 *         |      C  C CC CC     C                |
 |         |   C  C   C    C C                    |
 |         C--C---------C----C--------------------.
 |        /     C  C  C     C  C                 /
 |       /               C                      /

[...]

Density initialized from wave functions
   /       |                      C               |
 *         |      C  C CC CC     C                |
 |         |   C  C   C    C C                    |
 |         C--C---------C----C--------------------.
 |        /     C  C  C        C                 /
 |       /               C  C                   /

[...]

Density initialized from wave functions
   /       |                      C               |
 *         |      C  C C  CC     C                |
 |         |   C  C   C    C C                    |
 |         C--C---------C----C--------------------.
 |        /     C  C  C        C                 /
 |       /               C  C                   /

[...]

Density initialized from wave functions
   /       |                      C               |
 *         |      C  C C  CC     C                |
 |         |   C  C   C    C C                    |
 |         C--C---------C----C--------------------.
 |        /     C  C  C         C                /
 |       /               C  C                   /

[...]

Density initialized from wave functions
   /       |                      C               |
 *         |      C  C C  CC C  C                 |
 |         |   C  C   C    C                      |
 |         C--C---------C----C--------------------.
 |        /     C  C  C         C                /
 |       /               C  C                   /

[...]

Density initialized from wave functions
   /       |                      C               |
 *         |      C  C C   C C  C                 |
 |         |   C  C   C    C                      |
 |         C--C---------C----C--------------------.
 |        /     C  C  C         C                /
 |       /               C  C                   /

[...]

Density initialized from wave functions
   /       |                       C              |
 *         |      C  C CC  C C  C                 |
 |         C   C  C   C    C                      |
 |         .--C---------C----C--------------------.
 |        /     C  C  C        C                 /
 |       /               C  C                   /

[...]

Density initialized from wave functions
   /       |                       C              |
 *         |      C  C CC  C C  C                 |
 |         C   C  C   C    C                      |
 |         .--C---------C----C--------------------.
 |        /     C  C  C        C                 /
 |       /               C  C                   /

[...]

Density initialized from wave functions
   /       |                       C              |
 *         |         C CC  C C  C                 |
 |         C   C  C  C     C                      |
 |         .--C---------C----C--------------------.
 |        /     C  C  C        C                 /
 |       /               C  C                   /

[...]

Density initialized from wave functions
   /       |                       C              |
 *         |         C CC  C C  C                 |
 |         C   C  C  C     C                      |
 |         .--C---------C----C--------------------.
 |        /     C  C  C        C                 /
 |       /               C  C                   /

[...]

Density initialized from wave functions
   /       |                       C              |
 *         |         C  C  C C  C                 |
 |         C   C  C  C C   C                      |
 |         .--C---------C----C--------------------.
 |        /     C  C  C        C                 /
 |       /               C  C                   /

[...]

Density initialized from wave functions
   /       |                       C              |
 *         |         C  C  C C  C                 |
 |         C   C  C  C C   C                      |
 |         .--C---------C----C--------------------.
 |        /     C  C  C        C                 /
 |       /               C  C                   /

[...]

Density initialized from wave functions
   /       |                       C              |
 *         |         C  C  CCC  C                 |
 |         C   C  C  C C   C                      |
 |         .--C---------C----C--------------------.
 |        /     C  C  C        C                 /
 |       /               C  C                   /

[...]

Density initialized from wave functions
   /       |                       C              |
 *         |         C  C  CCC  C                 |
 |         C   C  C  C C   C                      |
 |         .--C---------C----C--------------------.
 |        /     C  C  C        C                 /
 |       /               C  C                   /

[...]

Density initialized from wave functions
   /       |                       C              |
 *         |         C  C  CCC  C                 |
 |         C   C  C  C C   C                      |
 |         .--C--------C-----C--------------------.
 |        /     C  C  C        C                 /
 |       /               C  C                   /

[...]

Density initialized from wave functions
   /       |                       C              |
 *         |         C  C  CCC  C                 |
 |         C   C  C  C C   C                      |
 |         .--C--------C-----C--------------------.
 |        /     C  C  C        C                 /
 |       /               C  C                   /

[...]

Density initialized from wave functions
   /       |                       C              |
 *         |         C  C  CCC  C                 |
 |         C   C  C  C C   C                      |
 |         .--C-C------C-----C--------------------.
 |        /        C  C        C                 /
 |       /               C  C                   /

[...]

Density initialized from wave functions
  /        |                       C              |
 *         |         C  C  CCC  C                 |
 |         C   C  C  C C   C                      |
 |         .--C-C------C-----C--------------------.
 |        /        C  C     C  C                 /
 |       /               C                      /

[...]

Density initialized from wave functions
  /        |                       C              |
 *         |         C  C  CCC  C                 |
 |         C   C  C  C C   C                      |
 |         .--C-C------C-----C--------------------.
 |        /        C  C        C                 /
 |       /               C  C                   /

[...]

Density initialized from wave functions
  /        |                       C              |
 *         |         C  C  CCC  C                 |
 |         C   C  C  C C   C                      |
 |         .--C-C------C-----C--------------------.
 |        /        C  C     C  C                 /
 |       /               C                      /

[...]

Density initialized from wave functions
  /        |                       C              |
 *         |            C  CCC  C                 |
 |         C   C  C  C C   C                      |
 |         .--C-C------C-----C--------------------.
 |        /        C  C  C  C  C                 /

[...]

Density initialized from wave functions
  /        |                       C              |
 *         |           C   CCC  C                 |
 |         C   C  C  C C   C                      |
 |         .--C-C------C-----C--------------------.
 |        /        C  C  C  C  C                 /

[...]

Density initialized from wave functions
  /        |                       C              |
 *         |           C   CCC  C                 |
 |         C      C  C C   C                      |
 |         .--CCC------C-----C--------------------.
 |        /        C  C  C  C  C                 /

[...]

Density initialized from wave functions
  /        |               C       C              |
 *         |           C   CC   C                 |
 |         C      C  C C   C C                    |
 |         .--CCC--C---C-----C--------------------.
 |        /           C  C  C  C                 /

[...]

Density initialized from wave functions
  /        |               C       C              |
 *         |           C   C    C                 |
 |         C      C  C C   C C                    |
 |         .--CCC--C---C-----C--------------------.
 |        /           C  C  C  C                 /

[...]

Density initialized from wave functions
  /        |               C       C              |
 *         |           C   C    C                 |
 |         C      C  C C   C C                    |
 |         .--CCC--C---C-----C--------------------.
 |        /           C  C  C  C                 /

[...]

Density initialized from wave functions
  /        |               C       C              |
 *         |           C   C    C                 |
 |         C      C  C C   C C                    |
 |         .--CCC--C--CC-----C--------------------.
 |        /              C  C  C                 /

[...]

System changes: positions

Initializing position-dependent things.

Density initialized from wave functions
  /        |               C       C              |
 *         |           C   C    C                 |
 |         C      C  C C   C C                    |
 |         .--CCC--C--CC-----C--------------------.
 |        /              C  C  C                 /

Positions:
   0 C      7.413422   12.077228    4.239050
   1 C      3.718805    5.616047    5.533008
   2 C      6.856736    9.002412    4.632187
   3 C     11.690298    9.451809    5.751752
   4 C      9.767213    4.829578    4.807371
   5 C      7.480179    6.727444    5.029163
   6 C      8.523733    4.503388    5.042301
   7 C      4.564239    9.177128    4.440093
   8 C      8.056057   10.923399    4.507322
   9 C      4.884440    7.846261    4.745929
  10 C      7.356721    5.225050    5.225057
  11 C      9.263980    8.660955    4.996592
  12 C      3.831377    6.956203    5.083859
  13 C     10.557394    9.080144    5.264782
  14 C      2.550468    6.441692    5.508433
  15 C      6.096767    4.689101    5.555042
  16 C      8.877250    7.249195    5.014348
  17 C     11.010208    5.493417    4.679672
  18 C      4.859544    4.865189    5.630928
  19 C      8.160077    9.532506    4.711798
  20 C      6.340138   11.201250    4.266017
  21 C      5.769277    9.954162    4.374073
  22 C      9.939568    6.341063    4.915685
  23 C      6.411325    7.658111    4.842992

Unit cell:
           periodic     x           y           z      points  spacing
  1. axis:    yes   16.000000    0.000000    0.000000    80     0.2000
  2. axis:    yes    0.000000   16.000000    0.000000    80     0.2000
  3. axis:    yes    0.000000    0.000000   10.000000    48     0.2083

Effective grid spacing dv^(1/3) = 0.2027

                     log10-error:    total        iterations:
           time      wfs    density  energy       fermi  poisson
iter:   1  14:36:03          +inf  -180.234334    2      5
iter:   2  14:36:03         -2.72  -180.233176    2      1
iter:   3  14:36:04         -3.12  -180.233542    2      1
iter:   4  14:36:04         -3.19  -180.233818    2      1
iter:   5  14:36:05         -3.27  -180.234887    2      1
iter:   6  14:36:05         -3.35  -180.233965    2      1
iter:   7  14:36:06         -3.37  -180.233257    2      1
iter:   8  14:36:06         -3.46  -180.232970    2      1
iter:   9  14:36:07         -3.89  -180.232980    2      1
iter:  10  14:36:07         -3.98  -180.232924    2      1
iter:  11  14:36:08         -4.04  -180.232825    2      1

Converged after 11 iterations.

Dipole moment: (-0.531971, -0.684298, -0.315134) |e|*Ang

Energy contributions relative to reference atoms: (reference = -24663.074771)

Kinetic:       +113.861176
Potential:     -121.488020
External:        +0.000000
XC:            -175.428340
Entropy (-ST):   -0.220770
Local:           +2.932744
Free energy:   -180.343210
Extrapolated:  -180.232825

Fermi level: -4.66482

 Band  Eigenvalues  Occupancy
    0    -24.17328    2.00000
    1    -23.75032    2.00000
    2    -23.08586    2.00000
    3    -22.24762    2.00000
    4    -21.50418    2.00000
    5    -21.25914    2.00000
    6    -19.85651    2.00000
    7    -19.54376    2.00000
    8    -19.13776    2.00000
    9    -18.76396    2.00000
   10    -17.84728    2.00000
   11    -17.51827    2.00000
   12    -16.42681    2.00000
   13    -16.25551    2.00000
   14    -15.91622    2.00000
   15    -15.58179    2.00000
   16    -14.64220    2.00000
   17    -13.43032    2.00000
   18    -13.32157    2.00000
   19    -13.12787    2.00000
   20    -12.46680    2.00000
   21    -12.36502    2.00000
   22    -11.92002    2.00000
   23    -11.46659    2.00000
   24    -11.31677    2.00000
   25    -10.82820    2.00000
   26    -10.68231    2.00000
   27    -10.43104    2.00000
   28    -10.20687    2.00000
   29    -10.14853    2.00000
   30    -10.06382    2.00000
   31     -9.72234    2.00000
   32     -9.21277    2.00000
   33     -9.03859    2.00000
   34     -8.83889    2.00000
   35     -8.78968    2.00000
   36     -8.65173    2.00000
   37     -7.35774    2.00000
   38     -7.30211    2.00000
   39     -7.11369    2.00000
   40     -6.77606    2.00000
   41     -6.56369    2.00000
   42     -5.98047    2.00000
   43     -5.40423    1.99877
   44     -5.29264    1.99625
   45     -5.10290    1.97528
   46     -4.96374    1.90417
   47     -4.89345    1.81547
   48     -4.46832    0.24586
   49     -4.32167    0.06265
   50     -3.94810    0.00154
   51     -3.35741    0.00000
   52     -3.09172    0.00000
   53     -2.02907    0.00000
   54     -1.85901    0.00000
   55     -1.55132    0.00000
   56     -1.24954    0.00000
   57     -0.78863    0.00000
   58     -0.20864    0.00000
   59      0.38562    0.00000
[...]
   83      8.49378    0.00000
   84      8.62282    0.00000
   85      8.81891    0.00000
   86      8.96704    0.00000
   87      9.02037    0.00000
   88      9.11232    0.00000
   89      9.16728    0.00000
   90      9.19941    0.00000
   91      9.30980    0.00000
   92      9.66516    0.00000
   93      9.85563    0.00000
   94      9.88068    0.00000
   95      9.94908    0.00000
   96     10.10629    0.00000
   97     10.17583    0.00000

Forces in eV/Ang:
  0 C    -0.01388    0.07056    0.02389
  1 C    -0.02028    0.01432   -0.04885
  2 C     0.01163   -0.01293   -0.04219
  3 C     0.06889    0.03417   -0.05092
  4 C     0.02753   -0.08717    0.02555
  5 C     0.00250    0.02750    0.04069
  6 C     0.03018   -0.03488   -0.03518
  7 C    -0.04645   -0.00564    0.04195
  8 C    -0.00966    0.03648   -0.02031
  9 C    -0.01750   -0.02073    0.02631
 10 C    -0.05481   -0.03341   -0.02552
 11 C    -0.03875   -0.01352    0.04981
 12 C    -0.06073   -0.01736   -0.04665
 13 C    -0.00127   -0.03675   -0.01913
 14 C     0.03725   -0.00584   -0.01558
 15 C     0.03712    0.00848    0.02835
 16 C    -0.00534   -0.01914    0.01200
 17 C    -0.00689    0.03346    0.02425
 18 C     0.03091    0.00011    0.02401
 19 C     0.02864   -0.03846    0.00620
 20 C     0.00524    0.01098   -0.04188
 21 C    -0.07264   -0.00428    0.04334
 22 C    -0.03634    0.02183   -0.03655
 23 C     0.01250    0.02318    0.05347