User:   esb@s65n82.grendel.cscaa.dk
Date:   Thu Nov  9 11:42:38 2017
Arch:   x86_64
Pid:    66698
Python: 2.7.13
gpaw:   /home/esb/DFT/gpaw_git/gpaw
_gpaw:  /home/esb/DFT/gpaw_git/build/bin.linux-x86_64-2.7/gpaw-python
ase:    /home/esb/DFT/ase_git/ase (version 3.15.0b1)
numpy:  /comm/swstack/core/python/2.7.13/lib/python2.7/site-packages/numpy (version 1.13.3)
scipy:  /comm/swstack/core/python/2.7.13/lib/python2.7/site-packages/scipy (version 0.19.1)
units:  Angstrom and eV
cores:  16
Extra parameters: {'blacs': True}

Input parameters:
  basis: dzp
  gpts: [80 80 48]
  kpts: [1 1 1]
  maxiter: 99
  mixer: {backend: pulay,
          beta: 0.05,
          method: separate,
          nmaxold: 5,
          weight: 75}
  mode: lcao
  nbands: -50
  occupations: {name: fermi-dirac,
                width: 0.1}
  poissonsolver: {eps: 1e-07,
                  name: fd,
                  nn: 3,
                  relax: GS}
  xc: PBE

System changes: positions, numbers, cell, pbc, initial_charges, initial_magmoms

Initialize ...

C-setup:
  name: Carbon
  id: 4aa54d4b901d75f77cc0ea3eec22967b
  Z: 6
  valence: 4
  core: 2
  charge: 0.0
  file: /home/esb/DFT/gpaw-setups-0.8.7929/C.PBE.gz
  cutoffs: 0.64(comp), 1.14(filt), 1.14(core), lmax=2
  valence states:
                energy  radius
    2s(2.00)   -13.751   0.635
    2p(2.00)    -5.284   0.635
    *s          13.461   0.635
    *p          21.927   0.635
    *d           0.000   0.635

  LCAO basis set for C:
    Name: dzp
    File: /home/esb/DFT/gpaw-setups-0.8.7929/C.dzp.basis.gz
    Number of radial functions: 5
    Number of spherical harmonics: 13
      l=0, rc=5.5469 Bohr: 2s-sz confined orbital
      l=1, rc=6.6719 Bohr: 2p-sz confined orbital
      l=0, rc=3.0312 Bohr: 2s-dz split-valence wave
      l=1, rc=3.7500 Bohr: 2p-dz split-valence wave
      l=2, rc=6.6719 Bohr: d-type Gaussian polarization

Reference energy: -24663.074771

Spin-paired calculation

Occupation numbers:
  Fermi-Dirac: width=0.1000 eV

Convergence criteria:
  Maximum total energy change: 0.0005 eV / electron
  Maximum integral of absolute density change: 0.0001 electrons
  Maximum integral of absolute eigenstate change: 4e-08 eV^2
  Maximum number of iterations: 99

Symmetries present (total): 1

  ( 1  0  0)
  ( 0  1  0)
  ( 0  0  1)

1 k-point (Gamma)
1 k-point in the irreducible part of the Brillouin zone
       k-points in crystal coordinates                weights
   0:     0.00000000    0.00000000    0.00000000          1/1

Wave functions: LCAO
  Diagonalizer: Serial LAPACK
  Atomic Correction: dense with blas
  Datatype: float
  Eigensolver: None

LCAO using direct dense diagonalizer

Densities:
  Coarse grid: 80*80*48 grid
  Fine grid: 160*160*96 grid
  Total Charge: 0.000000

Density mixing:
  Method: separate
  Backend: pulay
  Linear mixing parameter: 0.05
  Mixing with 5 old densities
  Damping of long wave oscillations: 75

Hamiltonian:
  XC and Coulomb potentials evaluated on a 160*160*96 grid
  Using the PBE Exchange-Correlation functional
  Interpolation: tri-quintic (5. degree polynomial)
  Poisson solver: Gauss-Seidel solver with 6 multi-grid levels
    Coarsest grid: 5 x 5 x 3 points
    Stencil: 6*3+1=19 point O(h^6) finite-difference Laplacian
    Max iterations: 1000
    Tolerance: 1.000000e-07

Total number of cores used: 16
Domain decomposition: 2 x 4 x 2

Number of atoms: 24
Number of atomic orbitals: 312
Number of bands in calculation: 98
Bands to converge: occupied states only
Number of valence electrons: 96

... initialized

Initializing position-dependent things.

Density initialized from atomic densities
   /       |            C                         |
  /        |     CC  C   C                        |
 *         |              C                       |
 |         |    C C   C  C         C              |
 |         .-----C------C---C---------------------.
 |        /    C   C   C C     C  C              /
 |       /       C          C                   /
 |      /              C                       /

Positions:
   0 C      6.274730    4.533318    4.862656
   1 C      7.464840    5.396259    4.504911
   2 C     11.052407    5.231061    4.462846
   3 C      4.524184    4.643464    5.289402
   4 C      8.758769    3.857455    5.113789
   5 C      8.395153    2.669037    4.077578
   6 C     10.005737    4.489879    4.508034
   7 C      5.956540    2.843437    5.422196
   8 C     12.041217    6.180850    4.463145
   9 C      4.732581    6.472788    5.059918
  10 C      7.625917    6.738184    4.833321
  11 C      3.639594   11.249774    4.678408
  12 C      6.612039    7.816023    4.912455
  13 C     11.800828    7.855839    4.879560
  14 C      5.165539    7.814661    5.019131
  15 C     10.283089    7.240817    3.951605
  16 C      4.367648    9.571196    5.475612
  17 C      7.656935   10.241733    4.775335
  18 C      7.654213    8.858196    4.828001
  19 C      6.312542   12.498341    4.745992
  20 C      5.041381   12.134258    4.838565
  21 C      8.925513    7.896004    4.123298
  22 C      4.163042    8.539349    4.803917
  23 C      7.079111   11.370885    4.744714

Unit cell:
           periodic     x           y           z      points  spacing
  1. axis:    yes   16.000000    0.000000    0.000000    80     0.2000
  2. axis:    yes    0.000000   16.000000    0.000000    80     0.2000
  3. axis:    yes    0.000000    0.000000   10.000000    48     0.2083

Effective grid spacing dv^(1/3) = 0.2027

                     log10-error:    total        iterations:
           time      wfs    density  energy       fermi  poisson
iter:   1  11:42:39          +inf  -155.956244    4      6
iter:   2  11:42:40         -0.92  -154.820787    3      3
iter:   3  11:42:40         -0.96  -153.249421    4      3
iter:   4  11:42:41         -1.05  -152.701553    3      3
iter:   5  11:42:41         -1.18  -152.296279    3      3
iter:   6  11:42:42         -1.39  -152.213757    3      3
iter:   7  11:42:42         -1.71  -152.128638    3      2
iter:   8  11:42:43         -1.83  -152.106314    2      2
iter:   9  11:42:43         -1.96  -152.098766    3      2
iter:  10  11:42:44         -2.09  -152.095724    3      2
iter:  11  11:42:44         -2.18  -152.090828    3      2
iter:  12  11:42:45         -2.42  -152.087534    3      2
iter:  13  11:42:45         -2.67  -152.085573    3      2
iter:  14  11:42:46         -2.87  -152.084300    3      2
iter:  15  11:42:46         -3.05  -152.087651    2      1
iter:  16  11:42:47         -3.14  -152.084015    2      1
iter:  17  11:42:47         -3.28  -152.080843    2      1
iter:  18  11:42:48         -3.42  -152.086168    2      1
iter:  19  11:42:48         -3.72  -152.081713    2      1
iter:  20  11:42:49         -3.82  -152.081362    2      1
iter:  21  11:42:49         -3.93  -152.082730    2      1
iter:  22  11:42:50         -4.05  -152.081602    2      1

Converged after 22 iterations.

Dipole moment: (0.129722, 0.346901, 0.017438) |e|*Ang

Energy contributions relative to reference atoms: (reference = -24663.074771)

Kinetic:        +22.363801
Potential:      -48.043322
External:        +0.000000
XC:            -128.913265
Entropy (-ST):   -0.340941
Local:           +2.681653
Free energy:   -152.252072
Extrapolated:  -152.081602

Fermi level: -4.55488

 Band  Eigenvalues  Occupancy
    0    -22.96412    2.00000
    1    -21.35668    2.00000
    2    -20.82856    2.00000
    3    -20.31163    2.00000
    4    -19.54462    2.00000
    5    -18.82822    2.00000
    6    -18.67018    2.00000
    7    -18.27288    2.00000
    8    -17.35134    2.00000
    9    -17.10391    2.00000
   10    -16.63598    2.00000
   11    -16.05913    2.00000
   12    -15.66903    2.00000
   13    -15.12172    2.00000
   14    -14.39524    2.00000
   15    -13.99419    2.00000
   16    -13.58057    2.00000
   17    -13.10301    2.00000
   18    -12.88688    2.00000
   19    -12.54852    2.00000
   20    -11.64446    2.00000
   21    -11.01627    2.00000
   22    -10.50608    2.00000
   23     -9.92748    2.00000
   24     -9.44171    2.00000
   25     -9.40353    2.00000
   26     -9.12393    2.00000
   27     -8.95812    2.00000
   28     -8.86223    2.00000
   29     -8.56831    2.00000
   30     -8.48231    2.00000
   31     -8.36788    2.00000
   32     -8.14574    2.00000
   33     -7.97366    2.00000
   34     -7.54623    2.00000
   35     -7.39717    2.00000
   36     -7.09925    2.00000
   37     -6.98802    2.00000
   38     -6.84919    2.00000
   39     -6.59464    2.00000
   40     -6.54299    2.00000
   41     -6.46358    2.00000
   42     -6.08006    2.00000
   43     -5.79700    1.99999
   44     -5.76096    1.99999
   45     -5.33487    1.99918
   46     -4.83318    1.88349
   47     -4.66986    1.51894
   48     -4.39479    0.33569
   49     -4.34210    0.21285
   50     -4.15036    0.03441
   51     -4.05300    0.01314
   52     -3.87606    0.00225
   53     -3.51384    0.00006
   54     -3.34810    0.00001
   55     -3.20878    0.00000
   56     -3.01841    0.00000
   57     -2.69860    0.00000
   58     -2.42668    0.00000
   59     -2.40543    0.00000
[...]
   83      6.96758    0.00000
   84      7.43593    0.00000
   85      7.65574    0.00000
   86      7.79375    0.00000
   87      8.16589    0.00000
   88      8.43217    0.00000
   89      8.66843    0.00000
   90      8.78629    0.00000
   91      8.94907    0.00000
   92      9.13516    0.00000
   93      9.25423    0.00000
   94      9.38384    0.00000
   95      9.47298    0.00000
   96      9.51242    0.00000
   97      9.85287    0.00000

Forces in eV/Ang:
  0 C    -2.91050   -2.29041    1.98433
  1 C    -1.59378   -2.58276    2.96865
  2 C    -0.24140    0.12542    0.14946
  3 C     4.37452    4.35615   -1.32382
  4 C     1.38365   -0.22848   -6.97326
  5 C     0.31181    3.40342    3.94384
  6 C    -2.11453   -2.23295    2.53012
  7 C     1.33566    5.27148   -2.23463
  8 C    -2.13252    4.30225    0.47164
  9 C    -0.74806   -5.59008    0.27575
 10 C     0.15051   -0.45043   -2.82151
 11 C     5.42575    1.08809    2.09068
 12 C     4.01852    1.37243    0.32529
 13 C    -2.04559   -5.28813   -2.83867
 14 C     9.10134  -10.90243    0.09751
 15 C    -0.86767    4.64422    2.35035
 16 C    -2.83725    8.66666   -0.11712
 17 C    -0.36441   -1.05961    0.09046
 18 C     0.94770    0.69794   -2.29414
 19 C    -1.38252   -1.18093   -0.15670
 20 C    -3.68871   -2.55854   -0.38683
 21 C     0.46722   -3.96112    3.32353
 22 C    -7.27131    3.85043   -1.75010
 23 C     0.59682    0.53265    0.27015

System changes: positions

[...]

Density initialized from wave functions
   /       |            C                         |
  /        |     CC  C   C                        |
 *         |              C                       |
 |         |    C  C  C  C         C              |
 |         .-----C------C---C---------------------.
 |        /    C   C   C C     C  C              /
 |       /       C          C                   /
 |      /              C                       /

[...]

Density initialized from wave functions
  /        |     CC  C  CC                        |
[...]
 |         |     CC   C  C                        |
 |         .-----C------C--C--C--C----------------.
 |        /     CC  C  C          C              /
 |       /               C   C  C               /
 |      /               C                      /

[...]

Density initialized from wave functions
  /        |      C  C  CC                        |
 *         |     C       C                        |
 |         |     C C  C  C                        |
 |         .-----C------C--C--C--C----------------.
 |        /     CC  C  C          C              /
 |       /               C  C   C               /
 |      /               C                      /

[...]

Density initialized from wave functions
  /        |      C  C  CC                        |
 *         |     C       C                        |
 |         |     C C  C  C                        |
 |         .-----C------C--C--C--C----------------.
 |        /     CC  C  C          C              /
 |       /               C  C   C               /
 |      /               C                      /

[...]

Density initialized from wave functions
  /        |      C  C  CC                        |
 *         |     C       C                        |
 |         |     C C  C  C                        |
 |         .-----C------C--C--C--C----------------.
 |        /     C   C  C          C              /
 |       /               C  C   C               /
 |      /               C                      /

[...]

Density initialized from wave functions
  /        |      C  C  CC                        |
 *         |     C       C                        |
 |         |     C C  C  C                        |
 |         .-----C------C--C--C--C----------------.
 |        /     C   C  C          C              /
 |       /               C  C   C               /
 |      /               C                      /

[...]

Density initialized from wave functions
  /        |      C  C  CC                        |
 *         |     C       C                        |
 |         |     C C  C  C                        |
 |         .----C-------C--C--C--C----------------.
 |        /     C   C  C          C              /
 |       /               C  C   C               /
 |      /               C                      /

[...]

Density initialized from wave functions
  /        |      C  C  CC                        |
 *         |     C       C                        |
 |         |     CC   C  C                        |
 |         .----C-------C--C--C--C----------------.
 |        /     C  C   C          C              /
 |       /               C  C   C               /
 |      /                C                     /

[...]

Density initialized from wave functions
  /        |      C  C  CC                        |
 *         |     C       C                        |
 |         |     CC   C  C                        |
 |         .----C-------C--C---C-C----------------.
 |        /     C  C   C          C              /
 |       /               C  C   C               /
 |      /                C                     /

[...]

Density initialized from wave functions
  /        |     C  C   CC                        |
 *         |     C       C                        |
 |         |     CC   C  C                        |
 |         .----C-------C--C---C-C----------------.
 |        /     C  C   C          C              /
 |       /               C  C   C               /
 |      /                C                     /

[...]

Density initialized from wave functions
  /        |     C  C   CC                        |
 *         |     C       C                        |
 |         |     CC   C  C                        |
 |         .----C-------C--C--C--C----------------.
 |        /     C  C   C          C              /
 |       /               C  C   C               /
 |      /                C                     /

[...]

Density initialized from wave functions
  /        |     C  C   CC                        |
 *         |     C       C                        |
 |         |     CC      C                        |
 |         .----C-----C-C--C--C--C----------------.
 |        /     C  C   C          C              /
 |       /               C  C   C               /
 |      /                C                     /

[...]

Density initialized from wave functions
  /        |     C  C   CC                        |
 *         |     C       C                        |
 |         |      C      C                        |
 |         .----C-----C-C--C--C--C----------------.
 |        /      C C   C          C              /
 |       /               C  C   C               /
 |      /                C                     /

[...]

Density initialized from wave functions
  /        |     C  C   CC                        |
 *         |     C       C                        |
 |         |      C      C                        |
 |         .----C-----C-C--C--C--C----------------.
 |        /      C  C  C          C              /
 |       /               C   C  C               /
 |      /                C                     /

[...]

Density initialized from wave functions
  /        |     C  C  C C                        |
 *         |     C       C                        |
 |         |      C      C                        |
 |         .----C-----C-C--C--C--C----------------.
 |        /      C  C  C         C               /
 |       /               C   C  C               /
 |      /                C                     /

[...]

Density initialized from wave functions
  /        |     C  C  C C                        |
 *         |     C       C                        |
 |         |      C   C  C    C                   |
 |         .----C-------C--C-----C----------------.
 |        /      C  C  C         C               /
 |       /               C   C  C               /
 |      /                 C                    /

[...]

Density initialized from wave functions
  /        |     C  C  C C                        |
 *         |     C       C                        |
 |         |      C   C  C    C                   |
 |         .----C-------C--C-----C----------------.
 |        /      C  C  C         C               /
 |       /               C   C  C               /
 |      /                 C                    /

[...]

Density initialized from wave functions
  /        |     C  C  C C                        |
 *         |     C       C                        |
 |         |      C   C  C    C                   |
 |         .----CC------C--C-----C----------------.
 |        /      C  C  C          C              /
 |       /               C   C  C               /
 |      /                 C                    /

[...]

Density initialized from wave functions
  /        |     C  C  C C                        |
 *         |     C       C                        |
 |         |      C   C  C    C                   |
 |         .----CC------C--C-----C----------------.
 |        /      C  C  C          C              /
 |       /               C   C  C               /
 |      /                 C                    /

[...]

Density initialized from wave functions
  /        |     C  C  C C                        |
 *         |     C       C                        |
 |         |      C   C  C C  C                   |
 |         .----CC------C--------C----------------.
 |        /      C  C  C          C              /
 |       /               C   C  C               /
 |      /                 C                    /

[...]

Density initialized from wave functions
   /       |        C                             |
  /        |     C     C C                        |
 *         |     C       C                        |
 |         |      C   C  C C  C                   |
 |         .-----C------C--------C----------------.
 |        /      C  C  C          C              /
 |       /               C   C  C               /
 |      /                 C                    /

[...]

Density initialized from wave functions
   /       |        C                             |
  /        |     C     C C                        |
 *         |     C       C                        |
 |         |      C   C  C C  C                   |
 |         .-----C------C-------C-----------------.
 |        /      C  C  C          C              /
 |       /               C   C  C               /
 |      /                C                     /

[...]

Density initialized from wave functions
   /       |        C                             |
  /        |     C     C C                        |
 *         |     C       C                        |
 |         |      C   C  C C  C                   |
 |         .-----C------C--------C----------------.
 |        /      C  C  C          C              /
 |       /               C   C  C               /
 |      /                 C                    /

[...]

Density initialized from wave functions
  /        |     C  C  C C                        |
 *         |     C       C                        |
 |         |      C   C  C C  C                   |
 |         .-----C------C--------C----------------.
 |        /      C  C  C          C              /
 |       /               C   C  C               /
 |      /                 C                    /

[...]

Density initialized from wave functions
  /        |     C  C  C C                        |
 *         |     C       C                        |
 |         |      C   C  C C  C                   |
 |         .----CC------C--------C----------------.
 |        /      C  C  C          C              /
 |       /               C   C  C               /
 |      /                 C                    /

[...]

Density initialized from wave functions
  /        |     C  C  C C                        |
 *         |     C       C                        |
 |         |      C   C  C C  C                   |
 |         .-----C------C--------C----------------.
 |        /      C  C  C          C              /
 |       /               C   C  C               /
 |      /                 C                    /

[...]

Density initialized from wave functions
  /        |     C  C  C C                        |
 *         |     C       C                        |
 |         |      C   C  C C  C                   |
 |         .-----C------C-------C-----------------.
 |        /      C  C  C        C C              /
 |       /               C   C                  /
 |      /                 C                    /

[...]

System changes: positions

Initializing position-dependent things.

Density initialized from wave functions
  /        |     C  C  C C                        |
 *         |     C       C                        |
 |         |      C   C  C C  C                   |
 |         .-----C------C-------C-----------------.
 |        /      C  C  C        C C              /
 |       /               C   C                  /
 |      /                 C                    /

Positions:
   0 C      6.544081    4.567020    5.115644
   1 C      7.752877    5.306644    4.843746
   2 C     11.313838    4.965917    4.512785
   3 C      5.094103    5.076044    5.363549
   4 C      8.848231    4.393991    4.655537
   5 C      9.285691    3.052330    4.529872
   6 C     10.250637    4.136480    4.515967
   7 C      5.574477    3.695361    5.443501
   8 C     11.900053    6.115323    4.639704
   9 C      4.747999    6.297154    5.244612
  10 C      7.721194    6.727762    4.828822
  11 C      3.598632   11.256729    5.046275
  12 C      6.588742    7.737004    4.848027
  13 C     11.075110    7.189323    4.734606
  14 C      5.183298    7.642892    5.069504
  15 C     10.043559    7.924917    4.766666
  16 C      3.844029    9.922607    5.192201
  17 C      7.348074   10.175934    4.515173
  18 C      7.528740    8.824107    4.661166
  19 C      5.878875   12.313696    4.514629
  20 C      4.677815   12.005683    4.969979
  21 C      8.663307    7.845201    4.725460
  22 C      4.360941    8.775027    5.121766
  23 C      6.791298   11.320197    4.566541

Unit cell:
           periodic     x           y           z      points  spacing
  1. axis:    yes   16.000000    0.000000    0.000000    80     0.2000
  2. axis:    yes    0.000000   16.000000    0.000000    80     0.2000
  3. axis:    yes    0.000000    0.000000   10.000000    48     0.2083

Effective grid spacing dv^(1/3) = 0.2027

                     log10-error:    total        iterations:
           time      wfs    density  energy       fermi  poisson
iter:   1  11:54:35          +inf  -181.077011    3      5
iter:   2  11:54:36         -2.86  -181.078163    3      1
iter:   3  11:54:36         -3.06  -181.079941    3      1
iter:   4  11:54:37         -3.28  -181.079940    2      1
iter:   5  11:54:37         -3.41  -181.080825    2      1
iter:   6  11:54:38         -3.53  -181.080488    2      1
iter:   7  11:54:38         -3.75  -181.079369    2      1
iter:   8  11:54:39         -3.67  -181.079843    2      1
iter:   9  11:54:39         -4.20  -181.079815    2      1

Converged after 9 iterations.

Dipole moment: (-0.028772, 0.650999, 0.056514) |e|*Ang

Energy contributions relative to reference atoms: (reference = -24663.074771)

Kinetic:       +106.975199
Potential:     -115.891003
External:        +0.000000
XC:            -175.029603
Entropy (-ST):   -0.275253
Local:           +3.003219
Free energy:   -181.217442
Extrapolated:  -181.079815

Fermi level: -4.61302

 Band  Eigenvalues  Occupancy
    0    -23.12102    2.00000
    1    -22.67668    2.00000
    2    -22.55393    2.00000
    3    -21.17303    2.00000
    4    -20.71528    2.00000
    5    -20.54540    2.00000
    6    -20.00658    2.00000
    7    -19.57706    2.00000
    8    -18.85583    2.00000
    9    -18.74344    2.00000
   10    -17.91218    2.00000
   11    -17.41273    2.00000
   12    -16.77574    2.00000
   13    -16.41112    2.00000
   14    -15.62355    2.00000
   15    -14.93026    2.00000
   16    -14.40777    2.00000
   17    -14.04839    2.00000
   18    -13.84422    2.00000
   19    -13.34548    2.00000
   20    -12.88054    2.00000
   21    -12.26044    2.00000
   22    -11.04547    2.00000
   23    -10.74597    2.00000
   24    -10.64299    2.00000
   25    -10.53615    2.00000
   26    -10.08270    2.00000
   27    -10.01909    2.00000
   28     -9.88311    2.00000
   29     -9.61602    2.00000
   30     -9.33469    2.00000
   31     -9.30775    2.00000
   32     -9.24351    2.00000
   33     -8.75686    2.00000
   34     -8.72362    2.00000
   35     -8.49171    2.00000
   36     -8.12996    2.00000
   37     -7.96954    2.00000
   38     -7.54658    2.00000
   39     -6.62091    2.00000
   40     -6.44976    2.00000
   41     -6.35961    2.00000
   42     -6.18515    2.00000
   43     -5.95611    2.00000
   44     -5.70661    1.99996
   45     -4.93771    1.92513
   46     -4.87677    1.86647
   47     -4.79166    1.71298
   48     -4.50194    0.49546
   49     -3.24584    0.00000
   50     -3.14948    0.00000
   51     -2.81445    0.00000
   52     -2.38897    0.00000
   53     -2.01754    0.00000
   54     -1.76483    0.00000
   55     -1.23263    0.00000
   56     -1.03512    0.00000
   57     -0.96459    0.00000
   58     -0.53569    0.00000
   59     -0.09396    0.00000
[...]
   83      8.58314    0.00000
   84      8.63337    0.00000
   85      8.69803    0.00000
   86      8.90301    0.00000
   87      9.03299    0.00000
   88      9.07517    0.00000
   89      9.18690    0.00000
   90      9.31225    0.00000
   91      9.42339    0.00000
   92      9.48624    0.00000
   93      9.58518    0.00000
   94      9.84611    0.00000
   95     10.01649    0.00000
   96     10.05962    0.00000
   97     10.21960    0.00000

Forces in eV/Ang:
  0 C    -0.01595    0.06282   -0.03042
  1 C     0.02221    0.01874    0.03535
  2 C     0.00958    0.04300    0.03765
  3 C     0.00561   -0.00268   -0.02613
  4 C     0.01118   -0.00289    0.04263
  5 C     0.06527   -0.01674    0.03036
  6 C     0.00574    0.03083   -0.02285
  7 C     0.03179   -0.02027   -0.02076
  8 C    -0.03913   -0.05932   -0.05524
  9 C    -0.04084   -0.00363   -0.00247
 10 C     0.02589    0.03313    0.01510
 11 C     0.02346   -0.00539   -0.03933
 12 C    -0.03964    0.04596    0.00593
 13 C     0.01551    0.01148   -0.03122
 14 C    -0.05792   -0.02744   -0.02155
 15 C    -0.03826    0.03749    0.00306
 16 C    -0.00163    0.03484    0.05432
 17 C     0.03172   -0.01867    0.02638
 18 C     0.00957   -0.03611    0.05174
 19 C     0.05449    0.05433    0.01602
 20 C    -0.04467    0.05822    0.01134
 21 C    -0.00441   -0.02466   -0.03679
 22 C    -0.03976   -0.03352    0.00663
 23 C     0.00313   -0.04278   -0.03018