User:   esb@s65n74.grendel.cscaa.dk
Date:   Thu Nov  9 12:02:52 2017
Arch:   x86_64
Pid:    101222
Python: 2.7.13
gpaw:   /home/esb/DFT/gpaw_git/gpaw
_gpaw:  /home/esb/DFT/gpaw_git/build/bin.linux-x86_64-2.7/gpaw-python
ase:    /home/esb/DFT/ase_git/ase (version 3.15.0b1)
numpy:  /comm/swstack/core/python/2.7.13/lib/python2.7/site-packages/numpy (version 1.13.3)
scipy:  /comm/swstack/core/python/2.7.13/lib/python2.7/site-packages/scipy (version 0.19.1)
units:  Angstrom and eV
cores:  16
Extra parameters: {'blacs': True}

Input parameters:
  basis: dzp
  gpts: [80 80 48]
  kpts: [1 1 1]
  maxiter: 99
  mixer: {backend: pulay,
          beta: 0.05,
          method: separate,
          nmaxold: 5,
          weight: 75}
  mode: lcao
  nbands: -50
  occupations: {name: fermi-dirac,
                width: 0.1}
  poissonsolver: {eps: 1e-07,
                  name: fd,
                  nn: 3,
                  relax: GS}
  xc: PBE

System changes: positions, numbers, cell, pbc, initial_charges, initial_magmoms

Initialize ...

C-setup:
  name: Carbon
  id: 4aa54d4b901d75f77cc0ea3eec22967b
  Z: 6
  valence: 4
  core: 2
  charge: 0.0
  file: /home/esb/DFT/gpaw-setups-0.8.7929/C.PBE.gz
  cutoffs: 0.64(comp), 1.14(filt), 1.14(core), lmax=2
  valence states:
                energy  radius
    2s(2.00)   -13.751   0.635
    2p(2.00)    -5.284   0.635
    *s          13.461   0.635
    *p          21.927   0.635
    *d           0.000   0.635

  LCAO basis set for C:
    Name: dzp
    File: /home/esb/DFT/gpaw-setups-0.8.7929/C.dzp.basis.gz
    Number of radial functions: 5
    Number of spherical harmonics: 13
      l=0, rc=5.5469 Bohr: 2s-sz confined orbital
      l=1, rc=6.6719 Bohr: 2p-sz confined orbital
      l=0, rc=3.0312 Bohr: 2s-dz split-valence wave
      l=1, rc=3.7500 Bohr: 2p-dz split-valence wave
      l=2, rc=6.6719 Bohr: d-type Gaussian polarization

Reference energy: -24663.074771

Spin-paired calculation

Occupation numbers:
  Fermi-Dirac: width=0.1000 eV

Convergence criteria:
  Maximum total energy change: 0.0005 eV / electron
  Maximum integral of absolute density change: 0.0001 electrons
  Maximum integral of absolute eigenstate change: 4e-08 eV^2
  Maximum number of iterations: 99

Symmetries present (total): 1

  ( 1  0  0)
  ( 0  1  0)
  ( 0  0  1)

1 k-point (Gamma)
1 k-point in the irreducible part of the Brillouin zone
       k-points in crystal coordinates                weights
   0:     0.00000000    0.00000000    0.00000000          1/1

Wave functions: LCAO
  Diagonalizer: Serial LAPACK
  Atomic Correction: dense with blas
  Datatype: float
  Eigensolver: None

LCAO using direct dense diagonalizer

Densities:
  Coarse grid: 80*80*48 grid
  Fine grid: 160*160*96 grid
  Total Charge: 0.000000

Density mixing:
  Method: separate
  Backend: pulay
  Linear mixing parameter: 0.05
  Mixing with 5 old densities
  Damping of long wave oscillations: 75

Hamiltonian:
  XC and Coulomb potentials evaluated on a 160*160*96 grid
  Using the PBE Exchange-Correlation functional
  Interpolation: tri-quintic (5. degree polynomial)
  Poisson solver: Gauss-Seidel solver with 6 multi-grid levels
    Coarsest grid: 5 x 5 x 3 points
    Stencil: 6*3+1=19 point O(h^6) finite-difference Laplacian
    Max iterations: 1000
    Tolerance: 1.000000e-07

Total number of cores used: 16
Domain decomposition: 2 x 4 x 2

Number of atoms: 24
Number of atomic orbitals: 312
Number of bands in calculation: 98
Bands to converge: occupied states only
Number of valence electrons: 96

... initialized

Initializing position-dependent things.

Density initialized from atomic densities
    /      |          C     C                     |
   /       |       C     C                        |
  /        |    C C    CC                         |
 *         |   C    C           CC                |
 |         |  C C              C                  |
 |         .----C-C--C---C-CC-C-------------------.
 |        /             C                        /

Positions:
   0 C      6.234102   10.583463    4.956606
   1 C     10.434076    9.421653    5.216394
   2 C      8.562908    4.459614    6.259982
   3 C      7.353857    4.115191    6.367381
   4 C     10.731988    5.840759    6.458928
   5 C      6.013438    4.129071    6.449256
   6 C      9.540594    5.382812    5.854151
   7 C     11.284718    6.998066    6.380354
   8 C      4.869990    4.668988    6.329971
   9 C      9.136253    6.350992    4.784174
  10 C     10.963267    8.034841    5.513893
  11 C      7.846957    6.713280    4.256454
  12 C      9.949949    7.491084    4.585505
  13 C      3.755948    6.096965    5.665121
  14 C      4.799111    5.238541    5.428023
  15 C      3.749428    7.326494    6.286017
  16 C      4.906463    9.171451    7.012771
  17 C      4.937179    7.688955    7.123939
  18 C      3.914266    8.723189    5.993542
  19 C      6.094761    9.787778    7.067144
  20 C      7.374254    9.212300    7.104907
  21 C      6.155654    7.096392    6.644812
  22 C      7.419280    7.767430    6.711494
  23 C      8.723896    9.642425    7.204087

Unit cell:
           periodic     x           y           z      points  spacing
  1. axis:    yes   16.000000    0.000000    0.000000    80     0.2000
  2. axis:    yes    0.000000   16.000000    0.000000    80     0.2000
  3. axis:    yes    0.000000    0.000000   10.000000    48     0.2083

Effective grid spacing dv^(1/3) = 0.2027

                     log10-error:    total        iterations:
           time      wfs    density  energy       fermi  poisson
iter:   1  12:02:54          +inf  -160.770115    3      6
iter:   2  12:02:54         -0.87  -158.265480    32     3
iter:   3  12:02:55         -0.92  -159.151758    34     3
iter:   4  12:02:56         -0.86  -157.543254    3      2
iter:   5  12:02:57         -0.90  -156.228779    32     3
iter:   6  12:02:57         -0.99  -155.099062    33     4
iter:   7  12:02:58         -1.25  -154.664889    4      3
iter:   8  12:02:59         -1.37  -154.505186    4      3
iter:   9  12:02:59         -1.61  -154.518995    4      3
iter:  10  12:03:00         -1.67  -154.467987    4      2
iter:  11  12:03:01         -1.78  -154.436580    4      2
iter:  12  12:03:01         -1.87  -154.404519    4      3
iter:  13  12:03:02         -2.29  -154.403767    3      2
iter:  14  12:03:03         -2.35  -154.403854    3      2
iter:  15  12:03:03         -2.51  -154.404312    3      2
iter:  16  12:03:04         -2.60  -154.406183    3      2
iter:  17  12:03:05         -2.83  -154.401149    3      2
iter:  18  12:03:05         -2.96  -154.396424    3      1
iter:  19  12:03:06         -3.09  -154.399816    2      2
iter:  20  12:03:07         -3.35  -154.402860    2      1
iter:  21  12:03:07         -3.40  -154.400048    2      1
iter:  22  12:03:08         -3.58  -154.400233    2      1
iter:  23  12:03:09         -3.76  -154.399946    2      1
iter:  24  12:03:09         -3.81  -154.399172    2      1
iter:  25  12:03:10         -4.01  -154.399954    2      1

Converged after 25 iterations.

Dipole moment: (-0.138398, -0.587431, 0.225751) |e|*Ang

Energy contributions relative to reference atoms: (reference = -24663.074771)

Kinetic:       +123.416000
Potential:     -121.828466
External:        +0.000000
XC:            -158.691903
Entropy (-ST):   -0.376195
Local:           +2.892513
Free energy:   -154.588052
Extrapolated:  -154.399954

Fermi level: -4.13214

 Band  Eigenvalues  Occupancy
    0    -23.67003    2.00000
    1    -23.06912    2.00000
    2    -22.04436    2.00000
    3    -20.66942    2.00000
    4    -20.39755    2.00000
    5    -19.69185    2.00000
    6    -19.15504    2.00000
    7    -18.86292    2.00000
    8    -18.09734    2.00000
    9    -17.73602    2.00000
   10    -17.21765    2.00000
   11    -16.41053    2.00000
   12    -15.29089    2.00000
   13    -14.87895    2.00000
   14    -14.67067    2.00000
   15    -14.30599    2.00000
   16    -13.85133    2.00000
   17    -12.95764    2.00000
   18    -12.66611    2.00000
   19    -12.24997    2.00000
   20    -12.07881    2.00000
   21    -11.98723    2.00000
   22    -11.11394    2.00000
   23    -11.08432    2.00000
   24    -10.93084    2.00000
   25    -10.87931    2.00000
   26    -10.43758    2.00000
   27     -9.93393    2.00000
   28     -9.84474    2.00000
   29     -9.32810    2.00000
   30     -8.43278    2.00000
   31     -8.22161    2.00000
   32     -7.79101    2.00000
   33     -7.59058    2.00000
   34     -7.45476    2.00000
   35     -6.98435    2.00000
   36     -6.90888    2.00000
   37     -6.65788    2.00000
   38     -6.61392    2.00000
   39     -6.26937    2.00000
   40     -6.17092    2.00000
   41     -5.79279    2.00000
   42     -5.57252    2.00000
   43     -5.38522    1.99999
   44     -5.05837    1.99981
   45     -4.83518    1.99823
   46     -4.78503    1.99708
   47     -4.13000    0.98933
   48     -4.08027    0.74634
   49     -3.91081    0.19714
   50     -3.76864    0.05141
   51     -3.61559    0.01136
   52     -3.58023    0.00799
   53     -3.39145    0.00121
   54     -3.09531    0.00006
   55     -3.01893    0.00003
   56     -2.83559    0.00000
   57     -2.51707    0.00000
   58     -2.14944    0.00000
   59     -2.01749    0.00000
[...]
   83      8.03887    0.00000
   84      8.07939    0.00000
   85      8.32606    0.00000
   86      8.60794    0.00000
   87      8.75509    0.00000
   88      8.85656    0.00000
   89      8.99974    0.00000
   90      9.19643    0.00000
   91      9.34532    0.00000
   92      9.59297    0.00000
   93      9.63388    0.00000
   94      9.71325    0.00000
   95      9.74754    0.00000
   96      9.91628    0.00000
   97      9.96839    0.00000

Forces in eV/Ang:
  0 C    -0.27073   -0.94085    2.76854
  1 C     0.11129   -3.81273    0.06255
  2 C     1.98676    1.04738   -0.53922
  3 C    -3.16857   -0.47769    0.94757
  4 C     0.36352   -0.12653    0.47227
  5 C     7.09322   -2.93559    3.03656
  6 C    -0.28728   -1.21990    1.10671
  7 C    -0.03350   -1.52708    0.44484
  8 C     3.97648  -20.60072   25.46084
  9 C    -0.14903    1.35071   -0.62283
 10 C    -2.11474    2.05532   -1.58682
 11 C     1.85118    0.35975    0.50696
 12 C    -0.78201    2.48582    0.57331
 13 C    -1.40403    3.72897   -1.60845
 14 C    -8.45623   19.78742  -27.37896
 15 C    -0.15257    0.23023   -0.10155
 16 C    -1.39319   -1.72571    0.18466
 17 C     0.65713   -1.03605   -1.12800
 18 C    -0.10455    0.76061    0.05979
 19 C    -0.03346    3.49727   -3.19870
 20 C     2.28976   -0.09795   -0.21917
 21 C     5.02541    2.00937    1.12281
 22 C    -3.70987   -1.58012    0.15558
 23 C    -1.18338   -1.13895   -0.59067

System changes: positions

[...]

Density initialized from wave functions
    /      |          C     C                     |
   /       |       C     C                        |
  /        |    C C    CC                         |
 *         |   C    C           CC                |
 |         |  C C              C                  |
 |         .----C-C--C---C-CC-C-------------------.
 |        /             C                        /

[...]

Density initialized from wave functions
[...]
 *         |   C   C            CC C              |
 |         |  C              C C                  |
 |         .--C-C-C---C--C-CC---------------------.
 |        /               C                      /

[...]

Density initialized from wave functions
     /     |                C                     |
    /      |              C                       |
   /       |            CC                        |
  /        |      C  CC                           |
 *         |   C   C            CC C              |
 |         |  C              C C                  |
 |         .--C-C-C---C--C-CC---------------------.
 |        /               C                      /

[...]

Density initialized from wave functions
    /      |              C C                     |
   /       |            CC                        |
  /        |      C  CC                           |
 *         |   CC  C            CC C              |
 |         |  C              C C                  |
 |         .----C-C---C--C-CC---------------------.
 |        /               C                      /

[...]

Density initialized from wave functions
    /      |              C C                     |
   /       |            CC                        |
  /        |      C  CC                           |
 *         |   CC  C            CC C              |
 |         |  C              C C                  |
 |         .----C-C---C--C-CC---------------------.
 |        /               C                      /

[...]

Density initialized from wave functions
    /      |              C C                     |
   /       |            CC                        |
  /        |      C C C                           |
 *         |   CC  C            CC C              |
 |         |  C              C C                  |
 |         .----C-C---C--C-CC---------------------.
 |        /               C                      /

[...]

Density initialized from wave functions
    /      |              C C                     |
   /       |            CC                        |
  /        |     C  C C                           |
 *         |   CC  C            CC C              |
 |         |  C              C C                  |
 |         .----C-C---C--C-CC---------------------.
 |        /               C                      /

[...]

Density initialized from wave functions
    /      |              C C                     |
   /       |           C C                        |
  /        |     C  C C                           |
 *         |   CC  C            CC C              |
 |         |  C               CC                  |
 |         .----C-C---C--C-CC---------------------.
 |        /               C                      /

[...]

Density initialized from wave functions
    /      |              C C                     |
   /       |           C C                        |
  /        |     C  C C                           |
 *         |   CC  C            CC C              |
 |         |  C               CC                  |
 |         .----C-C---C--C-CC---------------------.
 |        /               C                      /

[...]

Density initialized from wave functions
    /      |              C C                     |
   /       |           C C                        |
  /        |     C  C C                           |
 *         |   CC  C            CC C              |
 |         |  C              C C                  |
 |         .----C-C---C--C-CC---------------------.
 |        /               C                      /

[...]

Density initialized from wave functions
    /      |              C C                     |
   /       |           C C                        |
  /        |     C CC C                           |
 *         |   CC               CC C              |
 |         |  C              C C                  |
 |         .----C-C---C--C-CC---------------------.
 |        /               C                      /

[...]

Density initialized from wave functions
    /      |              C C                     |
   /       |           C C                        |
  /        |     C CC C                           |
 *         |   CC               CC C              |
 |         |  C              C C                  |
 |         .----C-C---C--C-CC---------------------.
 |        /               C                      /

[...]

Density initialized from wave functions
    /      |              C C                     |
   /       |           C C                        |
  /        |     C CC C                           |
 *         |   CC                C C              |
 |         |  C               CC                  |
 |         .----C-C---C--C-CC---------------------.
 |        /                C                     /

[...]

Density initialized from wave functions
    /      |              C C                     |
   /       |           C C                        |
  /        |     C CC C                           |
 *         |   CC                CCC              |
 |         |  C               CC                  |
 |         .----C-C---C--C-CC---------------------.
 |        /                C                     /

[...]

Density initialized from wave functions
    /      |              C C                     |
   /       |           C C                        |
  /        |     C CC C                           |
 *         |   CC                CCC              |
 |         |  C               CC                  |
 |         .----C-C---C--C-CC---------------------.
 |        /                C                     /

[...]

Density initialized from wave functions
    /      |              C C                     |
   /       |           C C                        |
  /        |      CCC C                           |
 *         |   CC                CCC              |
 |         |  C               CC                  |
 |         .----C-C---C--C-CC---------------------.
 |        /                C                     /

[...]

Density initialized from wave functions
    /      |              C C                     |
   /       |           C C                        |
  /        |      CCC C                           |
 *         |   CC                CCC              |
 |         |  C               CC                  |
 |         .----C-C---C--C-CC---------------------.
 |        /                C                     /

[...]

Density initialized from wave functions
    /      |              C C                     |
   /       |        C  C C                        |
  /        |      CC  C                           |
 *         |   CC                CCC              |
 |         |  C               CC                  |
 |         .----C-C---C--C--C---------------------.
 |        /                C                     /

[...]

Density initialized from wave functions
    /      |              C C                     |
   /       |        C  C C                        |
  /        |      CC  C                           |
 *         |   CC                CCC              |
 |         |  C               CC                  |
 |         .----C-C---C--C--C---------------------.
 |        /                C                     /

[...]

Density initialized from wave functions
    /      |              C C                     |
   /       |           C C                        |
  /        |      CCC C                           |
 *         |   CC                CCC              |
 |         |  C               CC                  |
 |         .----C-C---C--C--C---------------------.
 |        /                C                     /

[...]

Density initialized from wave functions
    /      |              C C                     |
   /       |           C C                        |
  /        |      CCC C                           |
 *         |   CC                CCC              |
 |         |  C               CC                  |
 |         .----C-C---C--C--C---------------------.
 |        /                C                     /

[...]

Density initialized from wave functions
    /      |              C C                     |
   /       |           C C                        |
  /        |     C CC C                           |
 *         |   CC                C C              |
 |         |  C               CC  C               |
 |         .----C-C---C--C--C---------------------.
 |        /                C                     /

[...]

Density initialized from wave functions
    /      |              C C                     |
   /       |           C C                        |
  /        |     C CC C                           |
 *         |   CC                C C              |
 |         |  C               CC  C               |
 |         .----C-C---C--C--C---------------------.
 |        /                C                     /

[...]

Density initialized from wave functions
    /      |              C C                     |
   /       |           C C                        |
  /        |     C CC C                           |
 *         |   CC                C C              |
 |         |  C               CC  C               |
 |         .----C--C--C--C--C---------------------.
 |        /                C                     /

[...]

Density initialized from wave functions
    /      |              C C                     |
   /       |          CC C                        |
  /        |     C CC                             |
 *         |   CC                C C              |
 |         |  C               CC  C               |
 |         .----C--C--C--C--C---------------------.
 |        /                C                     /

[...]

Density initialized from wave functions
    /      |              C C                     |
   /       |          CC C                        |
  /        |     C CC                             |
 *         |   CC                C C              |
 |         |  C               C C C               |
 |         .----C--C--C--C--C---------------------.
 |        /                C                     /

[...]

Density initialized from wave functions
    /      |              C C                     |
   /       |          CC C                        |
  /        |     C CC                             |
 *         |   CC                C C              |
 |         |  C               C C C               |
 |         .----C--C--C--C--C---------------------.
 |        /                C                     /

[...]

System changes: positions

Initializing position-dependent things.

Density initialized from wave functions
    /      |              C C                     |
   /       |          CC C                        |
  /        |     C CC                             |
 *         |   CC                C C              |
 |         |  C               CC  C               |
 |         .----C--C--C--C--C---------------------.
 |        /                C                     /

Positions:
   0 C      6.219004   10.930998    6.153625
   1 C     10.832651    8.189539    5.838046
   2 C      8.822248    4.167564    6.283210
   3 C      7.669627    3.679531    6.437801
   4 C     11.177325    5.204905    6.206284
   5 C      6.347009    3.455483    6.545267
   6 C      9.776029    5.121809    5.919619
   7 C     11.848044    6.302840    6.193128
   8 C      5.143761    3.826461    6.400671
   9 C      9.333712    6.299049    5.177851
  10 C     12.037036    7.644669    6.056219
  11 C      8.855232    7.152782    4.149744
  12 C      9.788561    7.669237    5.125733
  13 C      3.815689    5.970503    6.098148
  14 C      4.206129    4.790298    6.303561
  15 C      4.187085    7.345903    6.141332
  16 C      4.197935    9.712063    5.572682
  17 C      5.459111    7.611696    6.703120
  18 C      3.643758    8.541378    5.594652
  19 C      5.040575   10.736393    5.629494
  20 C      7.349389   10.550483    6.724406
  21 C      6.557078    8.088038    7.111481
  22 C      7.486169    9.069209    7.235059
  23 C      8.511072    9.991976    7.326991

Unit cell:
           periodic     x           y           z      points  spacing
  1. axis:    yes   16.000000    0.000000    0.000000    80     0.2000
  2. axis:    yes    0.000000   16.000000    0.000000    80     0.2000
  3. axis:    yes    0.000000    0.000000   10.000000    48     0.2083

Effective grid spacing dv^(1/3) = 0.2027

                     log10-error:    total        iterations:
           time      wfs    density  energy       fermi  poisson
iter:   1  12:23:24          +inf  -177.023578    2      4
iter:   2  12:23:25         -3.02  -177.023112    2      1
iter:   3  12:23:25         -3.28  -177.023335    2      1
iter:   4  12:23:26         -3.37  -177.023488    2      1
iter:   5  12:23:26         -3.49  -177.025689    2      1
iter:   6  12:23:27         -3.24  -177.022911    2      1
iter:   7  12:23:27         -3.50  -177.022818    2      1
iter:   8  12:23:28         -3.33  -177.023263    2      1
iter:   9  12:23:28         -4.29  -177.022970    1      1

Converged after 9 iterations.

Dipole moment: (-0.077745, -0.121169, 0.181848) |e|*Ang

Energy contributions relative to reference atoms: (reference = -24663.074771)

Kinetic:        +99.294635
Potential:     -108.975324
External:        +0.000000
XC:            -170.224359
Entropy (-ST):   -0.255429
Local:           +3.009792
Free energy:   -177.150685
Extrapolated:  -177.022970

Fermi level: -4.32569

 Band  Eigenvalues  Occupancy
    0    -23.27749    2.00000
    1    -22.73097    2.00000
    2    -21.15940    2.00000
    3    -21.08595    2.00000
    4    -20.58301    2.00000
    5    -20.23896    2.00000
    6    -19.96638    2.00000
    7    -19.26425    2.00000
    8    -18.84311    2.00000
    9    -18.43565    2.00000
   10    -17.83425    2.00000
   11    -17.30970    2.00000
   12    -16.51917    2.00000
   13    -16.26509    2.00000
   14    -15.84362    2.00000
   15    -15.35025    2.00000
   16    -14.32393    2.00000
   17    -13.89186    2.00000
   18    -13.58744    2.00000
   19    -13.13584    2.00000
   20    -12.62491    2.00000
   21    -12.24923    2.00000
   22    -12.10641    2.00000
   23    -10.78110    2.00000
   24    -10.46376    2.00000
   25    -10.27066    2.00000
   26    -10.13408    2.00000
   27     -9.84846    2.00000
   28     -9.51579    2.00000
   29     -9.24651    2.00000
   30     -9.02887    2.00000
   31     -8.75862    2.00000
   32     -8.62876    2.00000
   33     -8.34070    2.00000
   34     -8.32509    2.00000
   35     -8.14950    2.00000
   36     -8.05932    2.00000
   37     -7.45592    2.00000
   38     -7.30218    2.00000
   39     -6.99484    2.00000
   40     -6.28635    2.00000
   41     -6.17635    2.00000
   42     -5.98509    2.00000
   43     -5.76164    2.00000
   44     -5.69353    2.00000
   45     -5.40088    1.99996
   46     -4.94147    1.99577
   47     -4.39926    1.35209
   48     -4.25308    0.65207
   49     -3.34164    0.00011
   50     -2.86922    0.00000
   51     -2.84988    0.00000
   52     -2.78008    0.00000
   53     -2.21476    0.00000
   54     -2.11029    0.00000
   55     -1.77223    0.00000
   56     -1.38383    0.00000
   57     -1.07809    0.00000
   58     -0.81791    0.00000
   59     -0.53891    0.00000
[...]
   83      8.62063    0.00000
   84      8.70124    0.00000
   85      8.85311    0.00000
   86      8.98922    0.00000
   87      9.09905    0.00000
   88      9.21140    0.00000
   89      9.34338    0.00000
   90      9.51443    0.00000
   91      9.64374    0.00000
   92      9.71812    0.00000
   93      9.83055    0.00000
   94      9.88903    0.00000
   95      9.91374    0.00000
   96     10.06772    0.00000
   97     10.15088    0.00000

Forces in eV/Ang:
  0 C     0.01078    0.00816   -0.03017
  1 C    -0.00303    0.02567    0.01372
  2 C     0.00781   -0.03381   -0.01692
  3 C    -0.00698   -0.02309   -0.03948
  4 C     0.07659    0.00425   -0.00690
  5 C    -0.00558   -0.00960   -0.02554
  6 C     0.02835    0.01453    0.02267
  7 C     0.03273   -0.00709    0.03154
  8 C     0.01465   -0.00038    0.00323
  9 C     0.03319   -0.01895   -0.01018
 10 C     0.04536   -0.03171    0.05079
 11 C    -0.05630    0.01446   -0.02167
 12 C    -0.01527   -0.02266    0.02706
 13 C     0.00364    0.04819    0.06685
 14 C     0.03889    0.02845    0.03533
 15 C     0.02266    0.02586   -0.05723
 16 C    -0.05422   -0.05057    0.04169
 17 C    -0.03620    0.07075   -0.01587
 18 C     0.01128    0.00711    0.00176
 19 C    -0.03076   -0.02880    0.03629
 20 C     0.00716    0.00857    0.00075
 21 C    -0.03474   -0.02880   -0.03023
 22 C    -0.01334   -0.04445   -0.00884
 23 C    -0.03753    0.05393   -0.02971