User:   esb@s65n82.grendel.cscaa.dk
Date:   Thu Nov  9 10:02:35 2017
Arch:   x86_64
Pid:    64833
Python: 2.7.13
gpaw:   /home/esb/DFT/gpaw_git/gpaw
_gpaw:  /home/esb/DFT/gpaw_git/build/bin.linux-x86_64-2.7/gpaw-python
ase:    /home/esb/DFT/ase_git/ase (version 3.15.0b1)
numpy:  /comm/swstack/core/python/2.7.13/lib/python2.7/site-packages/numpy (version 1.13.3)
scipy:  /comm/swstack/core/python/2.7.13/lib/python2.7/site-packages/scipy (version 0.19.1)
units:  Angstrom and eV
cores:  16
Extra parameters: {'blacs': True}

Input parameters:
  basis: dzp
  gpts: [80 80 48]
  kpts: [1 1 1]
  maxiter: 99
  mixer: {backend: pulay,
          beta: 0.05,
          method: separate,
          nmaxold: 5,
          weight: 75}
  mode: lcao
  nbands: -50
  occupations: {name: fermi-dirac,
                width: 0.1}
  poissonsolver: {eps: 1e-07,
                  name: fd,
                  nn: 3,
                  relax: GS}
  xc: PBE

System changes: positions, numbers, cell, pbc, initial_charges, initial_magmoms

Initialize ...

C-setup:
  name: Carbon
  id: 4aa54d4b901d75f77cc0ea3eec22967b
  Z: 6
  valence: 4
  core: 2
  charge: 0.0
  file: /home/esb/DFT/gpaw-setups-0.8.7929/C.PBE.gz
  cutoffs: 0.64(comp), 1.14(filt), 1.14(core), lmax=2
  valence states:
                energy  radius
    2s(2.00)   -13.751   0.635
    2p(2.00)    -5.284   0.635
    *s          13.461   0.635
    *p          21.927   0.635
    *d           0.000   0.635

  LCAO basis set for C:
    Name: dzp
    File: /home/esb/DFT/gpaw-setups-0.8.7929/C.dzp.basis.gz
    Number of radial functions: 5
    Number of spherical harmonics: 13
      l=0, rc=5.5469 Bohr: 2s-sz confined orbital
      l=1, rc=6.6719 Bohr: 2p-sz confined orbital
      l=0, rc=3.0312 Bohr: 2s-dz split-valence wave
      l=1, rc=3.7500 Bohr: 2p-dz split-valence wave
      l=2, rc=6.6719 Bohr: d-type Gaussian polarization

Reference energy: -24663.074771

Spin-paired calculation

Occupation numbers:
  Fermi-Dirac: width=0.1000 eV

Convergence criteria:
  Maximum total energy change: 0.0005 eV / electron
  Maximum integral of absolute density change: 0.0001 electrons
  Maximum integral of absolute eigenstate change: 4e-08 eV^2
  Maximum number of iterations: 99

Symmetries present (total): 1

  ( 1  0  0)
  ( 0  1  0)
  ( 0  0  1)

1 k-point (Gamma)
1 k-point in the irreducible part of the Brillouin zone
       k-points in crystal coordinates                weights
   0:     0.00000000    0.00000000    0.00000000          1/1

Wave functions: LCAO
  Diagonalizer: Serial LAPACK
  Atomic Correction: dense with blas
  Datatype: float
  Eigensolver: None

LCAO using direct dense diagonalizer

Densities:
  Coarse grid: 80*80*48 grid
  Fine grid: 160*160*96 grid
  Total Charge: 0.000000

Density mixing:
  Method: separate
  Backend: pulay
  Linear mixing parameter: 0.05
  Mixing with 5 old densities
  Damping of long wave oscillations: 75

Hamiltonian:
  XC and Coulomb potentials evaluated on a 160*160*96 grid
  Using the PBE Exchange-Correlation functional
  Interpolation: tri-quintic (5. degree polynomial)
  Poisson solver: Gauss-Seidel solver with 6 multi-grid levels
    Coarsest grid: 5 x 5 x 3 points
    Stencil: 6*3+1=19 point O(h^6) finite-difference Laplacian
    Max iterations: 1000
    Tolerance: 1.000000e-07

Total number of cores used: 16
Domain decomposition: 2 x 4 x 2

Number of atoms: 24
Number of atomic orbitals: 312
Number of bands in calculation: 98
Bands to converge: occupied states only
Number of valence electrons: 96

... initialized

Initializing position-dependent things.

Density initialized from atomic densities
   /       |              C  C  C                 |
  /        |        C   C     C CC                |
 *         |  C  C        C    C    C             |
 |         C  C  C  C    C  C       C             |
 |        /          C    C                      /
 |       /     C C                              /

Positions:
   0 C      4.334405    9.192652    5.387182
   1 C      4.785273    7.735214    5.441031
   2 C      2.966481    8.837768    4.997802
   3 C      3.539421    7.177636    5.063123
   4 C      2.262896    7.677107    4.824522
   5 C      5.086087   10.301841    5.456508
   6 C      6.090910    7.249879    5.556812
   7 C      9.719381   11.622443    5.231542
   8 C     11.647281    9.898995    4.757997
   9 C     10.377465   10.361208    5.175915
  10 C      7.172089   11.844728    5.482773
  11 C      8.484206   11.936390    5.419579
  12 C     12.289500    8.842986    4.473229
  13 C      4.721990    4.126056    4.903132
  14 C      5.740551    3.387568    4.956784
  15 C      7.036786    3.769117    5.384702
  16 C     10.759126    6.972609    6.967925
  17 C      9.716283    7.935086    6.999952
  18 C     10.745136    5.749104    6.669709
  19 C      9.619129    4.987979    6.268930
  20 C      8.479059    7.237264    6.527302
  21 C      8.383408    5.815244    6.177413
  22 C      9.365741    3.655230    5.932901
  23 C      7.279238    7.958209    6.384313

Unit cell:
           periodic     x           y           z      points  spacing
  1. axis:    yes   16.000000    0.000000    0.000000    80     0.2000
  2. axis:    yes    0.000000   16.000000    0.000000    80     0.2000
  3. axis:    yes    0.000000    0.000000   10.000000    48     0.2083

Effective grid spacing dv^(1/3) = 0.2027

                     log10-error:    total        iterations:
           time      wfs    density  energy       fermi  poisson
iter:   1  10:02:36          +inf  -162.216558    2      6
iter:   2  10:02:37         -0.86  -160.055073    3      3
iter:   3  10:02:37         -0.90  -158.540172    4      3
iter:   4  10:02:38         -0.95  -157.698365    3      3
iter:   5  10:02:38         -1.04  -156.900329    36     3
iter:   6  10:02:39         -1.18  -156.598030    3      2
iter:   7  10:02:40         -1.25  -156.284498    4      3
iter:   8  10:02:40         -1.51  -156.232368    3      3
iter:   9  10:02:41         -1.65  -156.206098    3      3
iter:  10  10:02:41         -1.78  -156.154520    3      3
iter:  11  10:02:42         -1.96  -156.143438    3      2
iter:  12  10:02:42         -2.08  -156.137807    3      2
iter:  13  10:02:43         -2.19  -156.137919    3      2
iter:  14  10:02:43         -2.29  -156.135504    3      2
iter:  15  10:02:44         -2.48  -156.133903    3      2
iter:  16  10:02:44         -2.56  -156.132181    3      2
iter:  17  10:02:45         -2.71  -156.131870    3      2
iter:  18  10:02:45         -2.83  -156.132374    3      2
iter:  19  10:02:46         -3.03  -156.142240    2      1
iter:  20  10:02:46         -3.23  -156.138295    2      1
iter:  21  10:02:47         -3.36  -156.132590    2      1
iter:  22  10:02:47         -3.43  -156.132959    2      1
iter:  23  10:02:48         -3.51  -156.131607    2      1
iter:  24  10:02:48         -3.56  -156.129194    2      1
iter:  25  10:02:49         -3.73  -156.128369    2      1
iter:  26  10:02:49         -4.02  -156.130089    2      1

Converged after 26 iterations.

Dipole moment: (-0.395062, -0.465223, 0.299438) |e|*Ang

Energy contributions relative to reference atoms: (reference = -24663.074771)

Kinetic:        +88.591185
Potential:     -101.788258
External:        +0.000000
XC:            -145.325729
Entropy (-ST):   -0.637276
Local:           +2.711350
Free energy:   -156.448727
Extrapolated:  -156.130089

Fermi level: -4.88327

 Band  Eigenvalues  Occupancy
    0    -23.90954    2.00000
    1    -22.19473    2.00000
    2    -20.38179    2.00000
    3    -20.35160    2.00000
    4    -20.16243    2.00000
    5    -20.02240    2.00000
    6    -19.51199    2.00000
    7    -18.82153    2.00000
    8    -18.72079    2.00000
    9    -17.12715    2.00000
   10    -17.04566    2.00000
   11    -16.56057    2.00000
   12    -16.06158    2.00000
   13    -15.86393    2.00000
   14    -15.33154    2.00000
   15    -15.05408    2.00000
   16    -14.23487    2.00000
   17    -12.78656    2.00000
   18    -12.28856    2.00000
   19    -12.20749    2.00000
   20    -11.82108    2.00000
   21    -11.38310    2.00000
   22    -10.63831    2.00000
   23    -10.24619    2.00000
   24    -10.03757    2.00000
   25     -9.39503    2.00000
   26     -8.76881    2.00000
   27     -8.67374    2.00000
   28     -8.61983    2.00000
   29     -8.45402    2.00000
   30     -8.35170    2.00000
   31     -8.29819    2.00000
   32     -8.13402    2.00000
   33     -7.69005    2.00000
   34     -7.62455    2.00000
   35     -7.27417    2.00000
   36     -7.11132    2.00000
   37     -7.05069    2.00000
   38     -6.98908    2.00000
   39     -6.91361    2.00000
   40     -6.86932    2.00000
   41     -6.62213    2.00000
   42     -5.60536    1.99854
   43     -5.46681    1.99417
   44     -5.30761    1.97169
   45     -5.14113    1.85895
   46     -5.02465    1.60873
   47     -4.90938    1.12985
   48     -4.81967    0.69230
   49     -4.78358    0.53912
   50     -4.60063    0.11183
   51     -4.57266    0.08572
   52     -4.30966    0.00643
   53     -4.22082    0.00265
   54     -3.49495    0.00000
   55     -3.28682    0.00000
   56     -3.02374    0.00000
   57     -2.98957    0.00000
   58     -2.75464    0.00000
   59     -2.41540    0.00000
[...]
   83      7.73125    0.00000
   84      8.18776    0.00000
   85      8.24956    0.00000
   86      8.45730    0.00000
   87      8.69473    0.00000
   88      8.79159    0.00000
   89      8.90367    0.00000
   90      9.02003    0.00000
   91      9.15214    0.00000
   92      9.18084    0.00000
   93      9.35794    0.00000
   94      9.45676    0.00000
   95      9.65444    0.00000
   96      9.74774    0.00000
   97      9.91914    0.00000

Forces in eV/Ang:
  0 C     0.53467   -0.34937    0.08872
  1 C     1.98517   -0.15982   -0.27917
  2 C     0.01947    0.16841   -0.07811
  3 C    -0.54097   -0.07809   -0.10507
  4 C    -0.90292   -0.66331   -0.18423
  5 C    -0.42137    0.45905    0.06212
  6 C     2.73645    3.52551    3.79891
  7 C     3.03947   -4.85654   -0.08858
  8 C    -5.14165    2.77813    1.92759
  9 C     2.99524    3.16240   -1.08499
 10 C     0.15467    0.71334    0.10732
 11 C    -3.03260    0.74089    0.30693
 12 C     2.22745   -2.84854   -0.90794
 13 C    -4.00748    2.87260   -0.24958
 14 C     7.55974   -1.29701    1.50496
 15 C    -1.24826   -0.72180   -0.50681
 16 C    -1.01146    1.96954   -0.01349
 17 C     0.71977   -1.53063   -0.28695
 18 C     0.54193   -1.17590    0.03158
 19 C    -1.42290   -0.17536   -0.37123
 20 C     0.45126    0.62335    0.21589
 21 C    -0.24486    0.34518   -0.26242
 22 C    -0.46003   -0.56184   -0.24333
 23 C    -4.51917   -3.00879   -3.42695

System changes: positions

[...]

Density initialized from wave functions
   /       |              C  C  C                 |
  /        |        C   C     C CC                |
 *         |  C  C        C    C    C             |
 |         C  C   C C    C  C        C            |
 |        /         C     C                      /
 |       /     C C                              /

[...]

Density initialized from wave functions
   /       |              C  C  C                 |
[...]
 |    /           C                          /

[...]

Density initialized from wave functions
  /        |C CC CC C C     C                     |
 *         |         C  C   C CC CC               |
 |         |             C   C                    |
 |         .--------------C-----------------------.
 |        /              C                       /
 |      /              C                       /
 |     /            C                         /
 |    /           C                          /

[...]

Density initialized from wave functions
  /        |C CC C  C C     C                     |
 *         |      C  C  C   C CC CC               |
 |         |             C   C                    |
 |         .--------------C-----------------------.
 |        /              C                       /
 |      /              C                       /
 |     /            C                         /
 |    /           C                          /

[...]

Density initialized from wave functions
  /        |C CC CC C C     C                     |
 *         |         C  C   C CC CC               |
 |         |             C   C                    |
 |         .--------------C-----------------------.
 |        /              C                       /
 |      /              C                       /
 |     /             C                        /
 |    /           C                          /

[...]

Density initialized from wave functions
  /        |C CC CCC  C     C                     |
 *         |         C  C   C  C CC               |
 |         |             C   C                    |
 |         .--------------C-----------------------.
 |        /              C                       /
 |      /              C                       /
 |     /             C                        /
 |    /           C                          /

[...]

Density initialized from wave functions
  /        |C CC CCC  C     C                     |
 *         |         C  C   C  C CC               |
 |         |             C   C                    |
 |         .--------------C-----------------------.
 |        /              C                       /
 |      /              C                       /
 |     /             C                        /
 |    /           C                          /

[...]

Density initialized from wave functions
  /        |C CC CCC  C     C                     |
 *         |         C  C   C CC CC               |
 |         |             C   C                    |
 |         .--------------C-----------------------.
 |        /              C                       /
 |      /              C                       /
 |     /             C                        /
 |    /           C                          /

[...]

Density initialized from wave functions
  /        |C CC CCC  C     C                     |
 *         |         C  C   C CC CC               |
 |         |             C   C                    |
 |         .--------------C-----------------------.
 |        /              C                       /
 |      /              C                       /
 |     /             C                        /
 |    /           C                          /

[...]

Density initialized from wave functions
  /        |C CC CCC CC     C                     |
 *         |            CC  C CC CC               |
 |         |             C   C                    |
 |         .--------------C-----------------------.
 |        /              C                       /
 |      /              C                       /
 |     /             C                        /
 |    /           C                          /

[...]

Density initialized from wave functions
  /        |C CC CCC CC     C                     |
 *         |            CC  C CC C                |
 |         |             C   C                    |
 |         .--------------C-----------------------.
 |        /              C                       /
 |      /              C                       /
 |     /             C                        /
 |    /           C                          /

[...]

Density initialized from wave functions
  /        |C CC CCC  C     C                     |
 *         |         C  CC  C  C C                |
 |         |             C   C                    |
 |         .--------------C-----------------------.
 |        /              C                       /
 |      /              C                       /
 |     /             C                        /
 |    /            C                         /

[...]

Density initialized from wave functions
  /        |C CC CCC  C     C                     |
 *         |         C  CC  C CC C                |
 |         |             C   C                    |
 |         .--------------C-----------------------.
 |        /              C                       /
 |      /              C                       /
 |     /             C                        /
 |    /            C                         /

[...]

Density initialized from wave functions
  /        |C CC CCC  C     C                     |
 *         |         C  CC  C CC C                |
 |         |             C   C                    |
 |         .--------------C-----------------------.
 |        /              C                       /
 |      /              C                       /
 |     /             C                        /
 |    /            C                         /

[...]

Density initialized from wave functions
  /        |C CC CCC C      C                     |
 *         |            CC  C CC C                |
 |         |             C   C                    |
 |         .--------------C-----------------------.
 |        /              C                       /
 |      /              C                       /
 |     /             C                        /
 |    /            C                         /

[...]

Density initialized from wave functions
  /        |C CC CCC C      C                     |
 *         |            CC  C C  C                |
 |         |            C    C                    |
 |         .--------------C-----------------------.
 |        /              C                       /
 |      /              C                       /
 |     /             C                        /
 |    /            C                         /

[...]

Density initialized from wave functions
  /        |C CC CCC C     C                      |
 *         |            CC  C C  C                |
 |         |            C    C                    |
 |         .--------------C-----------------------.
 |        /              C                       /
 |      /              C                       /
 |     /             C                        /
 |    /            C                         /

[...]

Density initialized from wave functions
  /        |C CC CCC C                            |
 *         |            CC CC C  C                |
 |         |                 C                    |
 |         .--------------C-----------------------.
 |        /              C                       /
 |      /              C                       /
 |     /             C                        /
 |    /            C                         /

[...]

Density initialized from wave functions
  /        |C CC CCC C                            |
 *         |            CC CC C  C                |
 |         |            C    C                    |
 |         .--------------C-----------------------.
 |        /              C                       /
 |      /              C                       /
 |     /             C                        /
 |    /            C                         /

[...]

Density initialized from wave functions
  /        |C CC CCC C                            |
 *         |            CC CC C  C                |
 |         |            C    C                    |
 |         .--------------C-----------------------.
 |        /              C                       /
 |      /              C                       /
 |     /             C                        /
 |    /             C                        /

[...]

Density initialized from wave functions
  /        |C CC CCC C                            |
 *         |         C  CC CC C  C                |
 |         |            C    C                    |
 |         .--------------C-----------------------.
 |        /              C                       /
 |      /              C                       /
 |     /             C                        /
 |    /             C                        /

[...]

Density initialized from wave functions
  /        |C CC CCC C                            |
 *         |         C  CC CC C  C                |
 |         |            C    C                    |
 |         .--------------C-----------------------.
 |        /              C                       /
 |      /              C                       /
 |     /             C                        /
 |    /             C                        /

[...]

Density initialized from wave functions
    /      |                  C                   |
  /        |C CC CCC C                            |
 *         |         C C C CC C  C                |
 |         |            C    C                    |
 |         .--------------C-----------------------.
 |        /              C                       /
 |      /              C                       /
 |     /             C                        /

[...]

Density initialized from wave functions
    /      |                  C                   |
  /        |C CC CCC C                            |
 *         |         C  CC CC C  C                |
 |         |            C    C                    |
 |         .--------------C-----------------------.
 |        /              C                       /
 |      /              C                       /
 |     /             C                        /

[...]

Density initialized from wave functions
    /      |                  C                   |
  /        |C CC CCC C                            |
 *         |         C  CC CC C  C                |
 |         |            C   C                     |
 |         .--------------C-----------------------.
 |        /              C                       /
 |      /              C                       /
 |     /             C                        /

[...]

System changes: positions

Initializing position-dependent things.

Density initialized from wave functions
    /      |                  C                   |
  /        |C CC CCC C                            |
 *         |         C C C CC C  C                |
 |         |            C   C                     |
 |         .--------------C-----------------------.
 |        /              C                       /
 |      /              C                       /
 |     /             C                        /

Positions:
   0 C      4.424589   10.395792    5.249527
   1 C      4.266908    9.035540    5.945423
   2 C      2.973225   10.694853    5.271992
   3 C      2.879507    9.115008    6.076050
   4 C      1.881509   10.037202    5.710425
   5 C      5.552407   10.958223    4.815409
   6 C      5.276854    8.142527    6.284442
   7 C      9.343344   10.744886    4.489423
   8 C     10.904138    8.988624    5.171956
   9 C     10.472997   10.147366    4.653676
  10 C      6.828180   11.082551    4.571254
  11 C      8.104373   11.180656    4.381001
  12 C     11.119829    7.815805    5.624510
  13 C      7.764709   -0.065539    3.820079
  14 C      8.151325    0.967949    4.498868
  15 C      8.502201    2.110864    5.105921
  16 C     10.136528    6.899067    6.097079
  17 C      8.833832    7.139480    6.536003
  18 C      9.854229    5.543719    6.255399
  19 C      8.919553    4.505510    6.074887
  20 C      7.497481    6.752921    6.537537
  21 C      8.004069    5.452521    6.582400
  22 C      8.861168    3.198495    5.638296
  23 C      6.284456    7.446579    6.498424

Unit cell:
           periodic     x           y           z      points  spacing
  1. axis:    yes   16.000000    0.000000    0.000000    80     0.2000
  2. axis:    yes    0.000000   16.000000    0.000000    80     0.2000
  3. axis:    yes    0.000000    0.000000   10.000000    48     0.2083

Effective grid spacing dv^(1/3) = 0.2027

                     log10-error:    total        iterations:
           time      wfs    density  energy       fermi  poisson
iter:   1  10:41:55          +inf  -177.082097    2      5
iter:   2  10:41:56         -2.89  -177.076980    2      1
iter:   3  10:41:56         -3.09  -177.075437    2      1
iter:   4  10:41:57         -3.19  -177.077122    2      1
iter:   5  10:41:57         -3.34  -177.073825    2      1
iter:   6  10:41:58         -3.34  -177.076278    2      1
iter:   7  10:41:58         -3.71  -177.077955    2      1
iter:   8  10:41:59         -3.49  -177.075890    2      1
iter:   9  10:41:59         -3.98  -177.075792    2      1
iter:  10  10:42:00         -4.01  -177.076556    2      1

Converged after 10 iterations.

Dipole moment: (0.236233, -0.275169, 0.608116) |e|*Ang

Energy contributions relative to reference atoms: (reference = -24663.074771)

Kinetic:       +102.791730
Potential:     -111.939436
External:        +0.000000
XC:            -170.849520
Entropy (-ST):   -0.207657
Local:           +3.024498
Free energy:   -177.180385
Extrapolated:  -177.076556

Fermi level: -4.57782

 Band  Eigenvalues  Occupancy
    0    -24.75833    2.00000
    1    -23.35274    2.00000
    2    -21.38893    2.00000
    3    -21.25120    2.00000
    4    -20.76734    2.00000
    5    -20.26315    2.00000
    6    -19.90052    2.00000
    7    -19.23498    2.00000
    8    -19.05933    2.00000
    9    -18.65573    2.00000
   10    -17.92663    2.00000
   11    -17.34761    2.00000
   12    -17.07420    2.00000
   13    -15.95876    2.00000
   14    -15.82099    2.00000
   15    -15.33227    2.00000
   16    -14.76846    2.00000
   17    -14.39961    2.00000
   18    -14.12654    2.00000
   19    -13.91328    2.00000
   20    -13.50058    2.00000
   21    -13.23668    2.00000
   22    -12.92064    2.00000
   23    -11.84699    2.00000
   24    -11.70605    2.00000
   25    -11.48828    2.00000
   26    -10.92520    2.00000
   27    -10.28997    2.00000
   28     -9.49689    2.00000
   29     -9.32617    2.00000
   30     -8.93259    2.00000
   31     -8.86741    2.00000
   32     -8.35831    2.00000
   33     -8.19499    2.00000
   34     -8.10488    2.00000
   35     -7.82554    2.00000
   36     -7.66122    2.00000
   37     -7.55793    2.00000
   38     -7.33575    2.00000
   39     -7.03415    2.00000
   40     -6.95944    2.00000
   41     -6.56184    2.00000
   42     -5.79817    1.99999
   43     -5.21106    1.99645
   44     -5.19847    1.99598
   45     -4.91074    1.93083
   46     -4.86915    1.89699
   47     -4.85358    1.88067
   48     -4.40267    0.29572
   49     -3.93931    0.00337
   50     -2.73759    0.00000
   51     -2.55173    0.00000
   52     -2.36337    0.00000
   53     -2.20038    0.00000
   54     -2.16046    0.00000
   55     -1.97207    0.00000
   56     -1.75912    0.00000
   57     -1.03903    0.00000
   58     -0.94209    0.00000
   59     -0.72575    0.00000
[...]
   83      8.05706    0.00000
   84      8.34677    0.00000
   85      8.61567    0.00000
   86      8.69128    0.00000
   87      8.74646    0.00000
   88      8.91279    0.00000
   89      9.05870    0.00000
   90      9.18045    0.00000
   91      9.26973    0.00000
   92      9.35721    0.00000
   93      9.39141    0.00000
   94      9.63113    0.00000
   95      9.72942    0.00000
   96      9.81826    0.00000
   97      9.91194    0.00000

Forces in eV/Ang:
  0 C    -0.02490    0.04447   -0.06982
  1 C    -0.04415    0.00777    0.07623
  2 C     0.05073    0.03411    0.02783
  3 C     0.05177   -0.00304   -0.05277
  4 C     0.01644   -0.02000    0.01084
  5 C    -0.05263    0.01518   -0.03878
  6 C    -0.02200    0.08787   -0.02495
  7 C    -0.02648   -0.02015   -0.05278
  8 C    -0.00587   -0.01205   -0.02683
  9 C    -0.02966    0.04864    0.03001
 10 C     0.03613    0.03412    0.05850
 11 C    -0.05483    0.01878    0.05403
 12 C     0.03625   -0.02294   -0.00011
 13 C     0.04469   -0.01865    0.07898
 14 C     0.02532   -0.01427   -0.02502
 15 C    -0.00927    0.04437   -0.01103
 16 C     0.01589    0.06289   -0.04350
 17 C     0.00223   -0.02299   -0.00613
 18 C     0.03680   -0.07403   -0.01295
 19 C    -0.02725   -0.01148   -0.01750
 20 C    -0.04330    0.00680    0.01271
 21 C     0.01288   -0.02897   -0.02662
 22 C    -0.00778   -0.02627    0.00162
 23 C    -0.01211   -0.01589   -0.03024