User:   esb@s65n62.grendel.cscaa.dk
Date:   Wed Nov  8 17:09:53 2017
Arch:   x86_64
Pid:    42824
Python: 2.7.13
gpaw:   /home/esb/DFT/gpaw_git/gpaw
_gpaw:  /home/esb/DFT/gpaw_git/build/bin.linux-x86_64-2.7/gpaw-python
ase:    /home/esb/DFT/ase_git/ase (version 3.15.0b1)
numpy:  /comm/swstack/core/python/2.7.13/lib/python2.7/site-packages/numpy (version 1.13.3)
scipy:  /comm/swstack/core/python/2.7.13/lib/python2.7/site-packages/scipy (version 0.19.1)
units:  Angstrom and eV
cores:  16
Extra parameters: {'blacs': True}

Input parameters:
  basis: dzp
  gpts: [80 80 48]
  kpts: [1 1 1]
  maxiter: 99
  mixer: {backend: pulay,
          beta: 0.05,
          method: separate,
          nmaxold: 5,
          weight: 75}
  mode: lcao
  nbands: -50
  occupations: {name: fermi-dirac,
                width: 0.1}
  poissonsolver: {eps: 1e-07,
                  name: fd,
                  nn: 3,
                  relax: GS}
  xc: PBE

System changes: positions, numbers, cell, pbc, initial_charges, initial_magmoms

Initialize ...

C-setup:
  name: Carbon
  id: 4aa54d4b901d75f77cc0ea3eec22967b
  Z: 6
  valence: 4
  core: 2
  charge: 0.0
  file: /home/esb/DFT/gpaw-setups-0.8.7929/C.PBE.gz
  cutoffs: 0.64(comp), 1.14(filt), 1.14(core), lmax=2
  valence states:
                energy  radius
    2s(2.00)   -13.751   0.635
    2p(2.00)    -5.284   0.635
    *s          13.461   0.635
    *p          21.927   0.635
    *d           0.000   0.635

  LCAO basis set for C:
    Name: dzp
    File: /home/esb/DFT/gpaw-setups-0.8.7929/C.dzp.basis.gz
    Number of radial functions: 5
    Number of spherical harmonics: 13
      l=0, rc=5.5469 Bohr: 2s-sz confined orbital
      l=1, rc=6.6719 Bohr: 2p-sz confined orbital
      l=0, rc=3.0312 Bohr: 2s-dz split-valence wave
      l=1, rc=3.7500 Bohr: 2p-dz split-valence wave
      l=2, rc=6.6719 Bohr: d-type Gaussian polarization

Reference energy: -24663.074771

Spin-paired calculation

Occupation numbers:
  Fermi-Dirac: width=0.1000 eV

Convergence criteria:
  Maximum total energy change: 0.0005 eV / electron
  Maximum integral of absolute density change: 0.0001 electrons
  Maximum integral of absolute eigenstate change: 4e-08 eV^2
  Maximum number of iterations: 99

Symmetries present (total): 1

  ( 1  0  0)
  ( 0  1  0)
  ( 0  0  1)

1 k-point (Gamma)
1 k-point in the irreducible part of the Brillouin zone
       k-points in crystal coordinates                weights
   0:     0.00000000    0.00000000    0.00000000          1/1

Wave functions: LCAO
  Diagonalizer: Serial LAPACK
  Atomic Correction: dense with blas
  Datatype: float
  Eigensolver: None

LCAO using direct dense diagonalizer

Densities:
  Coarse grid: 80*80*48 grid
  Fine grid: 160*160*96 grid
  Total Charge: 0.000000

Density mixing:
  Method: separate
  Backend: pulay
  Linear mixing parameter: 0.05
  Mixing with 5 old densities
  Damping of long wave oscillations: 75

Hamiltonian:
  XC and Coulomb potentials evaluated on a 160*160*96 grid
  Using the PBE Exchange-Correlation functional
  Interpolation: tri-quintic (5. degree polynomial)
  Poisson solver: Gauss-Seidel solver with 6 multi-grid levels
    Coarsest grid: 5 x 5 x 3 points
    Stencil: 6*3+1=19 point O(h^6) finite-difference Laplacian
    Max iterations: 1000
    Tolerance: 1.000000e-07

Total number of cores used: 16
Domain decomposition: 2 x 4 x 2

Number of atoms: 24
Number of atomic orbitals: 312
Number of bands in calculation: 98
Bands to converge: occupied states only
Number of valence electrons: 96

... initialized

Initializing position-dependent things.

Density initialized from atomic densities
  /        |               C  C                   |
 *         |         C  C  C  C C                 |
 |         |   C  C  C  C   C   C                 |
 |         .--------CC---C-------C----------------.
 |        /       C     C                        /
 |       /         C C  C   C  C                /

Positions:
   0 C     10.411743    8.224185    4.590560
   1 C      8.209131    9.116301    4.894501
   2 C      9.176732   10.156395    4.837818
   3 C      7.862051    5.373453    4.735827
   4 C     10.952966    4.740367    4.385995
   5 C      8.973515    7.857468    4.765100
   6 C      8.537420    4.075329    4.618014
   7 C      7.418139    3.133528    4.660842
   8 C      9.920320    4.012459    4.481606
   9 C      6.268980    3.692731    4.791019
  10 C     10.354348    9.664102    4.630652
  11 C     11.354136    7.221803    4.406927
  12 C      8.068162    6.783381    4.793334
  13 C      5.988752    9.043438    4.863422
  14 C      7.564152   11.838793    4.313457
  15 C      6.536797    5.626146    5.016586
  16 C      7.230239    8.226525    4.909780
  17 C      5.633942    4.533144    5.295719
  18 C      5.439184   10.351118    4.591976
  19 C      8.874343   11.553152    4.421375
  20 C      6.395010   11.369702    4.395245
  21 C      5.160162    7.869728    5.104890
  22 C      3.744090    7.904226    5.127230
  23 C      6.367704    7.007898    5.072951

Unit cell:
           periodic     x           y           z      points  spacing
  1. axis:    yes   16.000000    0.000000    0.000000    80     0.2000
  2. axis:    yes    0.000000   16.000000    0.000000    80     0.2000
  3. axis:    yes    0.000000    0.000000   10.000000    48     0.2083

Effective grid spacing dv^(1/3) = 0.2027

                     log10-error:    total        iterations:
           time      wfs    density  energy       fermi  poisson
iter:   1  17:09:55          +inf  -171.213594    2      6
iter:   2  17:09:55         -0.85  -169.374397    3      3
iter:   3  17:09:56         -0.89  -169.469500    34     4
iter:   4  17:09:56         -0.89  -168.247160    3      2
iter:   5  17:09:57         -0.94  -167.745029    3      2
iter:   6  17:09:57         -0.96  -166.403036    4      3
iter:   7  17:09:58         -1.07  -165.015609    3      3
iter:   8  17:09:58         -1.32  -164.785552    3      3
iter:   9  17:09:59         -1.43  -164.730514    4      3
iter:  10  17:09:59         -1.69  -164.733862    3      3
iter:  11  17:10:00         -1.76  -164.694110    3      3
iter:  12  17:10:00         -1.92  -164.678652    3      2
iter:  13  17:10:01         -2.09  -164.662672    3      2
iter:  14  17:10:01         -2.18  -164.651561    3      2
iter:  15  17:10:02         -2.44  -164.644855    3      2
iter:  16  17:10:02         -2.64  -164.642827    2      2
iter:  17  17:10:03         -2.82  -164.644580    2      2
iter:  18  17:10:03         -2.98  -164.652500    2      1
iter:  19  17:10:04         -3.21  -164.650584    2      1
iter:  20  17:10:04         -3.37  -164.645809    2      1
iter:  21  17:10:05         -3.50  -164.645904    1      1
iter:  22  17:10:05         -3.68  -164.643847    2      1
iter:  23  17:10:06         -3.83  -164.642966    2      1
iter:  24  17:10:06         -3.97  -164.643928    2      1
iter:  25  17:10:07         -4.06  -164.643635    2      1

Converged after 25 iterations.

Dipole moment: (-0.391290, 0.678115, 0.007808) |e|*Ang

Energy contributions relative to reference atoms: (reference = -24663.074771)

Kinetic:       +165.122419
Potential:     -153.566223
External:        +0.000000
XC:            -178.977893
Entropy (-ST):   -0.371431
Local:           +2.963778
Free energy:   -164.829350
Extrapolated:  -164.643635

Fermi level: -4.82488

 Band  Eigenvalues  Occupancy
    0    -25.92824    2.00000
    1    -23.92323    2.00000
    2    -22.92669    2.00000
    3    -21.95788    2.00000
    4    -21.38979    2.00000
    5    -20.84684    2.00000
    6    -20.20288    2.00000
    7    -19.65056    2.00000
    8    -18.95164    2.00000
    9    -18.02440    2.00000
   10    -17.89101    2.00000
   11    -17.61189    2.00000
   12    -17.30125    2.00000
   13    -16.45673    2.00000
   14    -15.85602    2.00000
   15    -15.33164    2.00000
   16    -14.97438    2.00000
   17    -14.26663    2.00000
   18    -13.86369    2.00000
   19    -13.65154    2.00000
   20    -12.69920    2.00000
   21    -12.56677    2.00000
   22    -12.25135    2.00000
   23    -11.97896    2.00000
   24    -11.46013    2.00000
   25    -11.30965    2.00000
   26    -10.85248    2.00000
   27    -10.29234    2.00000
   28    -10.02435    2.00000
   29     -9.88751    2.00000
   30     -9.49489    2.00000
   31     -8.62082    2.00000
   32     -8.54715    2.00000
   33     -8.13900    2.00000
   34     -7.96590    2.00000
   35     -7.82148    2.00000
   36     -7.66476    2.00000
   37     -7.61426    2.00000
   38     -7.40588    2.00000
   39     -6.85919    2.00000
   40     -6.23277    2.00000
   41     -5.96894    1.99998
   42     -5.92756    1.99997
   43     -5.69454    1.99967
   44     -5.34191    1.98870
   45     -5.17437    1.94109
   46     -5.07489    1.84830
   47     -4.95621    1.57616
   48     -4.70618    0.46762
   49     -4.55314    0.12391
   50     -4.46693    0.05427
   51     -3.95417    0.00033
   52     -3.61546    0.00001
   53     -3.20511    0.00000
   54     -2.89536    0.00000
   55     -2.53912    0.00000
   56     -1.90620    0.00000
   57     -1.73302    0.00000
   58     -1.47312    0.00000
   59     -1.19274    0.00000
[...]
   83      8.23442    0.00000
   84      8.39444    0.00000
   85      8.54074    0.00000
   86      8.75853    0.00000
   87      8.85025    0.00000
   88      8.94003    0.00000
   89      9.07430    0.00000
   90      9.17687    0.00000
   91      9.29624    0.00000
   92      9.38497    0.00000
   93      9.62888    0.00000
   94      9.70384    0.00000
   95      9.85489    0.00000
   96     10.01409    0.00000
   97     10.18139    0.00000

Forces in eV/Ang:
  0 C     0.46353   -1.08501   -0.15137
  1 C     5.42003   -2.48780    0.30220
  2 C    -4.72619    4.77678   -0.55786
  3 C     3.06147    2.13853   -0.18705
  4 C     0.63895    0.86692   -0.01313
  5 C     2.78709   -0.73362   -0.04832
  6 C    -2.49375   -0.50958   -0.14605
  7 C     3.91018   -1.11890   -0.72611
  8 C    -0.00191    0.43794    0.00869
  9 C     4.61032  -10.76256   -4.57068
 10 C     7.30980   -2.47129   -0.84006
 11 C     0.60432    0.42137   -0.03944
 12 C     7.30469   -0.71299   -1.49796
 13 C    -5.17176    0.67571   -0.21421
 14 C     3.99004    0.76129    0.21571
 15 C    -3.89593   -1.37829    1.53302
 16 C    -8.50361    3.04957    0.51906
 17 C    -8.03468   10.46729    4.79413
 18 C     3.99576    1.20071   -0.00147
 19 C    -1.61262   -0.41582    0.54412
 20 C    -4.80468   -3.56566    0.29483
 21 C    -4.03759   -0.34261   -0.15233
 22 C     2.50374   -0.31923    0.00438
 23 C    -3.37087    1.08950    0.96703

System changes: positions

[...]

Density initialized from wave functions
  /        |               C  C                   |
 *         |         C  C  C  C C                 |
 |         |   C  C  C  C   C   C                 |
 |         .--------CC---C-------C----------------.
 |        /       C     C                        /
 |       /         C C  C   C  C                /

[...]

Density initialized from wave functions
  /        |               C  C                   |
 *         |         C  C  C  C C                 |
[...]
 |         .--------C-----C-------C---------------.
 |        /      C      C                        /
 |       /         C    C   C  C                /
 |      /            C                         /

[...]

Density initialized from wave functions
  /        |               C C                    |
 *         |        CC  C     C  C                |
 |         |   C  C  C C   CC   C                 |
 |         .--------C-----C-------C---------------.
 |        /      C      C                        /
 |       /         C    C   C  C                /
 |      /            C                         /

[...]

Density initialized from wave functions
  /        |               C C                    |
 *         |        CC  C     C  C                |
 |         |  C   C  C C   CC   C                 |
 |         .--------C-----C-------C---------------.
 |        /       C     C                        /
 |       /         C    C   C  C                /
 |      /            C                         /

[...]

Density initialized from wave functions
  /        |               C C                    |
 *         |        CC C      C                   |
 |         |  C   C C  C   CC   CC                |
 |         .--------C------C------C---------------.
 |        /       C     C                        /
 |       /         C    C   C  C                /
 |      /            C                         /

[...]

Density initialized from wave functions
  /        |               C C                    |
 *         |        CC C      C                   |
 |         |  C   C C  C   CC   CC                |
 |         .--------C------C------C---------------.
 |        /       C     C                        /
 |       /         C    C   C  C                /
 |      /            C                         /

[...]

Density initialized from wave functions
  /        |               C C                    |
 *         |        CC C      C                   |
 |         |  C   C C  C   CC   CC                |
 |         .--------C------C------C---------------.
 |        /       C     C      C                 /
 |       /         C    C   C                   /
 |      /            C                         /

[...]

Density initialized from wave functions
  /        |               C C                    |
 *         |        CC C      C                   |
 |         |  C   C C  C   CC   CC                |
 |         .--------C------C------C---------------.
 |        /       C     C      C                 /
 |       /         C    C   C                   /
 |      /            C                         /

[...]

Density initialized from wave functions
  /        |               C                      |
 *         |        CC C     CC                   |
 |         |  C   C C  C   C    CC                |
 |         .--------C------CC-----C---------------.
 |        /       C     C      C                 /
 |       /         C    C   C                   /
 |      /            C                         /

[...]

Density initialized from wave functions
  /        |               C                      |
 *         |        CC C     CC                   |
 |         |  C   C C  C   C    CC                |
 |         .--------C------CC-----C---------------.
 |        /       C     C      C                 /
 |       /         C    C   C                   /
 |      /            C                         /

[...]

Density initialized from wave functions
  /        |               C                      |
 *         |        CC C     CC                   |
 |         |  C   C C  C   C     C                |
 |         .--------C------CC---C-C---------------.
 |        /       C     C      C                 /
 |       /         C    C   C                   /
 |      /            C                         /

[...]

Density initialized from wave functions
  /        |               C                      |
 *         |        CC C     CC                   |
 |         |  C   C C  C   C     C                |
 |         .--------C------CC---CC----------------.
 |        /       C     C     C                  /
 |       /         C    C   C                   /
 |      /            C                         /

[...]

Density initialized from wave functions
  /        |               C                      |
 *         |        CC C     CC                   |
 |         |  C   C C  C   C     C                |
 |         .--------C------CC---CC----------------.
 |        /       C     C     C                  /
 |       /         C    C   C                   /
 |      /            C                         /

[...]

Density initialized from wave functions
  /        |               C                      |
 *         |         C C     CC                   |
 |         |  C   C C  C   C     C                |
 |         .--------C------CC---CC----------------.
 |        /       C     C     C                  /
 |       /         C    C   C                   /
 |      /            C                         /

[...]

Density initialized from wave functions
  /        |               C                      |
 *         |         C C     CC                   |
 |         |  C   C  C C   C     C                |
 |         .--------C------CC---CC----------------.
 |        /       C     C     C                  /
 |       /         C    C   C                   /
 |      /            C                         /

[...]

Density initialized from wave functions
  /        |               C                      |
 *         |         C C     CC                   |
 |         |  C   C  C C   CC    C                |
 |         .--------C------C----CC----------------.
 |        /       C     C     C                  /
 |       /         C    C   C                   /
 |      /            C                         /

[...]

Density initialized from wave functions
  /        |               C                      |
 *         |         C C     CC                   |
 |         |  C   C  C C   CC    C                |
 |         .--------C------C----CC----------------.
 |        /       C     C     C                  /
 |       /         C    C   C                   /
 |      /            C                         /

[...]

Density initialized from wave functions
  /        |               C                      |
 *         |         C C     CC                   |
 |         |   C  C  C C   CC    C                |
 |         .--------C------C----CC----------------.
 |        /       C     C     C                  /
 |       /         C C  C   C                   /

[...]

Density initialized from wave functions
  /        |               C                      |
 *         |         C C     CC                   |
 |         |   C  C  C C   CC    C                |
 |         .--------C------C----CC----------------.
 |        /       C     C     C                  /
 |       /         C C  C   C                   /

[...]

Density initialized from wave functions
  /        |           C   C                      |
 *         |         C       CC                   |
 |         |   C  C  C C   CC    C                |
 |         .--------C------C----CC----------------.
 |        /       C     C     C                  /
 |       /         C C  C   C                   /

[...]

Density initialized from wave functions
  /        |           C   C                      |
 *         |         C       CC                   |
 |         |  C   C  C C   CC    C                |
 |         .--------C------C----CC----------------.
 |        /       C     C     C                  /
 |       /         C C  C   C                   /

[...]

Density initialized from wave functions
  /        |           C   C                      |
 *         |        CC       CC                   |
 |         |  C   C  C C   CC   CC                |
 |         .--------C------C-----C----------------.
 |        /       C     C     C                  /
 |       /         C C  C   C                   /

[...]

Density initialized from wave functions
  /        |           C   C                      |
 *         |        CC       CC                   |
 |         |  C   C  C C   CC   CC                |
 |         .--------C------C-----C----------------.
 |        /       C     C     C                  /
 |       /         C C  C   C                   /

[...]

Density initialized from wave functions
  /        |           C   C                      |
 *         |        CC       CC                   |
 |         |  C   C  C C   CC   CC                |
 |         .---------C-----C-----C----------------.
 |        /       C     C     C                  /
 |       /         C C  C   C                   /

[...]

Density initialized from wave functions
  /        |           C   C                      |
 *         |        CC       CC                   |
 |         |  C   C  C C   CC   CC                |
 |         .---------C-----C-----C----------------.
 |        /       C     C     C                  /
 |       /         C C  C   C                   /

[...]

Density initialized from wave functions
  /        |           C   C                      |
 *         |        CC       CC                   |
 |         |  C   C  C C   CC    C                |
 |         .---------C-----C----CC----------------.
 |        /       C     C     C                  /
 |       /         C C  C   C                   /

[...]

Density initialized from wave functions
  /        |           C   C                      |
 *         |        CC       CC                   |
 |         |  C   C  C C   CC    C                |
 |         .---------C-----C----C-----------------.
 |        /       C     C     C                  /
 |       /         C C  C   C                   /

[...]

Density initialized from wave functions
  /        |           C   C                      |
 *         |        CC       CC                   |
 |         |  C   C  C C   CC    C                |
 |         .---------C-----C----C-----------------.
 |        /       C     C     C                  /
 |       /         C C  C   C                   /

[...]

Density initialized from wave functions
  /        |           C   C                      |
 *         |        CC       CC                   |
 |         |  C   C    C   CC    C                |
 |         .---------C-----C----C-----------------.
 |        /       C     C     C                  /
 |       /         C C  C   C                   /

[...]

System changes: positions

Initializing position-dependent things.

Density initialized from wave functions
  /        |           C   C                      |
 *         |        CC       CC                   |
 |         |  C   C    C   CC    C                |
 |         .---------C-----C----C-----------------.
 |        /       C     C     C                  /
 |       /         C C  C   C                   /

Positions:
   0 C     10.607999    8.005837    4.558929
   1 C      8.306973    8.776272    4.809734
   2 C      9.255105    9.931450    4.545293
   3 C      7.922203    5.451594    4.913492
   4 C     10.302797    5.622156    4.618904
   5 C      9.195171    7.688403    4.851963
   6 C      8.464648    4.094838    4.696338
   7 C      7.465986    3.099683    4.674261
   8 C      9.893827    4.292304    4.412682
   9 C      6.264418    3.621874    4.865407
  10 C     10.580018    9.407059    4.385741
  11 C     11.185451    6.722593    4.420233
  12 C      9.024173    6.304122    4.904387
  13 C      5.602806    9.200831    4.883966
  14 C      7.567434   11.851278    4.444045
  15 C      6.522596    5.822460    4.996870
  16 C      6.901787    8.487106    4.892609
  17 C      5.565854    4.732648    5.005217
  18 C      5.401776   10.559402    4.750418
  19 C      8.655983   11.188594    4.439536
  20 C      6.287791   11.470518    4.574172
  21 C      4.864070    7.897324    5.004407
  22 C      3.673514    7.267772    5.120059
  23 C      6.204251    7.210101    4.986683

Unit cell:
           periodic     x           y           z      points  spacing
  1. axis:    yes   16.000000    0.000000    0.000000    80     0.2000
  2. axis:    yes    0.000000   16.000000    0.000000    80     0.2000
  3. axis:    yes    0.000000    0.000000   10.000000    48     0.2083

Effective grid spacing dv^(1/3) = 0.2027

                     log10-error:    total        iterations:
           time      wfs    density  energy       fermi  poisson
iter:   1  17:19:21          +inf  -180.403038    2      4
iter:   2  17:19:21         -2.75  -180.400911    2      1
iter:   3  17:19:22         -3.08  -180.400618    2      1
iter:   4  17:19:22         -3.23  -180.400602    2      1
iter:   5  17:19:23         -3.35  -180.400388    2      1
iter:   6  17:19:23         -3.49  -180.400203    2      1
iter:   7  17:19:24         -3.60  -180.400189    2      1
iter:   8  17:19:24         -3.69  -180.400106    2      1
iter:   9  17:19:25         -4.03  -180.400213    2      1

Converged after 9 iterations.

Dipole moment: (0.361606, 0.560051, 0.046886) |e|*Ang

Energy contributions relative to reference atoms: (reference = -24663.074771)

Kinetic:       +114.104355
Potential:     -121.061776
External:        +0.000000
XC:            -176.274262
Entropy (-ST):   -0.315850
Local:           +2.989396
Free energy:   -180.558138
Extrapolated:  -180.400213

Fermi level: -4.58634

 Band  Eigenvalues  Occupancy
    0    -23.35629    2.00000
    1    -22.61646    2.00000
    2    -22.23620    2.00000
    3    -21.20525    2.00000
    4    -20.84740    2.00000
    5    -19.91201    2.00000
    6    -19.54707    2.00000
    7    -19.24093    2.00000
    8    -18.61054    2.00000
    9    -17.99514    2.00000
   10    -17.63458    2.00000
   11    -17.30047    2.00000
   12    -16.65431    2.00000
   13    -16.07036    2.00000
   14    -15.54234    2.00000
   15    -14.84346    2.00000
   16    -14.62055    2.00000
   17    -13.70456    2.00000
   18    -13.39967    2.00000
   19    -12.98120    2.00000
   20    -12.68813    2.00000
   21    -11.83867    2.00000
   22    -11.47347    2.00000
   23    -11.26885    2.00000
   24    -10.93583    2.00000
   25    -10.85010    2.00000
   26    -10.52283    2.00000
   27    -10.23742    2.00000
   28    -10.00638    2.00000
   29     -9.85294    2.00000
   30     -9.77544    2.00000
   31     -9.34843    2.00000
   32     -9.21167    2.00000
   33     -8.96643    2.00000
   34     -8.53075    2.00000
   35     -8.51176    2.00000
   36     -7.43639    2.00000
   37     -7.27114    2.00000
   38     -7.06670    2.00000
   39     -7.02107    2.00000
   40     -6.18831    2.00000
   41     -6.15263    2.00000
   42     -5.87346    1.99999
   43     -5.78725    1.99999
   44     -5.56477    1.99989
   45     -5.25260    1.99745
   46     -4.95218    1.94975
   47     -4.65546    1.33249
   48     -4.50718    0.62366
   49     -4.28839    0.09673
   50     -3.50812    0.00004
   51     -3.37558    0.00001
   52     -3.27450    0.00000
   53     -3.02834    0.00000
   54     -2.75895    0.00000
   55     -2.33753    0.00000
   56     -2.11393    0.00000
   57     -0.73533    0.00000
   58     -0.57355    0.00000
   59      0.09146    0.00000
[...]
   83      8.79435    0.00000
   84      8.82724    0.00000
   85      8.99704    0.00000
   86      9.21994    0.00000
   87      9.33671    0.00000
   88      9.40097    0.00000
   89      9.42987    0.00000
   90      9.74838    0.00000
   91      9.79075    0.00000
   92      9.82349    0.00000
   93      9.99709    0.00000
   94     10.04639    0.00000
   95     10.12074    0.00000
   96     10.23898    0.00000
   97     10.32652    0.00000

Forces in eV/Ang:
  0 C    -0.00106   -0.00661   -0.00201
  1 C    -0.02723   -0.01793   -0.00797
  2 C    -0.02378   -0.07521    0.00061
  3 C    -0.01410   -0.04083    0.02522
  4 C    -0.01037   -0.07482   -0.01426
  5 C    -0.02864   -0.04951   -0.03699
  6 C    -0.01491    0.00020   -0.00999
  7 C     0.00295   -0.01255    0.01679
  8 C     0.02309    0.03496    0.00998
  9 C     0.01147    0.05725   -0.00551
 10 C    -0.00388    0.00457   -0.02743
 11 C     0.03092    0.05221   -0.00004
 12 C    -0.01717    0.06461    0.03490
 13 C    -0.03114   -0.03021    0.00502
 14 C     0.05650   -0.02589    0.01143
 15 C     0.04423   -0.00332   -0.00533
 16 C     0.01434   -0.03266    0.01785
 17 C     0.01325    0.05551   -0.02085
 18 C    -0.00188    0.05059   -0.00041
 19 C    -0.05040   -0.00498   -0.00000
 20 C    -0.07051   -0.03100    0.01644
 21 C     0.03859    0.04362   -0.00037
 22 C     0.03441   -0.03170   -0.05508
 23 C     0.02218   -0.00016    0.00181