User:   esb@s65n71.grendel.cscaa.dk
Date:   Wed Nov  8 17:09:52 2017
Arch:   x86_64
Pid:    57259
Python: 2.7.13
gpaw:   /home/esb/DFT/gpaw_git/gpaw
_gpaw:  /home/esb/DFT/gpaw_git/build/bin.linux-x86_64-2.7/gpaw-python
ase:    /home/esb/DFT/ase_git/ase (version 3.15.0b1)
numpy:  /comm/swstack/core/python/2.7.13/lib/python2.7/site-packages/numpy (version 1.13.3)
scipy:  /comm/swstack/core/python/2.7.13/lib/python2.7/site-packages/scipy (version 0.19.1)
units:  Angstrom and eV
cores:  16
Extra parameters: {'blacs': True}

Input parameters:
  basis: dzp
  gpts: [80 80 48]
  kpts: [1 1 1]
  maxiter: 99
  mixer: {backend: pulay,
          beta: 0.05,
          method: separate,
          nmaxold: 5,
          weight: 75}
  mode: lcao
  nbands: -50
  occupations: {name: fermi-dirac,
                width: 0.1}
  poissonsolver: {eps: 1e-07,
                  name: fd,
                  nn: 3,
                  relax: GS}
  xc: PBE

System changes: positions, numbers, cell, pbc, initial_charges, initial_magmoms

Initialize ...

C-setup:
  name: Carbon
  id: 4aa54d4b901d75f77cc0ea3eec22967b
  Z: 6
  valence: 4
  core: 2
  charge: 0.0
  file: /home/esb/DFT/gpaw-setups-0.8.7929/C.PBE.gz
  cutoffs: 0.64(comp), 1.14(filt), 1.14(core), lmax=2
  valence states:
                energy  radius
    2s(2.00)   -13.751   0.635
    2p(2.00)    -5.284   0.635
    *s          13.461   0.635
    *p          21.927   0.635
    *d           0.000   0.635

  LCAO basis set for C:
    Name: dzp
    File: /home/esb/DFT/gpaw-setups-0.8.7929/C.dzp.basis.gz
    Number of radial functions: 5
    Number of spherical harmonics: 13
      l=0, rc=5.5469 Bohr: 2s-sz confined orbital
      l=1, rc=6.6719 Bohr: 2p-sz confined orbital
      l=0, rc=3.0312 Bohr: 2s-dz split-valence wave
      l=1, rc=3.7500 Bohr: 2p-dz split-valence wave
      l=2, rc=6.6719 Bohr: d-type Gaussian polarization

Reference energy: -24663.074771

Spin-paired calculation

Occupation numbers:
  Fermi-Dirac: width=0.1000 eV

Convergence criteria:
  Maximum total energy change: 0.0005 eV / electron
  Maximum integral of absolute density change: 0.0001 electrons
  Maximum integral of absolute eigenstate change: 4e-08 eV^2
  Maximum number of iterations: 99

Symmetries present (total): 1

  ( 1  0  0)
  ( 0  1  0)
  ( 0  0  1)

1 k-point (Gamma)
1 k-point in the irreducible part of the Brillouin zone
       k-points in crystal coordinates                weights
   0:     0.00000000    0.00000000    0.00000000          1/1

Wave functions: LCAO
  Diagonalizer: Serial LAPACK
  Atomic Correction: dense with blas
  Datatype: float
  Eigensolver: None

LCAO using direct dense diagonalizer

Densities:
  Coarse grid: 80*80*48 grid
  Fine grid: 160*160*96 grid
  Total Charge: 0.000000

Density mixing:
  Method: separate
  Backend: pulay
  Linear mixing parameter: 0.05
  Mixing with 5 old densities
  Damping of long wave oscillations: 75

Hamiltonian:
  XC and Coulomb potentials evaluated on a 160*160*96 grid
  Using the PBE Exchange-Correlation functional
  Interpolation: tri-quintic (5. degree polynomial)
  Poisson solver: Gauss-Seidel solver with 6 multi-grid levels
    Coarsest grid: 5 x 5 x 3 points
    Stencil: 6*3+1=19 point O(h^6) finite-difference Laplacian
    Max iterations: 1000
    Tolerance: 1.000000e-07

Total number of cores used: 16
Domain decomposition: 2 x 4 x 2

Number of atoms: 24
Number of atomic orbitals: 312
Number of bands in calculation: 98
Bands to converge: occupied states only
Number of valence electrons: 96

... initialized

Initializing position-dependent things.

Density initialized from atomic densities
   /       |      C  C                            |
  /        |     C     C  C                       |
 *         |               C   C  C               |
 |         |    CC   C   C       C                |
 |         .---C-----C---C-C---C-C----------------.
 |        /     C  C  CC  C                      /

Positions:
   0 C     10.747157    6.005169    5.043671
   1 C     11.269447    7.134263    4.957308
   2 C     11.113106    8.505769    4.934269
   3 C     10.978126    9.956465    4.854680
   4 C      9.289009    3.933811    5.174407
   5 C      9.501709    5.328032    5.187972
   6 C      9.873213    9.080310    5.151590
   7 C      7.622854    9.807095    5.802140
   8 C      6.375922    9.789677    5.940044
   9 C      7.778894    7.476540    5.450777
  10 C      8.217251    6.019402    5.321390
  11 C      8.496992    8.748068    5.468537
  12 C      5.188180   11.327063    5.594650
  13 C      6.580736    6.952233    5.125670
  14 C      3.612157    9.312026    4.607643
  15 C      4.595847    5.718686    4.542000
  16 C      7.177607    4.925782    5.176048
  17 C      7.946914    3.766529    5.195508
  18 C      3.905498   11.834828    5.423931
  19 C      5.929668    5.633895    4.937803
  20 C      3.662129   10.546018    4.960730
  21 C      4.457848    8.192534    4.651800
  22 C      5.961055    8.199529    5.034877
  23 C      4.058217    6.864453    4.413628

Unit cell:
           periodic     x           y           z      points  spacing
  1. axis:    yes   16.000000    0.000000    0.000000    80     0.2000
  2. axis:    yes    0.000000   16.000000    0.000000    80     0.2000
  3. axis:    yes    0.000000    0.000000   10.000000    48     0.2083

Effective grid spacing dv^(1/3) = 0.2027

                     log10-error:    total        iterations:
           time      wfs    density  energy       fermi  poisson
iter:   1  17:09:54          +inf  -177.679167    3      6
iter:   2  17:09:55         -0.90  -176.655385    4      3
iter:   3  17:09:56         -0.93  -174.315928    32     3
iter:   4  17:09:56         -1.11  -173.794593    4      3
iter:   5  17:09:57         -1.18  -173.493150    35     4
iter:   6  17:09:58         -1.48  -173.307402    3      3
iter:   7  17:09:59         -1.64  -173.288302    3      3
iter:   8  17:09:59         -1.77  -173.269654    3      2
iter:   9  17:10:00         -1.85  -173.250396    4      2
iter:  10  17:10:00         -2.00  -173.237292    4      3
iter:  11  17:10:01         -2.22  -173.233369    4      2
iter:  12  17:10:02         -2.48  -173.227950    3      2
iter:  13  17:10:02         -2.66  -173.226200    3      2
iter:  14  17:10:03         -2.79  -173.240253    3      1
iter:  15  17:10:04         -2.91  -173.224494    3      2
iter:  16  17:10:04         -3.17  -173.217535    3      1
iter:  17  17:10:05         -3.28  -173.224195    3      1
iter:  18  17:10:05         -3.45  -173.221047    2      1
iter:  19  17:10:06         -3.55  -173.220770    2      1
iter:  20  17:10:06         -3.67  -173.225408    2      1
iter:  21  17:10:07         -3.92  -173.222307    2      1
iter:  22  17:10:07         -3.99  -173.221135    2      1
iter:  23  17:10:08         -4.11  -173.222761    2      1

Converged after 23 iterations.

Dipole moment: (-0.251309, -0.414243, 0.013785) |e|*Ang

Energy contributions relative to reference atoms: (reference = -24663.074771)

Kinetic:       +111.611848
Potential:     -114.839705
External:        +0.000000
XC:            -172.750305
Entropy (-ST):   -0.353582
Local:           +2.932193
Free energy:   -173.399552
Extrapolated:  -173.222761

Fermi level: -4.59948

 Band  Eigenvalues  Occupancy
    0    -23.60247    2.00000
    1    -22.90327    2.00000
    2    -21.90701    2.00000
    3    -21.62012    2.00000
    4    -21.23017    2.00000
    5    -20.43807    2.00000
    6    -19.77116    2.00000
    7    -19.45981    2.00000
    8    -18.55115    2.00000
    9    -18.34783    2.00000
   10    -17.46274    2.00000
   11    -17.11978    2.00000
   12    -16.77806    2.00000
   13    -15.47038    2.00000
   14    -14.94629    2.00000
   15    -14.45863    2.00000
   16    -14.13901    2.00000
   17    -13.50149    2.00000
   18    -13.08002    2.00000
   19    -12.83738    2.00000
   20    -12.42504    2.00000
   21    -12.05897    2.00000
   22    -11.61831    2.00000
   23    -11.01625    2.00000
   24    -10.89147    2.00000
   25    -10.55373    2.00000
   26    -10.17908    2.00000
   27     -9.97688    2.00000
   28     -9.61997    2.00000
   29     -9.50726    2.00000
   30     -9.16891    2.00000
   31     -9.05640    2.00000
   32     -8.76636    2.00000
   33     -8.67043    2.00000
   34     -8.57069    2.00000
   35     -7.80300    2.00000
   36     -7.68824    2.00000
   37     -7.48566    2.00000
   38     -7.05539    2.00000
   39     -6.95548    2.00000
   40     -6.68366    2.00000
   41     -6.25552    2.00000
   42     -5.77124    1.99998
   43     -5.68656    1.99996
   44     -5.60430    1.99991
   45     -4.94059    1.93610
   46     -4.84671    1.84436
   47     -4.66986    1.33806
   48     -4.57383    0.87247
   49     -4.03468    0.00703
   50     -3.87843    0.00148
   51     -3.79713    0.00066
   52     -2.96288    0.00000
   53     -2.45466    0.00000
   54     -2.17468    0.00000
   55     -1.87085    0.00000
   56     -1.60037    0.00000
   57     -0.76389    0.00000
   58     -0.63264    0.00000
   59     -0.11135    0.00000
[...]
   83      8.64757    0.00000
   84      8.74029    0.00000
   85      8.84127    0.00000
   86      9.00006    0.00000
   87      9.18116    0.00000
   88      9.21400    0.00000
   89      9.28806    0.00000
   90      9.44191    0.00000
   91      9.51619    0.00000
   92      9.58426    0.00000
   93      9.87523    0.00000
   94      9.97173    0.00000
   95     10.23838    0.00000
   96     10.35415    0.00000
   97     10.37649    0.00000

Forces in eV/Ang:
  0 C    -0.98220   -0.53093    0.16756
  1 C     0.33304    0.64999   -0.00030
  2 C     0.59512   -0.02758   -0.18066
  3 C     0.00235   -0.62207    0.00860
  4 C    -4.25378   -1.77402    0.21135
  5 C     2.25891    1.09066   -0.08545
  6 C    -1.18142    0.20005    0.48486
  7 C     4.92177    0.40470   -0.44355
  8 C    -6.14473   -0.89864   -2.25483
  9 C     8.42970   -5.48059   -0.02251
 10 C     3.48063    0.35332    0.60414
 11 C    -0.72400    0.27572    0.65426
 12 C    -0.93517   -1.83046   -0.12940
 13 C    -7.30632    6.60307   -0.22112
 14 C     0.71240   -0.05589    0.12843
 15 C     0.17339   -0.32529    0.06178
 16 C    -1.05359    0.73913   -0.16110
 17 C     3.11852   -1.11707   -0.33016
 18 C     1.66962   -0.17526    0.59033
 19 C     2.80801   -0.27155    0.67201
 20 C     0.90452   -0.29093    0.12487
 21 C    -0.76401    0.66500   -0.24691
 22 C    -6.42279    2.33498    0.43918
 23 C     0.29836    0.03794   -0.03016

System changes: positions

[...]

Density initialized from wave functions
   /       |      C  C                            |
  /        |     C     C  C                       |
 *         |               C   C  C               |
 |         |    CC   C   C       C                |
 |         .---C---------C--C--C-C----------------.
 |        /     C  C  CC  C                      /

[...]

Density initialized from wave functions
   /       |      C  C                            |
  /        |     C     C  C                       |
 *         |               C   C  C               |
 |         |    CC   C   C       C                |
 |         .---C---------C--C--C-C----------------.
 |        /     C  C  CC  C                      /

[...]

Density initialized from wave functions
   /       |      C  C                            |
  /        |     C     C  C                       |
 *         |               C   C  C               |
 |         |    CC  CC   C       C                |
 |         .---C---------C--C--C-C----------------.
 |        /     C  C  CC  C                      /

[...]

Density initialized from wave functions
   /       |      C  C                            |
  /        |     C    C   C                       |
 *         |               C   C  C               |
 |         |    CC  CC   C       C                |
 |         .---C---------C--C--C-C----------------.
 |        /     C  C  CC  C                      /

[...]

Density initialized from wave functions
   /       |      C  C                            |
  /        |     C    C   C                       |
 *         |               C   C  C               |
 |         |    CC  CC   C       C                |
 |         .---C---C-----C--C--C-C----------------.
 |        /     C     CC  C                      /

[...]

Density initialized from wave functions
   /       |      C C                             |
  /        |     C    C   C                       |
 *         |               C   C  C               |
 |         |    CC  CC   C       C                |
 |         .---C---C-----C--C--C-C----------------.
 |        /     C     CC  C                      /

[...]

Density initialized from wave functions
   /       |       C                              |
  /        |     C  C C   C                       |
 *         |               C   C  C               |
 |         |   C C  CC   C       C                |
 |         .---C---C-----C--C--C-C----------------.
 |        /     C     CC  C                      /

[...]

Density initialized from wave functions
   /       |       C                              |
  /        |     C  C C   C                       |
 *         |               C   C  C               |
 |         |   C C  CC   C       C                |
 |         .---C---C-----C--C--C-C----------------.
 |        /     C     CC  C                      /

[...]

Density initialized from wave functions
   /       |       C                              |
  /        |     C  C C   C                       |
 *         |               C   C  C               |
 |         |   CC   CC   C       C                |
 |         .---C----C----C--C--C-C----------------.
 |        /     C     CC  C                      /

[...]

Density initialized from wave functions
   /       |       C                              |
  /        |     C  C C   C                       |
 *         |               C   C  C               |
 |         |   CC   CC   C       C                |
 |         .---C----C----C--C--C-C----------------.
 |        /     C     CC  C                      /

[...]

Density initialized from wave functions
   /       |       C                              |
  /        |     C  C C   C                       |
 *         |               C   C  C               |
 |         |   CC   CC   C       C                |
 |         .---C----C----C--C--C-C----------------.
 |        /     C     C   C                      /
 |       /             C                        /

[...]

Density initialized from wave functions
   /       |       C                              |
  /        |     C  C C   C                       |
 *         |               C   C  C               |
 |         |   CC   CC   C       C                |
 |         .---C----C----C--C--C-C----------------.
 |        /     C     C   C                      /
 |       /             C                        /

[...]

Density initialized from wave functions
   /       |       C                              |
  /        |     C  C C   C                       |
 *         |               C   C  C               |
 |         |   CC   CC   C       C                |
 |         .---C----C----C--C--C------------------.
 |        /     C     C   C                      /
 |       /             C                        /

[...]

Density initialized from wave functions
   /       |       C                              |
  /        |     C  C C   C                       |
 *         |               C   C  C               |
 |         |   CC   CC   C       C                |
 |         .---C----C----C--C--C------------------.
 |        /     C     C   C                      /
 |       /             C                        /

[...]

Density initialized from wave functions
   /       |       C                              |
  /        |     C  C     C                       |
 *         |   C      C    C   C  C               |
 |         |    C   CC   C       C                |
 |         .---C----C----C--C--C------------------.
 |        /     C     C   C                      /
 |       /             C                        /

[...]

Density initialized from wave functions
   /       |       C                              |
  /        |     C  C     C                       |
 *         |   C      C    C   C  C               |
 |         |    C   CC   C       C                |
 |         .---C----C----C--C--C------------------.
 |        /     C     C   C                      /
 |       /             C                        /

[...]

Density initialized from wave functions
   /       |       C                              |
  /        |    C   C     C                       |
 *         |   C      C    C   C CC               |
 |         |    C   CC   C       C                |
 |         .---C----C----C--C--C------------------.
 |        /     C     C   C                      /
 |       /             C                        /

[...]

Density initialized from wave functions
   /       |       C                              |
  /        |    C   C     C                       |
 *         |   C      C    C   C CC               |
 |         |    C   CC   C       C                |
 |         .---C----C----C--C--C------------------.
 |        /     C     C   C                      /
 |       /             C                        /

[...]

Density initialized from wave functions
   /       |       C                              |
  /        |    C   C                             |
 *         |   C      C   CC   C CC               |
 |         |    C   CC   C       C                |
 |         .---C----C----C--C--C------------------.
 |        /     C     C   C                      /
 |       /             C                        /

[...]

Density initialized from wave functions
   /       |       C                              |
  /        |    C   C                             |
 *         |   C      C   CC   C CC               |
 |         |    C   CC   C       C                |
 |         .---C---C-----C-----C------------------.
 |        /     C     C   C C                    /
 |       /             C                        /

[...]

Density initialized from wave functions
   /       |       C                              |
  /        |    C   C                             |
 *         |   C      C   CC   C CC               |
 |         |    C   CC   C       C                |
 |         .---C---C-----C-----C------------------.
 |        /     C     C     C                    /
 |       /             C  C                     /

[...]

System changes: positions

Initializing position-dependent things.

Density initialized from wave functions
   /       |       C                              |
  /        |    C   C                             |
 *         |   C      C   CC   C CC               |
 |         |    C   CC   C       C                |
 |         .---C---C-----C-----C------------------.
 |        /     C     C     C                    /
 |       /             C  C                     /

Positions:
   0 C     10.890072    5.885202    5.273777
   1 C     11.276332    7.093656    5.330235
   2 C     11.103945    8.444450    5.285076
   3 C     11.059515    9.894741    5.215367
   4 C      9.159651    3.878566    5.053096
   5 C      9.656394    5.239017    5.169804
   6 C      9.864162    9.123213    5.221894
   7 C      7.542893    9.869872    5.235887
   8 C      6.137732    9.716225    5.199606
   9 C      7.927405    7.422194    5.153936
  10 C      8.404390    6.054235    5.126660
  11 C      8.440453    8.796738    5.204355
  12 C      5.201002   10.769288    5.312406
  13 C      6.477698    7.297524    5.037187
  14 C      3.317535    9.297087    4.984931
  15 C      4.691221    5.820668    4.772904
  16 C      7.284646    5.130228    4.975203
  17 C      7.885088    3.817353    4.919322
  18 C      4.293041   11.772508    5.456690
  19 C      6.079965    5.882010    4.914482
  20 C      3.655056   10.526712    5.205723
  21 C      4.085121    8.132894    4.915837
  22 C      5.581144    8.362841    5.044109
  23 C      3.836267    6.758679    4.761986

Unit cell:
           periodic     x           y           z      points  spacing
  1. axis:    yes   16.000000    0.000000    0.000000    80     0.2000
  2. axis:    yes    0.000000   16.000000    0.000000    80     0.2000
  3. axis:    yes    0.000000    0.000000   10.000000    48     0.2083

Effective grid spacing dv^(1/3) = 0.2027

                     log10-error:    total        iterations:
           time      wfs    density  energy       fermi  poisson
iter:   1  17:16:52          +inf  -182.227803    2      4
iter:   2  17:16:52         -3.21  -182.227284    2      1
iter:   3  17:16:53         -3.30  -182.226703    2      1
iter:   4  17:16:53         -3.53  -182.226923    2      1
iter:   5  17:16:54         -3.61  -182.226867    2      1
iter:   6  17:16:54         -3.76  -182.226539    2      1
iter:   7  17:16:55         -3.80  -182.227088    2      1
iter:   8  17:16:55         -4.04  -182.227018    2      1

Converged after 8 iterations.

Dipole moment: (-0.547362, -0.263335, -0.015445) |e|*Ang

Energy contributions relative to reference atoms: (reference = -24663.074771)

Kinetic:       +113.058824
Potential:     -119.822998
External:        +0.000000
XC:            -178.280924
Entropy (-ST):   -0.329258
Local:           +2.982710
Free energy:   -182.391646
Extrapolated:  -182.227018

Fermi level: -4.51246

 Band  Eigenvalues  Occupancy
    0    -23.57306    2.00000
    1    -22.84038    2.00000
    2    -22.59178    2.00000
    3    -21.73318    2.00000
    4    -20.89166    2.00000
    5    -20.49184    2.00000
    6    -19.65380    2.00000
    7    -19.38638    2.00000
    8    -19.00975    2.00000
    9    -18.05945    2.00000
   10    -17.51115    2.00000
   11    -17.30957    2.00000
   12    -16.48758    2.00000
   13    -15.61089    2.00000
   14    -15.29394    2.00000
   15    -15.19355    2.00000
   16    -14.03909    2.00000
   17    -13.63490    2.00000
   18    -13.01074    2.00000
   19    -12.80582    2.00000
   20    -12.51304    2.00000
   21    -12.20168    2.00000
   22    -11.38508    2.00000
   23    -10.92126    2.00000
   24    -10.80238    2.00000
   25    -10.75822    2.00000
   26    -10.29137    2.00000
   27    -10.18360    2.00000
   28     -9.88439    2.00000
   29     -9.77944    2.00000
   30     -9.74028    2.00000
   31     -9.55367    2.00000
   32     -9.17660    2.00000
   33     -9.11792    2.00000
   34     -8.72271    2.00000
   35     -8.56477    2.00000
   36     -7.84124    2.00000
   37     -7.36664    2.00000
   38     -7.08752    2.00000
   39     -6.78756    2.00000
   40     -6.61555    2.00000
   41     -6.58020    2.00000
   42     -6.22569    2.00000
   43     -5.91181    2.00000
   44     -5.42265    1.99978
   45     -4.95625    1.97663
   46     -4.78016    1.87131
   47     -4.57378    1.29733
   48     -4.48261    0.85184
   49     -3.84657    0.00256
   50     -3.68569    0.00051
   51     -3.41312    0.00003
   52     -2.91474    0.00000
   53     -2.28389    0.00000
   54     -1.86282    0.00000
   55     -1.67254    0.00000
   56     -1.54676    0.00000
   57     -0.16749    0.00000
   58      0.61231    0.00000
   59      0.99290    0.00000
[...]
   83      8.87257    0.00000
   84      8.95630    0.00000
   85      8.99056    0.00000
   86      9.13555    0.00000
   87      9.15926    0.00000
   88      9.35281    0.00000
   89      9.36365    0.00000
   90      9.64080    0.00000
   91      9.75128    0.00000
   92      9.89543    0.00000
   93     10.17277    0.00000
   94     10.21436    0.00000
   95     10.33132    0.00000
   96     10.35799    0.00000
   97     10.52251    0.00000

Forces in eV/Ang:
  0 C    -0.02432    0.01951   -0.00045
  1 C    -0.00025   -0.00883   -0.00287
  2 C    -0.00637   -0.00507   -0.02715
  3 C    -0.05296    0.00207   -0.00625
  4 C     0.00169    0.06110    0.00143
  5 C     0.00533    0.00045   -0.01328
  6 C    -0.06330   -0.02667    0.03847
  7 C     0.03173    0.02849    0.04398
  8 C    -0.01339    0.05568   -0.03821
  9 C     0.02451   -0.05208   -0.02840
 10 C     0.04694    0.02823   -0.03574
 11 C    -0.05866   -0.01546    0.03862
 12 C     0.01238   -0.00787    0.00886
 13 C    -0.02948   -0.01866    0.00594
 14 C    -0.01675    0.00636    0.02086
 15 C     0.01838   -0.03268    0.03816
 16 C     0.04258    0.00927   -0.00679
 17 C     0.03748    0.00032    0.06316
 18 C     0.08556    0.02858   -0.02479
 19 C     0.03089   -0.05279   -0.04474
 20 C    -0.05391    0.02497   -0.01560
 21 C    -0.00641   -0.00405   -0.00752
 22 C     0.00139    0.01955    0.02352
 23 C    -0.04268   -0.01050    0.00133