User:   esb@s65n33.grendel.cscaa.dk
Date:   Thu Nov  9 11:33:19 2017
Arch:   x86_64
Pid:    76130
Python: 2.7.13
gpaw:   /home/esb/DFT/gpaw_git/gpaw
_gpaw:  /home/esb/DFT/gpaw_git/build/bin.linux-x86_64-2.7/gpaw-python
ase:    /home/esb/DFT/ase_git/ase (version 3.15.0b1)
numpy:  /comm/swstack/core/python/2.7.13/lib/python2.7/site-packages/numpy (version 1.13.3)
scipy:  /comm/swstack/core/python/2.7.13/lib/python2.7/site-packages/scipy (version 0.19.1)
units:  Angstrom and eV
cores:  16
Extra parameters: {'blacs': True}

Input parameters:
  basis: dzp
  gpts: [80 80 48]
  kpts: [1 1 1]
  maxiter: 99
  mixer: {backend: pulay,
          beta: 0.05,
          method: separate,
          nmaxold: 5,
          weight: 75}
  mode: lcao
  nbands: -50
  occupations: {name: fermi-dirac,
                width: 0.1}
  poissonsolver: {eps: 1e-07,
                  name: fd,
                  nn: 3,
                  relax: GS}
  xc: PBE

System changes: positions, numbers, cell, pbc, initial_charges, initial_magmoms

Initialize ...

C-setup:
  name: Carbon
  id: 4aa54d4b901d75f77cc0ea3eec22967b
  Z: 6
  valence: 4
  core: 2
  charge: 0.0
  file: /home/esb/DFT/gpaw-setups-0.8.7929/C.PBE.gz
  cutoffs: 0.64(comp), 1.14(filt), 1.14(core), lmax=2
  valence states:
                energy  radius
    2s(2.00)   -13.751   0.635
    2p(2.00)    -5.284   0.635
    *s          13.461   0.635
    *p          21.927   0.635
    *d           0.000   0.635

  LCAO basis set for C:
    Name: dzp
    File: /home/esb/DFT/gpaw-setups-0.8.7929/C.dzp.basis.gz
    Number of radial functions: 5
    Number of spherical harmonics: 13
      l=0, rc=5.5469 Bohr: 2s-sz confined orbital
      l=1, rc=6.6719 Bohr: 2p-sz confined orbital
      l=0, rc=3.0312 Bohr: 2s-dz split-valence wave
      l=1, rc=3.7500 Bohr: 2p-dz split-valence wave
      l=2, rc=6.6719 Bohr: d-type Gaussian polarization

Reference energy: -24663.074771

Spin-paired calculation

Occupation numbers:
  Fermi-Dirac: width=0.1000 eV

Convergence criteria:
  Maximum total energy change: 0.0005 eV / electron
  Maximum integral of absolute density change: 0.0001 electrons
  Maximum integral of absolute eigenstate change: 4e-08 eV^2
  Maximum number of iterations: 99

Symmetries present (total): 1

  ( 1  0  0)
  ( 0  1  0)
  ( 0  0  1)

1 k-point (Gamma)
1 k-point in the irreducible part of the Brillouin zone
       k-points in crystal coordinates                weights
   0:     0.00000000    0.00000000    0.00000000          1/1

Wave functions: LCAO
  Diagonalizer: Serial LAPACK
  Atomic Correction: dense with blas
  Datatype: float
  Eigensolver: None

LCAO using direct dense diagonalizer

Densities:
  Coarse grid: 80*80*48 grid
  Fine grid: 160*160*96 grid
  Total Charge: 0.000000

Density mixing:
  Method: separate
  Backend: pulay
  Linear mixing parameter: 0.05
  Mixing with 5 old densities
  Damping of long wave oscillations: 75

Hamiltonian:
  XC and Coulomb potentials evaluated on a 160*160*96 grid
  Using the PBE Exchange-Correlation functional
  Interpolation: tri-quintic (5. degree polynomial)
  Poisson solver: Gauss-Seidel solver with 6 multi-grid levels
    Coarsest grid: 5 x 5 x 3 points
    Stencil: 6*3+1=19 point O(h^6) finite-difference Laplacian
    Max iterations: 1000
    Tolerance: 1.000000e-07

Total number of cores used: 16
Domain decomposition: 2 x 4 x 2

Number of atoms: 24
Number of atomic orbitals: 312
Number of bands in calculation: 98
Bands to converge: occupied states only
Number of valence electrons: 96

... initialized

Initializing position-dependent things.

Density initialized from atomic densities
   /       |          C                           |
  /        |   C  C     C                         |
 *         | C       C    C   C  C                |
 |         |            C   C   C                 |
 |         .---C---C-C-------C--------------------.
 |        /    C    C  C  C                      /
 |       /       C                              /

Positions:
   0 C      5.734965    6.061961    5.476717
   1 C      9.369287    6.023665    5.717151
   2 C      8.023810    6.192012    5.751022
   3 C      6.913151    5.270855    5.515602
   4 C      4.543724    4.118332    5.250547
   5 C      4.391481    5.522692    5.375846
   6 C      5.607596    3.415962    5.249252
   7 C      6.956709    3.831346    5.385978
   8 C      8.304040    3.323138    5.459763
   9 C     10.259485    4.900505    5.692558
  10 C      9.498199    3.715117    5.581164
  11 C     11.196176    5.913831    6.053422
  12 C      5.991744   10.012670    6.296697
  13 C      7.153159    9.476422    6.310743
  14 C      4.696028    9.434889    6.265489
  15 C      7.430763    8.070011    6.240706
  16 C      4.943852    8.023854    6.489085
  17 C      6.190631    7.387407    6.401922
  18 C      8.536587    7.201613    5.862819
  19 C     11.038655    6.785276    5.277637
  20 C     11.080323    8.220092    5.407091
  21 C      9.854505    7.679203    5.669321
  22 C      3.264794    9.445646    5.936889
  23 C      2.914241    8.232495    5.679791

Unit cell:
           periodic     x           y           z      points  spacing
  1. axis:    yes   16.000000    0.000000    0.000000    80     0.2000
  2. axis:    yes    0.000000   16.000000    0.000000    80     0.2000
  3. axis:    yes    0.000000    0.000000   10.000000    48     0.2083

Effective grid spacing dv^(1/3) = 0.2027

                     log10-error:    total        iterations:
           time      wfs    density  energy       fermi  poisson
iter:   1  11:33:21          +inf  -168.222369    3      6
iter:   2  11:33:21         -0.88  -166.904754    4      3
iter:   3  11:33:22         -0.91  -164.126294    33     3
iter:   4  11:33:23         -1.05  -163.438866    3      2
iter:   5  11:33:23         -1.11  -163.632597    33     3
iter:   6  11:33:24         -1.19  -162.867946    3      3
iter:   7  11:33:25         -1.29  -162.762746    3      3
iter:   8  11:33:25         -1.43  -162.424863    3      2
iter:   9  11:33:26         -1.58  -162.433423    4      3
iter:  10  11:33:26         -1.69  -162.383111    3      2
iter:  11  11:33:27         -1.74  -162.274693    3      3
iter:  12  11:33:28         -2.01  -162.278880    3      2
iter:  13  11:33:28         -2.07  -162.261164    3      2
iter:  14  11:33:29         -2.21  -162.260057    3      2
iter:  15  11:33:30         -2.43  -162.256904    3      2
iter:  16  11:33:30         -2.54  -162.254250    3      2
iter:  17  11:33:31         -2.70  -162.255763    3      2
iter:  18  11:33:31         -3.07  -162.258208    2      1
iter:  19  11:33:32         -3.14  -162.260386    2      1
iter:  20  11:33:33         -3.30  -162.255703    2      1
iter:  21  11:33:33         -3.55  -162.252568    2      1
iter:  22  11:33:34         -3.63  -162.250802    2      1
iter:  23  11:33:34         -3.75  -162.250366    2      1
iter:  24  11:33:35         -3.96  -162.250348    2      1
iter:  25  11:33:36         -4.10  -162.250255    2      1

Converged after 25 iterations.

Dipole moment: (0.835409, -0.710418, -0.069096) |e|*Ang

Energy contributions relative to reference atoms: (reference = -24663.074771)

Kinetic:       +181.575171
Potential:     -160.907066
External:        +0.000000
XC:            -185.715431
Entropy (-ST):   -0.365934
Local:           +2.980037
Free energy:   -162.433222
Extrapolated:  -162.250255

Fermi level: -4.27801

 Band  Eigenvalues  Occupancy
    0    -27.88478    2.00000
    1    -24.96759    2.00000
    2    -22.46457    2.00000
    3    -22.21420    2.00000
    4    -21.68880    2.00000
    5    -20.43659    2.00000
    6    -20.26609    2.00000
    7    -19.51912    2.00000
    8    -18.97081    2.00000
    9    -18.44698    2.00000
   10    -18.26954    2.00000
   11    -17.49973    2.00000
   12    -17.26454    2.00000
   13    -16.19778    2.00000
   14    -15.68898    2.00000
   15    -15.04251    2.00000
   16    -14.40286    2.00000
   17    -13.82858    2.00000
   18    -13.63313    2.00000
   19    -13.17550    2.00000
   20    -12.81675    2.00000
   21    -12.55810    2.00000
   22    -12.20136    2.00000
   23    -12.03678    2.00000
   24    -11.55894    2.00000
   25    -11.07587    2.00000
   26    -11.05287    2.00000
   27    -10.72587    2.00000
   28    -10.37244    2.00000
   29     -9.94828    2.00000
   30     -9.51597    2.00000
   31     -8.87718    2.00000
   32     -8.57870    2.00000
   33     -8.03420    2.00000
   34     -7.77368    2.00000
   35     -7.55075    2.00000
   36     -7.42603    2.00000
   37     -7.28038    2.00000
   38     -7.07972    2.00000
   39     -6.94034    2.00000
   40     -6.53561    2.00000
   41     -6.18051    2.00000
   42     -5.63738    2.00000
   43     -5.54892    1.99999
   44     -5.16822    1.99973
   45     -5.04506    1.99907
   46     -4.55502    1.88207
   47     -4.35310    1.35875
   48     -4.16467    0.48705
   49     -4.09025    0.26533
   50     -3.72582    0.00796
   51     -3.19888    0.00004
   52     -2.94099    0.00000
   53     -2.62754    0.00000
   54     -2.44153    0.00000
   55     -1.99605    0.00000
   56     -1.81541    0.00000
   57     -1.45813    0.00000
   58     -1.00076    0.00000
   59     -0.66936    0.00000
[...]
   83      8.59225    0.00000
   84      8.63453    0.00000
   85      8.85158    0.00000
   86      9.02141    0.00000
   87      9.15455    0.00000
   88      9.24071    0.00000
   89      9.32889    0.00000
   90      9.52082    0.00000
   91      9.59924    0.00000
   92      9.63824    0.00000
   93      9.85683    0.00000
   94      9.90837    0.00000
   95     10.13699    0.00000
   96     10.21460    0.00000
   97     10.28334    0.00000

Forces in eV/Ang:
  0 C     0.47109    0.43506    3.50977
  1 C     2.78366  -10.36376   -2.42557
  2 C    -7.34128  -25.09233   -4.58378
  3 C    -0.00275    1.61132    0.01921
  4 C     0.31543    2.88344    0.05603
  5 C     1.03643   -1.03175    0.04466
  6 C     1.25553   -1.36511   -0.17449
  7 C    -0.45258   -0.24090   -0.19372
  8 C    -0.08704    0.06886    0.07321
  9 C    -2.45121   -0.23774    0.55892
 10 C     0.29404   -0.04207    0.33542
 11 C     7.16601  -15.37838    9.48077
 12 C    -0.74225    0.33740    0.29793
 13 C     0.68305   -0.24466   -0.15298
 14 C     0.44810   -1.24320    0.54580
 15 C    -1.02155    4.30835    1.62796
 16 C     0.40073    2.59025   -0.11674
 17 C    -4.74416   -2.34427   -3.25466
 18 C     0.49803   29.01953    4.62213
 19 C     1.95622   13.63439   -7.17456
 20 C     0.32332    1.75814   -1.31024
 21 C    -1.27982    1.17380   -1.80495
 22 C     1.53483    1.30760    0.38252
 23 C    -1.04945   -1.52463   -0.37907

System changes: positions

[...]

Density initialized from wave functions
   /       |          C                           |
  /        |   C  C     C                         |
 *         | C       C    C   C  C                |
 |         |            C   C   C                 |
 |         .---C---C-C-------C--------------------.
 |        /    C    C  C  C                      /
 |       /       C                              /

[...]

Density initialized from wave functions
[...]
 |         |            C   C   C                 |
 |         .---C---C-C-------C--------------------.
 |        /    C    C  C  C                      /
 |       /       C                              /

[...]

Density initialized from wave functions
   /       |          C C                         |
  /        |   C  C     C                         |
 *         | C       C    C   C  C                |
 |         |            C   C   C                 |
 |         .---C---C-C-------C--------------------.
 |        /    C    C  C  C                      /
 |       /       C                              /

[...]

Density initialized from wave functions
   /       |          C C                         |
  /        |   C  C     C                         |
 *         | C      C     C   C  C                |
 |         |             C      C                 |
 |         .---C---C-C------CC--------------------.
 |        /    C    C  C  C                      /
 |       /       C                              /

[...]

Density initialized from wave functions
   /       |          C C                         |
  /        |   C  C     C                         |
 *         | C      C     C   C  C                |
 |         |             C      C                 |
 |         .---C---C-C------CC--------------------.
 |        /    C    C  C  C                      /
 |       /       C                              /

[...]

Density initialized from wave functions
   /       |          C C                         |
  /        |   C  C     C                         |
 *         | C      C     C   C  C                |
 |         |       C     C      C                 |
 |         .---C-----C------CC--------------------.
 |        /    C    C  C  C                      /
 |       /       C                              /

[...]

Density initialized from wave functions
   /       |          C C                         |
  /        |   C  C     C                         |
 *         | C      C     C   C  C                |
 |         |       C     C      C                 |
 |         .---C-----C------CC--------------------.
 |        /    C    C  C  C                      /
 |       /       C                              /

[...]

Density initialized from wave functions
   /       |          C C                         |
  /        |   C  C     C                         |
 *         | C      C     C      C                |
 |         |       C     C    C C                 |
 |         .---C-----C------CC--------------------.
 |        /    C    C  C  C                      /
 |       /       C                              /

[...]

Density initialized from wave functions
   /       |          C C                         |
  /        |   C  C     C                         |
 *         | C      C     C      C                |
 |         |       C     C    C CC                |
 |         .---C-----C------CC--------------------.
 |        /    C    C  C  C                      /
 |       /       C                              /

[...]

Density initialized from wave functions
   /       |      C   C C                         |
  /        |   C  C     C                         |
 *         | C      C     C      C                |
 |         |       C     C    C CC                |
 |         .---C-----C------CC--------------------.
 |        /    C    C  C  C                      /
 |       /       C                              /

[...]

Density initialized from wave functions
   /       |      C   C C                         |
  /        |   C  C     C                         |
 *         | C      C     C      C                |
 |         |       C     C    C  C                |
 |         .---C-----C------CC--------------------.
 |        /    C    C  C  C                      /
 |       /       C                              /

[...]

Density initialized from wave functions
   /       |       C  C C                         |
  /        |   C  C     C                         |
 *         | C      C     C      C                |
 |         |       C     C   C   C                |
 |         .---C-----C------CC--------------------.
 |        /    C    C  C   C                     /
 |       /       C                              /

[...]

Density initialized from wave functions
   /       |       C  C C                         |
  /        |   C  C     C                         |
 *         | C      C     C      C                |
 |         |       C         C   C                |
 |         .---C-----C---C--CC--------------------.
 |        /    C    C  C   C                     /
 |       /       C                              /

[...]

Density initialized from wave functions
   /       |       C  C C                         |
  /        |   C  C     C                         |
 *         | C      C     C      C                |
 |         |       C         C   C                |
 |         .---C-----C--C---CC--------------------.
 |        /    C    C  C   C                     /
 |       /       C                              /

[...]

Density initialized from wave functions
   /       |       C  C C                         |
  /        |   C  C     C                         |
 *         | C      C     C      C                |
 |         |       C         C   C                |
 |         .---C-----C--C---CC--------------------.
 |        /    C    C  C   C                     /
 |       /       C                              /

[...]

Density initialized from wave functions
   /       |       C  C C                         |
  /        |   C  C     C                         |
 *         | C      C     C      C                |
 |         |       C         C   CC               |
 |         .---C-----C--C---CC--------------------.
 |        /    C    C  C   C                     /
 |       /       C                              /

[...]

Density initialized from wave functions
   /       |       C  C C                         |
  /        |   C  C     C                         |
 *         | C      C     C      C                |
 |         |       C         C   CC               |
 |         .---C-----C--C---CC--------------------.
 |        /    C    C  C   C                     /
 |       /       C                              /

[...]

Density initialized from wave functions
   /       |       C  C C                         |
  /        |   C  C     C                         |
 *         | C      C     C      C                |
 |         |       C         C    C               |
 |         .---C-----C--C---CC---C----------------.
 |        /    C    C  C   C                     /
 |       /       C                              /

[...]

Density initialized from wave functions
   /       |      C   C C                         |
  /        |   C  C     C                         |
 *         | C      C     C      C                |
 |         |       C         C    C               |
 |         .---C-----C--C---CC---C----------------.
 |        /    C    C  C   C                     /
 |       /       C                              /

[...]

Density initialized from wave functions
   /       |      C   C C                         |
  /        |   C  C                               |
 *         | C      C  C  C      C                |
 |         |       C         C    C               |
 |         .---C-----C--C---CC---C----------------.
 |        /    C    C  C   C                     /
 |       /       C                              /

[...]

Density initialized from wave functions
   /       |      C   C C                         |
  /        |   C C                                |
 *         | C      C  C  C      C                |
 |         |       C         C    C               |
 |         .---C-----C--C---CC---C----------------.
 |        /    C    C  C   C                     /
 |       /       C                              /

[...]

Density initialized from wave functions
   /       |      C   C C                         |
  /        |   C                                  |
 *         | C   C  C  C  C      C                |
 |         |       C         C    C               |
 |         .---C-----C--C---CC---C----------------.
 |        /    C    C  C   C                     /
 |       /       C                              /

[...]

Density initialized from wave functions
   /       |      C   C C                         |
  /        |   C                                  |
 *         | C   C  C  C  C      C                |
 |         |       C         C    C               |
 |         .---C-----C---C--CC---C----------------.
 |        /    C    C  C   C                     /
 |       /       C                              /

[...]

Density initialized from wave functions
   /       |      C   C C                         |
  /        |   C                                  |
 *         | C   C  C  C  C      C                |
 |         |       C         C    C               |
 |         .---C-----C--C---CC---C----------------.
 |        /    C    C  C   C                     /
 |       /       C                              /

[...]

Density initialized from wave functions
   /       |      C   C C                         |
  /        |   C                                  |
 *         | C   C  C  C  C      C                |
 |         |       C    C    C    C               |
 |         .---C-----C------CC---C----------------.
 |        /    C    C  C   C                     /
 |       /       C                              /

[...]

Density initialized from wave functions
   /       |      C   C C                         |
  /        |   C                                  |
 *         | C   C  C  C  C  C   C                |
 |         |       C    C         C               |
 |         .---C-----C------CC---C----------------.
 |        /    C    C  C   C                     /
 |       /       C                              /

[...]

Density initialized from wave functions
   /       |      C   C C                         |
  /        |   C                                  |
 *         | C   C  C  C  C      C                |
 |         |       C    C    C    C               |
 |         .---C-----C------CC---C----------------.
 |        /    C    C  C   C                     /
 |       /       C                              /

[...]

System changes: positions

Initializing position-dependent things.

Density initialized from wave functions
   /       |      C   C C                         |
  /        |   C                                  |
 *         | C   C  C  C  C  C   C                |
 |         |       C    C         C               |
 |         .---C-----C------CC---C----------------.
 |        /    C    C  C   C                     /
 |       /       C                              /

Positions:
   0 C      5.660391    6.118014    5.642111
   1 C      9.477548    5.943892    5.560173
   2 C      8.060042    6.136295    5.569845
   3 C      6.901597    5.360587    5.526715
   4 C      4.771520    4.083657    5.493517
   5 C      4.461247    5.357711    5.599069
   6 C      5.724377    3.177158    5.399589
   7 C      6.970532    3.874331    5.421779
   8 C      8.328349    3.421773    5.381209
   9 C     10.394161    4.861337    5.523125
  10 C      9.556794    3.689976    5.415428
  11 C     11.754651    5.318299    5.652743
  12 C      5.833593   10.408471    6.449947
  13 C      6.887557    9.699214    6.264889
  14 C      4.629156    9.784561    6.276353
  15 C      7.079264    8.345322    5.964205
  16 C      4.586051    8.351290    5.970452
  17 C      5.729007    7.586442    5.851215
  18 C      8.220577    7.562120    5.773778
  19 C     11.743515    6.627579    5.794994
  20 C     11.086950    7.802302    5.900459
  21 C      9.750605    7.356453    5.756874
  22 C      3.288762    9.269343    6.279234
  23 C      2.922190    8.035043    5.880455

Unit cell:
           periodic     x           y           z      points  spacing
  1. axis:    yes   16.000000    0.000000    0.000000    80     0.2000
  2. axis:    yes    0.000000   16.000000    0.000000    80     0.2000
  3. axis:    yes    0.000000    0.000000   10.000000    48     0.2083

Effective grid spacing dv^(1/3) = 0.2027

                     log10-error:    total        iterations:
           time      wfs    density  energy       fermi  poisson
iter:   1  11:42:36          +inf  -180.259297    2      5
iter:   2  11:42:37         -2.65  -180.252516    2      1
iter:   3  11:42:38         -2.94  -180.248995    2      1
iter:   4  11:42:38         -3.11  -180.249768    2      1
iter:   5  11:42:39         -3.22  -180.248299    2      1
iter:   6  11:42:39         -3.34  -180.251150    2      1
iter:   7  11:42:40         -3.15  -180.248724    2      1
iter:   8  11:42:40         -3.71  -180.248796    2      1
iter:   9  11:42:41         -3.86  -180.249100    2      1
iter:  10  11:42:42         -3.97  -180.249058    2      1
iter:  11  11:42:42         -4.26  -180.248995    2      1

Converged after 11 iterations.

Dipole moment: (-0.167069, 0.664662, 0.105781) |e|*Ang

Energy contributions relative to reference atoms: (reference = -24663.074771)

Kinetic:       +112.713291
Potential:     -118.530912
External:        +0.000000
XC:            -177.232410
Entropy (-ST):   -0.333812
Local:           +2.967943
Free energy:   -180.415901
Extrapolated:  -180.248995

Fermi level: -4.41446

 Band  Eigenvalues  Occupancy
    0    -24.17043    2.00000
    1    -23.19942    2.00000
    2    -21.92696    2.00000
    3    -21.50630    2.00000
    4    -20.88975    2.00000
    5    -20.23313    2.00000
    6    -19.86168    2.00000
    7    -18.98007    2.00000
    8    -18.83783    2.00000
    9    -18.27693    2.00000
   10    -17.78829    2.00000
   11    -17.15076    2.00000
   12    -16.37319    2.00000
   13    -15.83870    2.00000
   14    -15.72623    2.00000
   15    -14.61661    2.00000
   16    -14.28355    2.00000
   17    -13.69229    2.00000
   18    -13.36200    2.00000
   19    -12.72844    2.00000
   20    -12.50676    2.00000
   21    -12.11955    2.00000
   22    -11.40014    2.00000
   23    -11.24846    2.00000
   24    -11.03003    2.00000
   25    -10.94283    2.00000
   26    -10.55648    2.00000
   27    -10.48576    2.00000
   28     -9.82597    2.00000
   29     -9.67281    2.00000
   30     -9.48722    2.00000
   31     -9.30328    2.00000
   32     -9.04025    2.00000
   33     -8.94630    2.00000
   34     -8.26545    2.00000
   35     -7.95334    2.00000
   36     -7.52269    2.00000
   37     -7.11811    2.00000
   38     -6.79038    2.00000
   39     -6.74047    2.00000
   40     -6.62565    2.00000
   41     -6.56324    2.00000
   42     -6.44362    2.00000
   43     -6.19900    2.00000
   44     -5.71486    2.00000
   45     -5.22244    1.99938
   46     -4.62371    1.78035
   47     -4.49391    1.37762
   48     -4.38151    0.83674
   49     -3.83176    0.00588
   50     -3.30877    0.00003
   51     -2.61901    0.00000
   52     -2.38117    0.00000
   53     -2.07814    0.00000
   54     -2.06861    0.00000
   55     -1.93327    0.00000
   56     -1.81342    0.00000
   57     -1.62420    0.00000
   58     -0.46436    0.00000
   59      0.12733    0.00000
[...]
   83      8.84718    0.00000
   84      8.94059    0.00000
   85      8.97057    0.00000
   86      9.05179    0.00000
   87      9.27462    0.00000
   88      9.36932    0.00000
   89      9.47580    0.00000
   90      9.61597    0.00000
   91      9.75150    0.00000
   92      9.80060    0.00000
   93      9.89319    0.00000
   94     10.03596    0.00000
   95     10.20942    0.00000
   96     10.31691    0.00000
   97     10.43228    0.00000

Forces in eV/Ang:
  0 C     0.01989   -0.01315    0.03446
  1 C     0.00708    0.01371   -0.02548
  2 C     0.00745    0.04074    0.00671
  3 C     0.00507   -0.01066    0.00735
  4 C     0.01831    0.01271    0.00638
  5 C    -0.00163    0.02147    0.03997
  6 C     0.00107    0.02615   -0.04201
  7 C     0.01216    0.00687   -0.04949
  8 C    -0.00442   -0.02840    0.00366
  9 C    -0.00740   -0.01624   -0.00755
 10 C     0.01812   -0.01389    0.00892
 11 C    -0.02058    0.03410   -0.02415
 12 C    -0.01132   -0.00448   -0.02669
 13 C    -0.00617   -0.01238   -0.02928
 14 C     0.00687    0.03968   -0.02591
 15 C     0.01709   -0.02616   -0.00387
 16 C    -0.02563   -0.02495    0.00356
 17 C     0.01254   -0.01330    0.00778
 18 C    -0.00592   -0.04141    0.01691
 19 C     0.00815   -0.02509    0.02214
 20 C    -0.01013   -0.03243    0.00117
 21 C     0.00911   -0.01129    0.02756
 22 C    -0.02917   -0.00147    0.03909
 23 C    -0.00052   -0.01345   -0.01509