User:   esb@s66n12.grendel.cscaa.dk
Date:   Thu Nov  9 11:43:17 2017
Arch:   x86_64
Pid:    115877
Python: 2.7.13
gpaw:   /home/esb/DFT/gpaw_git/gpaw
_gpaw:  /home/esb/DFT/gpaw_git/build/bin.linux-x86_64-2.7/gpaw-python
ase:    /home/esb/DFT/ase_git/ase (version 3.15.0b1)
numpy:  /comm/swstack/core/python/2.7.13/lib/python2.7/site-packages/numpy (version 1.13.3)
scipy:  /comm/swstack/core/python/2.7.13/lib/python2.7/site-packages/scipy (version 0.19.1)
units:  Angstrom and eV
cores:  16
Extra parameters: {'blacs': True}

Input parameters:
  basis: dzp
  gpts: [80 80 48]
  kpts: [1 1 1]
  maxiter: 99
  mixer: {backend: pulay,
          beta: 0.05,
          method: separate,
          nmaxold: 5,
          weight: 75}
  mode: lcao
  nbands: -50
  occupations: {name: fermi-dirac,
                width: 0.1}
  poissonsolver: {eps: 1e-07,
                  name: fd,
                  nn: 3,
                  relax: GS}
  xc: PBE

System changes: positions, numbers, cell, pbc, initial_charges, initial_magmoms

Initialize ...

C-setup:
  name: Carbon
  id: 4aa54d4b901d75f77cc0ea3eec22967b
  Z: 6
  valence: 4
  core: 2
  charge: 0.0
  file: /home/esb/DFT/gpaw-setups-0.8.7929/C.PBE.gz
  cutoffs: 0.64(comp), 1.14(filt), 1.14(core), lmax=2
  valence states:
                energy  radius
    2s(2.00)   -13.751   0.635
    2p(2.00)    -5.284   0.635
    *s          13.461   0.635
    *p          21.927   0.635
    *d           0.000   0.635

  LCAO basis set for C:
    Name: dzp
    File: /home/esb/DFT/gpaw-setups-0.8.7929/C.dzp.basis.gz
    Number of radial functions: 5
    Number of spherical harmonics: 13
      l=0, rc=5.5469 Bohr: 2s-sz confined orbital
      l=1, rc=6.6719 Bohr: 2p-sz confined orbital
      l=0, rc=3.0312 Bohr: 2s-dz split-valence wave
      l=1, rc=3.7500 Bohr: 2p-dz split-valence wave
      l=2, rc=6.6719 Bohr: d-type Gaussian polarization

Reference energy: -24663.074771

Spin-paired calculation

Occupation numbers:
  Fermi-Dirac: width=0.1000 eV

Convergence criteria:
  Maximum total energy change: 0.0005 eV / electron
  Maximum integral of absolute density change: 0.0001 electrons
  Maximum integral of absolute eigenstate change: 4e-08 eV^2
  Maximum number of iterations: 99

Symmetries present (total): 1

  ( 1  0  0)
  ( 0  1  0)
  ( 0  0  1)

1 k-point (Gamma)
1 k-point in the irreducible part of the Brillouin zone
       k-points in crystal coordinates                weights
   0:     0.00000000    0.00000000    0.00000000          1/1

Wave functions: LCAO
  Diagonalizer: Serial LAPACK
  Atomic Correction: dense with blas
  Datatype: float
  Eigensolver: None

LCAO using direct dense diagonalizer

Densities:
  Coarse grid: 80*80*48 grid
  Fine grid: 160*160*96 grid
  Total Charge: 0.000000

Density mixing:
  Method: separate
  Backend: pulay
  Linear mixing parameter: 0.05
  Mixing with 5 old densities
  Damping of long wave oscillations: 75

Hamiltonian:
  XC and Coulomb potentials evaluated on a 160*160*96 grid
  Using the PBE Exchange-Correlation functional
  Interpolation: tri-quintic (5. degree polynomial)
  Poisson solver: Gauss-Seidel solver with 6 multi-grid levels
    Coarsest grid: 5 x 5 x 3 points
    Stencil: 6*3+1=19 point O(h^6) finite-difference Laplacian
    Max iterations: 1000
    Tolerance: 1.000000e-07

Total number of cores used: 16
Domain decomposition: 2 x 4 x 2

Number of atoms: 24
Number of atomic orbitals: 312
Number of bands in calculation: 98
Bands to converge: occupied states only
Number of valence electrons: 96

... initialized

Initializing position-dependent things.

Density initialized from atomic densities
  /        |   C  C  C  C C                       |
 *         | C            CC  C                   |
 |         | C       C          C                 |
 |         .----C--C--C--C-----C------------------.
 |        /    C            C                    /
 |       /       C  C     C                     /
 |      /              C                       /

Positions:
   0 C     10.692401    5.970584    4.880153
   1 C      9.255071    3.886307    4.346313
   2 C      9.564880    5.142666    4.880196
   3 C     10.811222    7.104521    5.404637
   4 C      8.159939    3.277575    4.418648
   5 C      9.844170    7.819532    6.118883
   6 C      8.409757    5.753245    5.621567
   7 C      6.989294    3.696174    5.058286
   8 C      8.549781    7.066304    6.239489
   9 C      7.146232    5.035173    5.719325
  10 C      5.708739    3.158161    5.223853
  11 C      4.748184    3.663144    5.855929
  12 C      7.855764   10.019034    5.269534
  13 C      6.821572   10.734129    5.310669
  14 C      8.597020    8.821074    5.232599
  15 C      5.532242   11.117621    5.380054
  16 C      4.300057   10.829750    5.467888
  17 C      3.281061    9.959600    5.555818
  18 C      2.910930    7.456615    5.627819
  19 C      5.845276    6.194392    5.393467
  20 C      4.563241    5.500083    5.497140
  21 C      6.421131    7.481066    5.340602
  22 C      2.779866    8.794726    5.616736
  23 C      3.406534    6.298784    5.599783

Unit cell:
           periodic     x           y           z      points  spacing
  1. axis:    yes   16.000000    0.000000    0.000000    80     0.2000
  2. axis:    yes    0.000000   16.000000    0.000000    80     0.2000
  3. axis:    yes    0.000000    0.000000   10.000000    48     0.2083

Effective grid spacing dv^(1/3) = 0.2027

                     log10-error:    total        iterations:
           time      wfs    density  energy       fermi  poisson
iter:   1  11:43:18          +inf  -177.810407    2      6
iter:   2  11:43:19         -0.91  -176.923547    3      3
iter:   3  11:43:20         -0.94  -174.234078    33     4
iter:   4  11:43:20         -1.16  -173.589658    31     3
iter:   5  11:43:21         -1.40  -173.649004    34     3
iter:   6  11:43:21         -1.59  -173.533264    3      3
iter:   7  11:43:22         -1.76  -173.504070    3      3
iter:   8  11:43:23         -1.94  -173.489416    3      2
iter:   9  11:43:23         -2.07  -173.471837    3      2
iter:  10  11:43:24         -2.23  -173.466693    3      2
iter:  11  11:43:24         -2.34  -173.469020    3      2
iter:  12  11:43:25         -2.83  -173.461816    2      1
iter:  13  11:43:25         -2.88  -173.454751    2      2
iter:  14  11:43:26         -3.06  -173.452410    2      1
iter:  15  11:43:26         -3.24  -173.450424    2      1
iter:  16  11:43:27         -3.41  -173.454049    2      1
iter:  17  11:43:27         -3.51  -173.461594    2      1
iter:  18  11:43:28         -3.57  -173.456933    2      1
iter:  19  11:43:28         -3.65  -173.454212    2      1
iter:  20  11:43:29         -3.70  -173.448495    2      1
iter:  21  11:43:30         -3.96  -173.452999    2      1
iter:  22  11:43:30         -4.17  -173.454061    2      1

Converged after 22 iterations.

Dipole moment: (-0.058674, 0.302461, -0.070891) |e|*Ang

Energy contributions relative to reference atoms: (reference = -24663.074771)

Kinetic:        +76.895787
Potential:      -91.006621
External:        +0.000000
XC:            -162.227202
Entropy (-ST):   -0.216447
Local:           +2.992199
Free energy:   -173.562284
Extrapolated:  -173.454061

Fermi level: -4.29994

 Band  Eigenvalues  Occupancy
    0    -22.12765    2.00000
    1    -21.06123    2.00000
    2    -20.74143    2.00000
    3    -20.37618    2.00000
    4    -20.02239    2.00000
    5    -19.49104    2.00000
    6    -19.19007    2.00000
    7    -18.96640    2.00000
    8    -18.29376    2.00000
    9    -18.04783    2.00000
   10    -17.53193    2.00000
   11    -16.77903    2.00000
   12    -16.40573    2.00000
   13    -15.56022    2.00000
   14    -15.38070    2.00000
   15    -14.96544    2.00000
   16    -14.41416    2.00000
   17    -13.66215    2.00000
   18    -13.25603    2.00000
   19    -12.74068    2.00000
   20    -12.73448    2.00000
   21    -11.91080    2.00000
   22    -11.66957    2.00000
   23    -10.98919    2.00000
   24    -10.56209    2.00000
   25     -9.90526    2.00000
   26     -9.55675    2.00000
   27     -9.35820    2.00000
   28     -9.34152    2.00000
   29     -8.90937    2.00000
   30     -8.67907    2.00000
   31     -8.62530    2.00000
   32     -8.30564    2.00000
   33     -8.16508    2.00000
   34     -7.94894    2.00000
   35     -7.50066    2.00000
   36     -7.24166    2.00000
   37     -6.92987    2.00000
   38     -6.89113    2.00000
   39     -6.59970    2.00000
   40     -6.41720    2.00000
   41     -6.10167    2.00000
   42     -5.95215    2.00000
   43     -5.60290    2.00000
   44     -5.50192    1.99999
   45     -5.17298    1.99968
   46     -5.01371    1.99841
   47     -4.43274    1.58102
   48     -4.16117    0.39956
   49     -3.84356    0.02063
   50     -3.50448    0.00070
   51     -3.13420    0.00002
   52     -2.95937    0.00000
   53     -2.74250    0.00000
   54     -2.55986    0.00000
   55     -2.01967    0.00000
   56     -1.92469    0.00000
   57     -1.61074    0.00000
   58     -0.91821    0.00000
   59     -0.63940    0.00000
[...]
   83      8.41078    0.00000
   84      8.50699    0.00000
   85      9.00704    0.00000
   86      9.08612    0.00000
   87      9.16769    0.00000
   88      9.23050    0.00000
   89      9.32448    0.00000
   90      9.45787    0.00000
   91      9.56971    0.00000
   92      9.71367    0.00000
   93      9.85204    0.00000
   94      9.90251    0.00000
   95      9.95388    0.00000
   96     10.04276    0.00000
   97     10.17629    0.00000

Forces in eV/Ang:
  0 C     1.19714   -0.91240   -0.20983
  1 C     0.84353    0.51855    0.04455
  2 C     0.21816   -0.23922    0.12318
  3 C    -0.18539    0.35440    0.28050
  4 C    -0.64414   -0.18357    0.14244
  5 C    -4.95609    2.51962   -2.33952
  6 C    -0.32418   -0.42034    0.68793
  7 C     0.31798    0.42401    0.88715
  8 C     0.43360    1.03914   -2.08203
  9 C    -0.36830    1.98057   -3.00126
 10 C     0.22901   -0.13817   -0.37725
 11 C    -2.26617    4.32002   -0.45430
 12 C     3.89437   -4.79429    0.44546
 13 C    -3.29875    1.60908   -0.07324
 14 C     1.75101    0.95453    2.92391
 15 C     2.42161   -0.15933   -0.24853
 16 C    -1.90345   -0.86496    0.19544
 17 C     1.10433    1.48329   -0.11438
 18 C    -0.72287    2.02822   -0.08563
 19 C     2.82595   -3.15532    2.20982
 20 C    -1.22570   -1.30011    0.92204
 21 C    -1.19019   -0.89630    0.22847
 22 C    -0.27063   -1.71963    0.10754
 23 C     2.03209   -2.39597   -0.21707

System changes: positions

[...]

Density initialized from wave functions
  /        |   C  C  C  C C                       |
 *         | C            CC  C                   |
 |         | C       C          C                 |
 |         .----C--C--C--C-----C------------------.
 |        /    C            C                    /
 |       /       C  C     C                     /
 |      /              C                       /

[...]

Density initialized from wave functions
  /        |   C  C  C  C C                       |
 *         | C            C C C                   |
 |         | C       C          C                 |
[...]
 |       /       C  C     C                     /
 |      /              C                       /

[...]

Density initialized from wave functions
  /        |   C  C   C C C                       |
 *         | C               C                    |
 |         | C     C C    C    C                  |
 |         .----C-----C--C-----C------------------.
 |        /    C            C                    /
 |       /       C  C     C                     /
 |      /              C                       /

[...]

Density initialized from wave functions
  /        |   C  C  C  C  C                      |
 *         | C               C                    |
 |         | C     C  C  C     C                  |
 |         .----C-----C--C-----C------------------.
 |        /    C            C                    /
 |       /       C  C     C                     /
 |      /              C                       /

[...]

Density initialized from wave functions
  /        |   C  C  C  C  C C                    |
 *         | C               C                    |
 |         | C     C  C  C     C                  |
 |         .----C-----C--C-----C------------------.
 |        /    C            C                    /
 |       /       C  C     C                     /
 |      /              C                       /

[...]

Density initialized from wave functions
  /        |   C  C  C  C  C C                    |
 *         | C               C                    |
 |         | C     C  C  C     C                  |
 |         .----C-----C--C-----C------------------.
 |        /    C            C                    /
 |       /       C  C     C                     /
 |      /              C                       /

[...]

Density initialized from wave functions
  /        |   C  C  C  C  C C                    |
 *         | C               C                    |
 |         | C     C  C  C     C                  |
 |         .----C----C---C-----C------------------.
 |        /    C            C                    /
 |       /       C  C     C                     /
 |      /              C                       /

[...]

Density initialized from wave functions
  /        |   C  C  C  C  C C                    |
 *         | C               C                    |
 |         | C     C  C  C     C                  |
 |         .----C----C---C-----C------------------.
 |        /    C            C                    /
 |       /       C  C     C                     /
 |      /              C                       /

[...]

Density initialized from wave functions
  /        |   C  C  C  C  C C                    |
 *         | C               C                    |
 |         | CC    C  C  C     C                  |
 |         .----C----C---C-----C------------------.
 |        /    C            C                    /
 |       /       C  C     C                     /
 |      /              C                       /

[...]

Density initialized from wave functions
  /        |   C  C  C  C  C C                    |
 *         | C               C                    |
 |         | CC    C  C  C     C                  |
 |         .----C----C---C-----C------------------.
 |        /    C            C                    /
 |       /       C  C     C                     /
 |      /              C                       /

[...]

Density initialized from wave functions
  /        |   C  C  C  C  C C                    |
 *         | C               C                    |
 |         | CC    C  C  C     C                  |
 |         .----C--------C-----C------------------.
 |        /    C     C      C                    /
 |       /       C  C     C                     /
 |      /              C                       /

[...]

Density initialized from wave functions
  /        |   C  C  C  C  C C                    |
 *         | C               C                    |
 |         |  C       C  C     C                  |
 |         .----C--C-----C-----C------------------.
 |        /    C     C      C                    /
 |       /       C  C     C                     /
 |      /              C                       /

[...]

Density initialized from wave functions
  /        |   C  C  C  C  C C                    |
 *         | C               C                    |
 |         |  C       C  C     C                  |
 |         .----C--C-----C-----C------------------.
 |        /    C     C      C                    /
 |       /       C  C  C  C                     /

[...]

Density initialized from wave functions
  /        |   C  C  C  C  C C                    |
 *         | C              C                     |
 |         |  C       C  C     C                  |
 |         .----C--C-----C-----C------------------.
 |        /    C     C      C                    /
 |       /       C  C  C  C                     /

[...]

Density initialized from wave functions
  /        |   C  C  C  C  C C                    |
 *         | CC             C                     |
 |         |  C       C  C     C                  |
 |         .----C--C-----C-----C------------------.
 |        /    C     C      C                    /
 |       /       C  C  C  C                     /

[...]

Density initialized from wave functions
   /       |         C                            |
  /        |    C C     C  C C                    |
 *         | CC             C                     |
 |         |  C       C  C     C                  |
 |         .----C--C-----C-----C------------------.
 |        /    C     C      C                    /
 |       /       C  C  C  C                     /

[...]

Density initialized from wave functions
   /       |         C                            |
  /        |    C C     C  C C                    |
 *         | CC             C                     |
 |         |  C       C  C     C                  |
 |         .----C--C-----C-----C------------------.
 |        /    C     C      C                    /
 |       /       C  C  C  C                     /

[...]

Density initialized from wave functions
   /       |          C C                         |
  /        |    C C        C C                    |
 *         | CC             C                     |
 |         |  C       C  C     C                  |
 |         .----C--C-----C-----C------------------.
 |        /    C     C      C                    /
 |       /       C  C  C  C                     /

[...]

Density initialized from wave functions
   /       |          C C                         |
  /        |    C C        C                      |
 *         |  C             CC                    |
 |         | CC       C  C     C                  |
 |         .----C--C-----C-----C------------------.
 |        /    C     C      C                    /
 |       /       C  C  C  C                     /

[...]

Density initialized from wave functions
   /       |          C C                         |
  /        |    C C        C                      |
 *         |  C             CC                    |
 |         | C        C  C     C                  |
 |         .----C--C-----C-----C------------------.
 |        /    C     C      C                    /
 |       /       C  C  C  C                     /

[...]

Density initialized from wave functions
   /       |          C  C                        |
  /        |    C C        C                      |
 *         |  C             C                     |
 |         | C        C  C     C                  |
 |         .----C--C-C---C-----C------------------.
 |        /    C            C                    /
 |       /       C  C  C  C                     /

[...]

Density initialized from wave functions
   /       |          C  C                        |
  /        |    C C        C                      |
 *         |  C             C                     |
 |         | C        C  C     C                  |
 |         .----C--C-----C-----C------------------.
 |        /    C     C      C                    /
 |       /       C  C  C  C                     /

[...]

Density initialized from wave functions
   /       |          C  C                        |
  /        |    C C        C                      |
 *         |  C             C                     |
 |         | C        C  C     C                  |
 |         .----C--C-----C-----C------------------.
 |        /    C     C      C                    /
 |       /       C  C  C  C                     /

[...]

Density initialized from wave functions
   /       |      C   C  C                        |
  /        |    C          C                      |
 *         |  C             C                     |
 |         | C        C  C     C                  |
 |         .----C--C-----C-----C------------------.
 |        /    C     C      C                    /
 |       /       C  C  C  C                     /

[...]

Density initialized from wave functions
   /       |      C   C  C                        |
  /        |    C          C                      |
 *         |  C             C                     |
 |         | CC       C  C     C                  |
 |         .----C--C-----C-----C------------------.
 |        /    C     C      C                    /
 |       /       C  C  C  C                     /

[...]

Density initialized from wave functions
   /       |      C   C  C                        |
  /        |    C          C                      |
 *         |  C             C                     |
 |         | CC       C  C     C                  |
 |         .----C--C-----C-----C------------------.
 |        /    C     C      C                    /
 |       /       C  C  C  C                     /

[...]

Density initialized from wave functions
   /       |      C   C  C                        |
  /        |    C          C                      |
 *         |  C             C                     |
 |         | C       C   C  C  C                  |
 |         .----C--C-----C-----C------------------.
 |        /    C     C      C                    /
 |       /       C  C  C  C                     /

[...]

Density initialized from wave functions
   /       |      C   C  C                        |
  /        |    C          C                      |
 *         |  C             C                     |
 |         | C       C   C  C  C                  |
 |         .----C--C-----C-----C------------------.
 |        /    C     C      C                    /
 |       /       C  C  C  C                     /

[...]

System changes: positions

Initializing position-dependent things.

Density initialized from wave functions
   /       |      C   C  C                        |
  /        |    C          C                      |
 *         |  C             C                     |
 |         | C       C   C     C                  |
 |         .----C--C-----C-----C------------------.
 |        /    C     C      C                    /
 |       /       C  C  C  C                     /

Positions:
   0 C     10.573417    6.110155    5.042008
   1 C      9.417734    3.658261    4.908162
   2 C      9.610320    5.055910    5.061335
   3 C     10.322141    7.336615    5.186943
   4 C      8.335647    2.993955    4.945985
   5 C      9.096448    8.054928    5.389828
   6 C      8.310624    5.644115    5.294957
   7 C      7.014091    3.469046    5.152760
   8 C      7.999993    7.069554    5.449721
   9 C      7.098226    4.900433    5.337342
  10 C      5.637017    3.091747    5.194558
  11 C      4.670250    3.887033    5.347342
  12 C      7.906761   10.312232    5.521641
  13 C      6.823303   11.071137    5.548752
  14 C      8.810040    9.413688    5.472710
  15 C      5.543509   11.239199    5.556955
  16 C      4.258286   10.986731    5.618885
  17 C      3.452208    9.953690    5.628823
  18 C      3.179422    7.426919    5.640326
  19 C      5.977731    5.830979    5.506222
  20 C      4.596845    5.311482    5.499020
  21 C      6.586482    7.110421    5.593954
  22 C      3.016587    8.738292    5.662897
  23 C      3.530869    6.201123    5.597302

Unit cell:
           periodic     x           y           z      points  spacing
  1. axis:    yes   16.000000    0.000000    0.000000    80     0.2000
  2. axis:    yes    0.000000   16.000000    0.000000    80     0.2000
  3. axis:    yes    0.000000    0.000000   10.000000    48     0.2083

Effective grid spacing dv^(1/3) = 0.2027

                     log10-error:    total        iterations:
           time      wfs    density  energy       fermi  poisson
iter:   1  11:53:11          +inf  -184.066931    3      5
iter:   2  11:53:11         -2.21  -184.042119    3      2
iter:   3  11:53:12         -2.82  -184.041333    3      1
iter:   4  11:53:12         -3.16  -184.041128    2      1
iter:   5  11:53:13         -3.23  -184.041189    3      1
iter:   6  11:53:13         -2.95  -184.040794    3      1
iter:   7  11:53:14         -3.61  -184.040932    2      1
iter:   8  11:53:14         -3.56  -184.040966    2      1
iter:   9  11:53:15         -4.05  -184.040928    2      1

Converged after 9 iterations.

Dipole moment: (-0.066158, 0.122021, -0.013640) |e|*Ang

Energy contributions relative to reference atoms: (reference = -24663.074771)

Kinetic:       +108.430043
Potential:     -118.379878
External:        +0.000000
XC:            -177.046824
Entropy (-ST):   -0.213735
Local:           +3.062599
Free energy:   -184.147796
Extrapolated:  -184.040928

Fermi level: -4.38867

 Band  Eigenvalues  Occupancy
    0    -22.53698    2.00000
    1    -21.31737    2.00000
    2    -20.83885    2.00000
    3    -20.55691    2.00000
    4    -20.10477    2.00000
    5    -20.05521    2.00000
    6    -19.35731    2.00000
    7    -19.34430    2.00000
    8    -18.31127    2.00000
    9    -18.07733    2.00000
   10    -17.43068    2.00000
   11    -17.10137    2.00000
   12    -16.40053    2.00000
   13    -16.24740    2.00000
   14    -15.36825    2.00000
   15    -15.10969    2.00000
   16    -14.44969    2.00000
   17    -13.55051    2.00000
   18    -13.29644    2.00000
   19    -13.29004    2.00000
   20    -12.87377    2.00000
   21    -12.43378    2.00000
   22    -12.00724    2.00000
   23    -11.72582    2.00000
   24    -11.17726    2.00000
   25    -10.43330    2.00000
   26    -10.23780    2.00000
   27     -9.40392    2.00000
   28     -9.39527    2.00000
   29     -9.26803    2.00000
   30     -9.25361    2.00000
   31     -9.19440    2.00000
   32     -8.59525    2.00000
   33     -8.43633    2.00000
   34     -8.32710    2.00000
   35     -7.77228    2.00000
   36     -7.25083    2.00000
   37     -7.23080    2.00000
   38     -7.16060    2.00000
   39     -6.54943    2.00000
   40     -6.35571    2.00000
   41     -6.21559    2.00000
   42     -5.88024    2.00000
   43     -5.77588    2.00000
   44     -5.61453    1.99999
   45     -5.35186    1.99987
   46     -4.70395    1.91804
   47     -4.56553    1.70857
   48     -4.24154    0.37351
   49     -3.23260    0.00002
   50     -3.11821    0.00001
   51     -2.82788    0.00000
   52     -2.72844    0.00000
   53     -2.47157    0.00000
   54     -1.99327    0.00000
   55     -1.49550    0.00000
   56     -0.96116    0.00000
   57     -0.78181    0.00000
   58      0.26973    0.00000
   59      0.64274    0.00000
[...]
   83      9.21800    0.00000
   84      9.24821    0.00000
   85      9.26774    0.00000
   86      9.38892    0.00000
   87      9.53367    0.00000
   88      9.72710    0.00000
   89      9.79054    0.00000
   90      9.91252    0.00000
   91      9.97581    0.00000
   92     10.01024    0.00000
   93     10.09621    0.00000
   94     10.28165    0.00000
   95     10.34520    0.00000
   96     10.39697    0.00000
   97     10.47357    0.00000

Forces in eV/Ang:
  0 C    -0.01303   -0.05222   -0.00409
  1 C     0.02413    0.01737    0.03934
  2 C     0.00091   -0.00561   -0.00217
  3 C    -0.05150   -0.01097    0.05752
  4 C    -0.00329    0.02321    0.02981
  5 C     0.02776    0.01520   -0.05589
  6 C     0.00556   -0.02221   -0.00913
  7 C     0.00166    0.01416   -0.03564
  8 C    -0.01891   -0.00828   -0.01351
  9 C    -0.03022    0.01745   -0.04316
 10 C     0.02733    0.04522    0.01987
 11 C     0.01862   -0.00682    0.01754
 12 C    -0.03311    0.02426   -0.03224
 13 C     0.01369   -0.00191    0.01791
 14 C     0.02956   -0.00657   -0.01392
 15 C     0.00934    0.01291    0.05473
 16 C     0.02841    0.01606   -0.01487
 17 C    -0.02673   -0.05000    0.01443
 18 C    -0.03428    0.01644   -0.00491
 19 C    -0.01591    0.02003   -0.03432
 20 C     0.00926   -0.02466    0.03264
 21 C     0.04144    0.03505    0.03096
 22 C    -0.00237    0.02162    0.00292
 23 C     0.02732   -0.04950   -0.02330