User:   esb@s65n84.grendel.cscaa.dk
Date:   Thu Nov  9 12:13:23 2017
Arch:   x86_64
Pid:    58243
Python: 2.7.13
gpaw:   /home/esb/DFT/gpaw_git/gpaw
_gpaw:  /home/esb/DFT/gpaw_git/build/bin.linux-x86_64-2.7/gpaw-python
ase:    /home/esb/DFT/ase_git/ase (version 3.15.0b1)
numpy:  /comm/swstack/core/python/2.7.13/lib/python2.7/site-packages/numpy (version 1.13.3)
scipy:  /comm/swstack/core/python/2.7.13/lib/python2.7/site-packages/scipy (version 0.19.1)
units:  Angstrom and eV
cores:  16
Extra parameters: {'blacs': True}

Input parameters:
  basis: dzp
  gpts: [80 80 48]
  kpts: [1 1 1]
  maxiter: 99
  mixer: {backend: pulay,
          beta: 0.05,
          method: separate,
          nmaxold: 5,
          weight: 75}
  mode: lcao
  nbands: -50
  occupations: {name: fermi-dirac,
                width: 0.1}
  poissonsolver: {eps: 1e-07,
                  name: fd,
                  nn: 3,
                  relax: GS}
  xc: PBE

System changes: positions, numbers, cell, pbc, initial_charges, initial_magmoms

Initialize ...

C-setup:
  name: Carbon
  id: 4aa54d4b901d75f77cc0ea3eec22967b
  Z: 6
  valence: 4
  core: 2
  charge: 0.0
  file: /home/esb/DFT/gpaw-setups-0.8.7929/C.PBE.gz
  cutoffs: 0.64(comp), 1.14(filt), 1.14(core), lmax=2
  valence states:
                energy  radius
    2s(2.00)   -13.751   0.635
    2p(2.00)    -5.284   0.635
    *s          13.461   0.635
    *p          21.927   0.635
    *d           0.000   0.635

  LCAO basis set for C:
    Name: dzp
    File: /home/esb/DFT/gpaw-setups-0.8.7929/C.dzp.basis.gz
    Number of radial functions: 5
    Number of spherical harmonics: 13
      l=0, rc=5.5469 Bohr: 2s-sz confined orbital
      l=1, rc=6.6719 Bohr: 2p-sz confined orbital
      l=0, rc=3.0312 Bohr: 2s-dz split-valence wave
      l=1, rc=3.7500 Bohr: 2p-dz split-valence wave
      l=2, rc=6.6719 Bohr: d-type Gaussian polarization

Reference energy: -24663.074771

Spin-paired calculation

Occupation numbers:
  Fermi-Dirac: width=0.1000 eV

Convergence criteria:
  Maximum total energy change: 0.0005 eV / electron
  Maximum integral of absolute density change: 0.0001 electrons
  Maximum integral of absolute eigenstate change: 4e-08 eV^2
  Maximum number of iterations: 99

Symmetries present (total): 1

  ( 1  0  0)
  ( 0  1  0)
  ( 0  0  1)

1 k-point (Gamma)
1 k-point in the irreducible part of the Brillouin zone
       k-points in crystal coordinates                weights
   0:     0.00000000    0.00000000    0.00000000          1/1

Wave functions: LCAO
  Diagonalizer: Serial LAPACK
  Atomic Correction: dense with blas
  Datatype: float
  Eigensolver: None

LCAO using direct dense diagonalizer

Densities:
  Coarse grid: 80*80*48 grid
  Fine grid: 160*160*96 grid
  Total Charge: 0.000000

Density mixing:
  Method: separate
  Backend: pulay
  Linear mixing parameter: 0.05
  Mixing with 5 old densities
  Damping of long wave oscillations: 75

Hamiltonian:
  XC and Coulomb potentials evaluated on a 160*160*96 grid
  Using the PBE Exchange-Correlation functional
  Interpolation: tri-quintic (5. degree polynomial)
  Poisson solver: Gauss-Seidel solver with 6 multi-grid levels
    Coarsest grid: 5 x 5 x 3 points
    Stencil: 6*3+1=19 point O(h^6) finite-difference Laplacian
    Max iterations: 1000
    Tolerance: 1.000000e-07

Total number of cores used: 16
Domain decomposition: 2 x 4 x 2

Number of atoms: 24
Number of atomic orbitals: 312
Number of bands in calculation: 98
Bands to converge: occupied states only
Number of valence electrons: 96

... initialized

Initializing position-dependent things.

Density initialized from atomic densities
    /      |              C                       |
   /       |           C    C   C                 |
  /        |    C  C                              |
 *         |  C      C  C C   C                   |
 |         | C         C                          |
 |         .---C---C--C---------C-----------------.
 |        /                 C                    /
 |       /     C          C                     /
 |      /       C    C C                       /

Positions:
   0 C     11.387525    5.236468    5.416748
   1 C      9.332627    3.767634    4.716609
   2 C      9.631439    5.061326    5.156957
   3 C     11.192638    6.320165    5.221195
   4 C      8.196483    3.245403    4.540888
   5 C      9.839798    7.923426    6.151368
   6 C      7.688418    5.998818    5.658158
   7 C      7.114052    3.602126    4.009799
   8 C      8.544142    7.221970    5.899394
   9 C      7.068234    5.245421    5.193502
  10 C     10.328497    9.398341    6.575793
  11 C      8.733037    9.889053    6.865987
  12 C      3.352049    6.358422    5.445526
  13 C      4.568295    4.148335    4.788929
  14 C      4.446234    5.501828    5.204266
  15 C      5.264640    3.374306    4.434759
  16 C      3.662923    7.114385    6.440751
  17 C      3.951804    8.747438    6.381994
  18 C      5.836822    6.007366    5.420372
  19 C      5.344271    8.523028    6.330901
  20 C      6.235516    7.374686    6.541660
  21 C      7.455503   10.300399    7.034101
  22 C      6.761873    9.152721    6.591205
  23 C      7.331085    7.889891    6.135476

Unit cell:
           periodic     x           y           z      points  spacing
  1. axis:    yes   16.000000    0.000000    0.000000    80     0.2000
  2. axis:    yes    0.000000   16.000000    0.000000    80     0.2000
  3. axis:    yes    0.000000    0.000000   10.000000    48     0.2083

Effective grid spacing dv^(1/3) = 0.2027

                     log10-error:    total        iterations:
           time      wfs    density  energy       fermi  poisson
iter:   1  12:13:25          +inf  -163.754087    2      6
iter:   2  12:13:26         -0.86  -161.841203    3      3
iter:   3  12:13:26         -0.90  -157.672360    4      4
iter:   4  12:13:27         -1.08  -157.072495    3      2
iter:   5  12:13:28         -1.13  -156.295094    33     4
iter:   6  12:13:29         -1.40  -156.186202    2      3
iter:   7  12:13:29         -1.47  -156.144257    4      3
iter:   8  12:13:30         -1.66  -156.099500    3      3
iter:   9  12:13:31         -1.77  -156.023845    3      3
iter:  10  12:13:31         -1.94  -155.997643    3      2
iter:  11  12:13:32         -2.12  -155.996879    2      2
iter:  12  12:13:32         -2.18  -155.985004    3      2
iter:  13  12:13:33         -2.42  -155.980643    2      2
iter:  14  12:13:34         -2.68  -155.974319    3      2
iter:  15  12:13:34         -2.82  -155.973432    2      2
iter:  16  12:13:35         -3.03  -155.975465    2      1
iter:  17  12:13:36         -3.09  -155.976173    2      1
iter:  18  12:13:36         -3.21  -155.974031    2      1
iter:  19  12:13:37         -3.27  -155.974649    2      1
iter:  20  12:13:38         -3.36  -155.965934    2      1
iter:  21  12:13:38         -3.68  -155.970671    2      1
iter:  22  12:13:39         -3.91  -155.972536    2      1
iter:  23  12:13:39         -3.98  -155.972293    2      1
iter:  24  12:13:40         -4.13  -155.972928    2      1

Converged after 24 iterations.

Dipole moment: (-0.267786, -0.110267, 0.051515) |e|*Ang

Energy contributions relative to reference atoms: (reference = -24663.074771)

Kinetic:       +157.067943
Potential:     -147.101471
External:        +0.000000
XC:            -168.785720
Entropy (-ST):   -0.145712
Local:           +2.919176
Free energy:   -156.045784
Extrapolated:  -155.972928

Fermi level: -5.18455

 Band  Eigenvalues  Occupancy
    0    -24.74856    2.00000
    1    -23.24326    2.00000
    2    -21.65512    2.00000
    3    -21.25938    2.00000
    4    -20.75873    2.00000
    5    -20.58791    2.00000
    6    -20.14482    2.00000
    7    -19.92480    2.00000
    8    -18.69062    2.00000
    9    -18.06246    2.00000
   10    -17.85084    2.00000
   11    -17.11885    2.00000
   12    -16.64580    2.00000
   13    -15.48825    2.00000
   14    -15.05750    2.00000
   15    -14.56674    2.00000
   16    -13.92634    2.00000
   17    -13.25786    2.00000
   18    -12.99388    2.00000
   19    -12.43904    2.00000
   20    -11.83638    2.00000
   21    -11.71512    2.00000
   22    -11.41079    2.00000
   23    -10.76589    2.00000
   24    -10.57668    2.00000
   25    -10.44259    2.00000
   26    -10.11178    2.00000
   27     -9.94229    2.00000
   28     -9.55533    2.00000
   29     -9.25312    2.00000
   30     -9.07736    2.00000
   31     -8.71165    2.00000
   32     -8.36795    2.00000
   33     -8.25640    2.00000
   34     -8.06220    2.00000
   35     -7.74205    2.00000
   36     -7.61798    2.00000
   37     -7.49370    2.00000
   38     -7.33313    2.00000
   39     -7.09414    2.00000
   40     -7.04908    2.00000
   41     -6.50744    2.00000
   42     -6.12357    1.99983
   43     -6.07418    1.99973
   44     -5.96159    1.99916
   45     -5.79653    1.99561
   46     -5.56280    1.95548
   47     -5.43329    1.84650
   48     -4.96682    0.20361
   49     -4.16993    0.00008
   50     -3.86981    0.00000
   51     -3.84162    0.00000
   52     -3.35720    0.00000
   53     -2.91031    0.00000
   54     -2.66271    0.00000
   55     -2.36793    0.00000
   56     -2.02561    0.00000
   57     -1.82466    0.00000
   58     -1.59084    0.00000
   59     -0.85449    0.00000
[...]
   83      7.82476    0.00000
   84      8.18860    0.00000
   85      8.32417    0.00000
   86      8.34002    0.00000
   87      8.44366    0.00000
   88      8.84353    0.00000
   89      8.93614    0.00000
   90      9.04617    0.00000
   91      9.27791    0.00000
   92      9.30396    0.00000
   93      9.38662    0.00000
   94      9.66734    0.00000
   95      9.78699    0.00000
   96      9.83804    0.00000
   97      9.95921    0.00000

Forces in eV/Ang:
  0 C     1.18731  -20.41276    3.52734
  1 C     3.40553    4.34809    1.42251
  2 C     4.25747   -3.50533   -0.17602
  3 C    -5.95613   22.48738   -2.21938
  4 C     1.57025   -3.59986    0.36606
  5 C     0.51350    1.09280   -0.91352
  6 C    25.79761   18.32154   10.22333
  7 C    -9.41968    1.83120    0.76132
  8 C    -1.14218   -0.02865    0.68044
  9 C   -19.61149  -18.44764  -12.66646
 10 C    -5.88919   -2.88617   -0.57558
 11 C     3.17197   -0.49392   -0.20719
 12 C     0.39774   -1.39120    0.78909
 13 C   -12.68035   14.37527    5.73340
 14 C     1.52715   -0.81090   -0.15593
 15 C    17.11127  -14.18262   -7.74036
 16 C    -2.09696    6.29620   -0.75029
 17 C     0.57267   -4.46528    1.04106
 18 C    -1.89282   -0.13308    2.93171
 19 C     1.48606    2.03581    2.65434
 20 C   -10.45662   -7.09525   -3.81573
 21 C     2.64288   -0.80256   -0.10640
 22 C    -1.05412    2.37536   -2.01449
 23 C     6.57514    5.06931    1.26555

System changes: positions

[...]

Density initialized from wave functions
    /      |              C                       |
   /       |           C    C   C                 |
  /        |    C  C                              |
 *         |  C      C  C C   C                   |
 |         | C          C                         |
 |         .---C---C------------C-----------------.
 |        /          C      C                    /
 |       /     C          C                     /
 |      /       C    C C                       /

[...]

Density initialized from wave functions
    /      |              C                       |
   /       |           C     C  C                 |
  /        |    C  C                              |
 *         |  C      C  C C   C                   |
 |         | C          C                         |
 |         .---C---C------------C-----------------.
 |        /          C      C                    /
 |       /     C          C                     /
 |      /       C   C  C                       /

[...]

Density initialized from wave functions
    /      |              C                       |
   /       |           C     C  C                 |
  /        |    C  C                              |
 *         |  C      C  C C   C                   |
 |         | C                                    |
 |         .---C---C----C-------C-----------------.
 |        /          C      C                    /
 |       /     C          C                     /
 |      /       C   C  C                       /

[...]

Density initialized from wave functions
    /      |              C                       |
   /       |           C     C  C                 |
  /        |    C  C                              |
 *         |  C      C  C C   C                   |
 |         | C                                    |
 |         .---C---C----C-------C-----------------.
 |        /          C      C                    /
 |       /     C          C                     /
 |      /       C   C  C                       /

[...]

Density initialized from wave functions
    /      |              C                       |
   /       |           C     C  C                 |
  /        |    C  C                              |
 *         |  C     C   C C   C                   |
 |         | C                                    |
 |         .---C---C-C--C-------C-----------------.
 |        /                 C                    /
 |       /     C          C                     /
 |      /       C   C  C                       /

[...]

Density initialized from wave functions
    /      |              C                       |
   /       |           C     C C                  |
  /        |    C  C                              |
 *         |  C     C   C C   C                   |
 |         | C                                    |
 |         .---C---C-C--C-------C-----------------.
 |        /                 C                    /
 |       /     C          C                     /
 |      /       C   C  C                       /

[...]

Density initialized from wave functions
    /      |              C                       |
   /       |           C     C C                  |
  /        |    C  C                              |
 *         |  C     C   C C   C                   |
 |         | C                                    |
 |         .---C---C-C---C------C-----------------.
 |        /                 C                    /
 |       /     C          C                     /
 |      /       C   C  C                       /

[...]

Density initialized from wave functions
    /      |              C                       |
   /       |           C     C C                  |
  /        |    C  C                              |
 *         |  C     C   C C   C                   |
 |         | C                                    |
 |         .---C---C-----C------C-----------------.
 |        /          C      C                    /
 |       /     C          C                     /
 |      /        C  C  C                       /

[...]

Density initialized from wave functions
    /      |              C                       |
   /       |           C     C C                  |
  /        |    C  C                              |
 *         |  C     C   C C   C                   |
 |         | C                                    |
 |         .---C---C-----C------C-----------------.
 |        /          C      C                    /
 |       /     C          C                     /
 |      /        C  C  C                       /

[...]

Density initialized from wave functions
    /      |              C                       |
   /       |           C     C C                  |
  /        |    C  C                              |
 *         |  C     C   C C   C                   |
 |         | C                  C                 |
 |         .---C---C-----C------C-----------------.
 |        /          C      C                    /
 |       /     C    C     C                     /
 |      /        C     C                       /

[...]

Density initialized from wave functions
    /      |              C                       |
   /       |           C     C C                  |
  /        |    C  C                              |
 *         |  C     C   C C   C                   |
 |         | C                  C                 |
 |         .---C---C-----C------C-----------------.
 |        /          C      C                    /
 |       /     C    C     C                     /
 |      /        C     C                       /

[...]

Density initialized from wave functions
    /      |              C                       |
   /       |           C     C C                  |
  /        |    C  C                              |
 *         |  C     C   C C   C                   |
 |         | C                  C                 |
 |         .---C---C-----C-----C------------------.
 |        /          C      C                    /
 |       /     C    C     C                     /
 |      /        C     C                       /

[...]

Density initialized from wave functions
    /      |              C                       |
   /       |           C     C                    |
  /        |    C  C           C                  |
 *         |  C     C   C C   C                   |
 |         | C                  C                 |
 |         .---C---C-----C-----C------------------.
 |        /          C      C                    /
 |       /     C    C     C                     /
 |      /        C     C                       /

[...]

Density initialized from wave functions
    /      |              C                       |
   /       |           C     C                    |
  /        |    C   C          C                  |
 *         |  C     C   C C   C                   |
 |         | C                  C                 |
 |         .---C---C-----C-----C------------------.
 |        /          C      C                    /
 |       /     C    C     C                     /
 |      /        C     C                       /

[...]

System changes: positions

Initializing position-dependent things.

Density initialized from wave functions
    /      |              C                       |
   /       |           C     C C                  |
  /        |    C   C                             |
 *         |  C     C   C C   C                   |
 |         | C                  C                 |
 |         .---C---C-----C-----C------------------.
 |        /          C      C                    /
 |       /     C    C     C                     /
 |      /        C     C                       /

Positions:
   0 C     10.822199    5.677973    5.380319
   1 C      9.304898    3.663756    4.674291
   2 C      9.637231    4.941268    5.135587
   3 C     10.914807    6.876288    5.755507
   4 C      8.159193    3.185869    4.438597
   5 C      9.903213    7.823796    6.057234
   6 C      8.414933    5.749198    5.400666
   7 C      6.921353    3.813288    4.614792
   8 C      8.593027    7.125454    5.872978
   9 C      7.077356    5.184232    5.172950
  10 C      9.910179    9.167439    6.480938
  11 C      8.830419    9.828435    6.761173
  12 C      3.384615    6.303895    5.637690
  13 C      4.554627    4.184803    4.671817
  14 C      4.461360    5.474515    5.259199
  15 C      5.560337    3.475714    4.405648
  16 C      3.554508    7.490666    6.134617
  17 C      4.037299    8.667053    6.599266
  18 C      5.863309    5.948971    5.474300
  19 C      5.425749    8.446681    6.470411
  20 C      6.093473    7.235000    5.994160
  21 C      7.561341   10.242683    6.987928
  22 C      6.847543    9.077530    6.637547
  23 C      7.397086    7.804958    6.165101

Unit cell:
           periodic     x           y           z      points  spacing
  1. axis:    yes   16.000000    0.000000    0.000000    80     0.2000
  2. axis:    yes    0.000000   16.000000    0.000000    80     0.2000
  3. axis:    yes    0.000000    0.000000   10.000000    48     0.2083

Effective grid spacing dv^(1/3) = 0.2027

                     log10-error:    total        iterations:
           time      wfs    density  energy       fermi  poisson
iter:   1  12:20:51          +inf  -185.807954    3      4
iter:   2  12:20:51         -2.83  -185.806418    2      1
iter:   3  12:20:52         -3.12  -185.804990    2      1
iter:   4  12:20:53         -3.42  -185.804127    2      1
iter:   5  12:20:53         -3.56  -185.803858    2      1
iter:   6  12:20:54         -3.71  -185.804361    2      1
iter:   7  12:20:54         -3.73  -185.804420    2      1
iter:   8  12:20:55         -3.24  -185.803940    2      1
iter:   9  12:20:56         -3.50  -185.803513    2      1
iter:  10  12:20:56         -4.18  -185.803605    2      1

Converged after 10 iterations.

Dipole moment: (0.373952, -0.755864, -0.278913) |e|*Ang

Energy contributions relative to reference atoms: (reference = -24663.074771)

Kinetic:       +117.950052
Potential:     -126.378191
External:        +0.000000
XC:            -180.278091
Entropy (-ST):   -0.202065
Local:           +3.003658
Free energy:   -185.904637
Extrapolated:  -185.803605

Fermi level: -4.38923

 Band  Eigenvalues  Occupancy
    0    -23.19881    2.00000
    1    -22.30969    2.00000
    2    -21.93409    2.00000
    3    -20.95705    2.00000
    4    -20.67552    2.00000
    5    -20.30882    2.00000
    6    -19.56736    2.00000
    7    -19.42817    2.00000
    8    -18.72846    2.00000
    9    -18.63108    2.00000
   10    -17.98338    2.00000
   11    -17.01466    2.00000
   12    -16.72085    2.00000
   13    -15.89500    2.00000
   14    -15.57860    2.00000
   15    -15.43207    2.00000
   16    -13.91007    2.00000
   17    -13.58099    2.00000
   18    -13.34972    2.00000
   19    -12.95298    2.00000
   20    -12.75308    2.00000
   21    -12.07004    2.00000
   22    -11.92241    2.00000
   23    -11.60336    2.00000
   24    -11.15890    2.00000
   25    -11.09503    2.00000
   26    -10.93270    2.00000
   27    -10.51995    2.00000
   28     -9.92696    2.00000
   29     -9.84639    2.00000
   30     -9.80352    2.00000
   31     -9.47921    2.00000
   32     -8.98941    2.00000
   33     -8.64664    2.00000
   34     -8.47347    2.00000
   35     -8.19270    2.00000
   36     -7.19624    2.00000
   37     -7.14997    2.00000
   38     -7.11577    2.00000
   39     -6.77815    2.00000
   40     -6.75920    2.00000
   41     -6.66366    2.00000
   42     -6.59961    2.00000
   43     -6.48656    2.00000
   44     -6.43299    2.00000
   45     -5.42444    1.99994
   46     -4.65797    1.87256
   47     -4.60859    1.79934
   48     -4.22636    0.32802
   49     -3.43583    0.00014
   50     -3.11651    0.00001
   51     -2.90718    0.00000
   52     -2.83691    0.00000
   53     -2.67165    0.00000
   54     -2.19250    0.00000
   55     -1.82563    0.00000
   56     -1.41328    0.00000
   57     -1.08790    0.00000
   58     -0.23761    0.00000
   59      0.01400    0.00000
[...]
   83      8.97801    0.00000
   84      9.04306    0.00000
   85      9.07773    0.00000
   86      9.16299    0.00000
   87      9.32016    0.00000
   88      9.44715    0.00000
   89      9.48436    0.00000
   90      9.49409    0.00000
   91      9.55234    0.00000
   92      9.77349    0.00000
   93     10.18665    0.00000
   94     10.19665    0.00000
   95     10.24748    0.00000
   96     10.29140    0.00000
   97     10.44410    0.00000

Forces in eV/Ang:
  0 C     0.01675   -0.02159   -0.00983
  1 C     0.03041   -0.00438   -0.04545
  2 C    -0.03951    0.01786   -0.04268
  3 C     0.03402   -0.01677   -0.01861
  4 C    -0.00080    0.02069    0.00820
  5 C    -0.05825    0.00498    0.07155
  6 C     0.06524    0.04515    0.02659
  7 C    -0.01136   -0.02172    0.00676
  8 C    -0.03046    0.04523   -0.00317
  9 C    -0.02242   -0.01925   -0.02451
 10 C     0.05190    0.04253    0.04150
 11 C     0.00479    0.00496    0.01103
 12 C    -0.00423    0.02681   -0.03337
 13 C    -0.03580   -0.00996    0.06153
 14 C    -0.01069   -0.00232    0.00587
 15 C     0.01948   -0.00626    0.01718
 16 C     0.01550   -0.00757    0.01334
 17 C     0.02632   -0.03795   -0.01979
 18 C    -0.00511   -0.00046   -0.00161
 19 C    -0.00950   -0.04416   -0.02830
 20 C    -0.01831   -0.02584   -0.01961
 21 C    -0.00517    0.03917    0.00642
 22 C     0.04205   -0.01922    0.00373
 23 C    -0.00434    0.00035    0.00377