User:   esb@s65n64.grendel.cscaa.dk
Date:   Wed Nov  8 15:13:06 2017
Arch:   x86_64
Pid:    80658
Python: 2.7.13
gpaw:   /home/esb/DFT/gpaw_git/gpaw
_gpaw:  /home/esb/DFT/gpaw_git/build/bin.linux-x86_64-2.7/gpaw-python
ase:    /home/esb/DFT/ase_git/ase (version 3.15.0b1)
numpy:  /comm/swstack/core/python/2.7.13/lib/python2.7/site-packages/numpy (version 1.13.3)
scipy:  /comm/swstack/core/python/2.7.13/lib/python2.7/site-packages/scipy (version 0.19.1)
units:  Angstrom and eV
cores:  16
Extra parameters: {'blacs': True}

Input parameters:
  basis: dzp
  gpts: [80 80 48]
  kpts: [1 1 1]
  maxiter: 99
  mixer: {backend: pulay,
          beta: 0.05,
          method: separate,
          nmaxold: 5,
          weight: 75}
  mode: lcao
  nbands: -50
  occupations: {name: fermi-dirac,
                width: 0.1}
  poissonsolver: {eps: 1e-07,
                  name: fd,
                  nn: 3,
                  relax: GS}
  xc: PBE

System changes: positions, numbers, cell, pbc, initial_charges, initial_magmoms

Initialize ...

C-setup:
  name: Carbon
  id: 4aa54d4b901d75f77cc0ea3eec22967b
  Z: 6
  valence: 4
  core: 2
  charge: 0.0
  file: /home/esb/DFT/gpaw-setups-0.8.7929/C.PBE.gz
  cutoffs: 0.64(comp), 1.14(filt), 1.14(core), lmax=2
  valence states:
                energy  radius
    2s(2.00)   -13.751   0.635
    2p(2.00)    -5.284   0.635
    *s          13.461   0.635
    *p          21.927   0.635
    *d           0.000   0.635

  LCAO basis set for C:
    Name: dzp
    File: /home/esb/DFT/gpaw-setups-0.8.7929/C.dzp.basis.gz
    Number of radial functions: 5
    Number of spherical harmonics: 13
      l=0, rc=5.5469 Bohr: 2s-sz confined orbital
      l=1, rc=6.6719 Bohr: 2p-sz confined orbital
      l=0, rc=3.0312 Bohr: 2s-dz split-valence wave
      l=1, rc=3.7500 Bohr: 2p-dz split-valence wave
      l=2, rc=6.6719 Bohr: d-type Gaussian polarization

Reference energy: -24663.074771

Spin-paired calculation

Occupation numbers:
  Fermi-Dirac: width=0.1000 eV

Convergence criteria:
  Maximum total energy change: 0.0005 eV / electron
  Maximum integral of absolute density change: 0.0001 electrons
  Maximum integral of absolute eigenstate change: 4e-08 eV^2
  Maximum number of iterations: 99

Symmetries present (total): 1

  ( 1  0  0)
  ( 0  1  0)
  ( 0  0  1)

1 k-point (Gamma)
1 k-point in the irreducible part of the Brillouin zone
       k-points in crystal coordinates                weights
   0:     0.00000000    0.00000000    0.00000000          1/1

Wave functions: LCAO
  Diagonalizer: Serial LAPACK
  Atomic Correction: dense with blas
  Datatype: float
  Eigensolver: None

LCAO using direct dense diagonalizer

Densities:
  Coarse grid: 80*80*48 grid
  Fine grid: 160*160*96 grid
  Total Charge: 0.000000

Density mixing:
  Method: separate
  Backend: pulay
  Linear mixing parameter: 0.05
  Mixing with 5 old densities
  Damping of long wave oscillations: 75

Hamiltonian:
  XC and Coulomb potentials evaluated on a 160*160*96 grid
  Using the PBE Exchange-Correlation functional
  Interpolation: tri-quintic (5. degree polynomial)
  Poisson solver: Gauss-Seidel solver with 6 multi-grid levels
    Coarsest grid: 5 x 5 x 3 points
    Stencil: 6*3+1=19 point O(h^6) finite-difference Laplacian
    Max iterations: 1000
    Tolerance: 1.000000e-07

Total number of cores used: 16
Domain decomposition: 2 x 4 x 2

Number of atoms: 24
Number of atomic orbitals: 312
Number of bands in calculation: 98
Bands to converge: occupied states only
Number of valence electrons: 96

... initialized

Initializing position-dependent things.

Density initialized from atomic densities
   /       |             C                        |
  /        |         C  C  C  C                   |
 *         |       C  C       C                   |
 |         |    C   C   C   C    C  C             |
 |         .---C--C------C---C-C---C--------------.
 |        /         C   C C  C                   /

Positions:
   0 C      5.456213   10.433322    5.077592
   1 C     12.064704    7.009948    5.090786
   2 C      5.945653    7.408359    5.690607
   3 C      7.976040    5.286059    4.767983
   4 C      8.324622    6.625510    4.969951
   5 C      6.542179    5.285819    4.384965
   6 C      5.564648    5.936087    5.296974
   7 C     12.027224    8.314764    5.034292
   8 C     10.351991    4.966336    4.940739
   9 C     10.814364    6.323872    5.012344
  10 C      9.628146    7.171908    5.001978
  11 C      9.171731    4.515423    4.816799
  12 C      6.353380    9.258110    5.133453
  13 C      7.381296    8.129783    5.092077
  14 C      4.092744    8.038366    5.068559
  15 C      6.638658   10.649543    5.113913
  16 C      6.568102   12.015660    5.091087
  17 C      4.231411    6.662433    4.970170
  18 C      5.001731    8.920480    5.138038
  19 C      7.908677   11.489420    4.984229
  20 C      9.054009   10.900096    4.847624
  21 C      9.580206    9.629463    4.871130
  22 C      8.742017    8.439200    5.060968
  23 C     10.693670    8.764204    4.698033

Unit cell:
           periodic     x           y           z      points  spacing
  1. axis:    yes   16.000000    0.000000    0.000000    80     0.2000
  2. axis:    yes    0.000000   16.000000    0.000000    80     0.2000
  3. axis:    yes    0.000000    0.000000   10.000000    48     0.2083

Effective grid spacing dv^(1/3) = 0.2027

                     log10-error:    total        iterations:
           time      wfs    density  energy       fermi  poisson
iter:   1  15:13:08          +inf  -166.380239    2      6
iter:   2  15:13:08         -0.91  -164.781540    3      3
iter:   3  15:13:09         -0.97  -163.708694    3      3
iter:   4  15:13:10         -1.03  -162.612666    34     3
iter:   5  15:13:10         -1.18  -162.326923    4      3
iter:   6  15:13:11         -1.29  -162.204995    34     3
iter:   7  15:13:11         -1.57  -162.130712    3      3
iter:   8  15:13:12         -1.69  -162.089157    3      2
iter:   9  15:13:12         -1.83  -162.073179    3      2
iter:  10  15:13:13         -1.92  -162.054826    3      2
iter:  11  15:13:13         -2.11  -162.039692    3      2
iter:  12  15:13:14         -2.24  -162.041272    3      2
iter:  13  15:13:14         -2.31  -162.042178    3      2
iter:  14  15:13:15         -2.39  -162.046194    3      2
iter:  15  15:13:15         -2.89  -162.036034    3      2
iter:  16  15:13:16         -3.01  -162.037300    2      1
iter:  17  15:13:16         -3.11  -162.032566    2      1
iter:  18  15:13:17         -3.38  -162.028698    2      1
iter:  19  15:13:17         -3.53  -162.031740    2      1
iter:  20  15:13:18         -3.74  -162.031275    2      1
iter:  21  15:13:18         -3.91  -162.032562    2      1
iter:  22  15:13:19         -3.95  -162.032863    2      1
iter:  23  15:13:19         -4.00  -162.032721    2      1
iter:  24  15:13:20         -4.15  -162.033531    2      1

Converged after 24 iterations.

Dipole moment: (-0.397729, -0.003035, 0.058224) |e|*Ang

Energy contributions relative to reference atoms: (reference = -24663.074771)

Kinetic:       +150.001240
Potential:     -136.025388
External:        +0.000000
XC:            -178.750695
Entropy (-ST):   -0.304213
Local:           +2.893419
Free energy:   -162.185638
Extrapolated:  -162.033531

Fermi level: -4.23919

 Band  Eigenvalues  Occupancy
    0    -27.21932    2.00000
    1    -23.61371    2.00000
    2    -23.36242    2.00000
    3    -22.24727    2.00000
    4    -21.46602    2.00000
    5    -21.04566    2.00000
    6    -19.93655    2.00000
    7    -19.81133    2.00000
    8    -19.45529    2.00000
    9    -18.65740    2.00000
   10    -18.07486    2.00000
   11    -17.51850    2.00000
   12    -16.54123    2.00000
   13    -16.11732    2.00000
   14    -15.65350    2.00000
   15    -15.12790    2.00000
   16    -14.36771    2.00000
   17    -13.92372    2.00000
   18    -13.72125    2.00000
   19    -13.34009    2.00000
   20    -12.90860    2.00000
   21    -12.48105    2.00000
   22    -12.18319    2.00000
   23    -12.06858    2.00000
   24    -11.47443    2.00000
   25    -10.98941    2.00000
   26    -10.73553    2.00000
   27    -10.54831    2.00000
   28    -10.21442    2.00000
   29    -10.14923    2.00000
   30     -9.75718    2.00000
   31     -9.14082    2.00000
   32     -8.72246    2.00000
   33     -8.57112    2.00000
   34     -8.41788    2.00000
   35     -7.79480    2.00000
   36     -7.17392    2.00000
   37     -6.93856    2.00000
   38     -6.77870    2.00000
   39     -6.43844    2.00000
   40     -6.37504    2.00000
   41     -6.23465    2.00000
   42     -5.86020    2.00000
   43     -5.44249    1.99999
   44     -5.16283    1.99981
   45     -4.85451    1.99576
   46     -4.72348    1.98435
   47     -4.29975    1.29385
   48     -4.16558    0.64769
   49     -3.90830    0.07053
   50     -3.67958    0.00740
   51     -3.40061    0.00046
   52     -3.30000    0.00017
   53     -2.58154    0.00000
   54     -2.45726    0.00000
   55     -2.05874    0.00000
   56     -1.99610    0.00000
   57     -1.57522    0.00000
   58     -0.84521    0.00000
   59     -0.64658    0.00000
[...]
   83      8.21370    0.00000
   84      8.48716    0.00000
   85      8.57477    0.00000
   86      8.81123    0.00000
   87      8.94456    0.00000
   88      9.12391    0.00000
   89      9.24542    0.00000
   90      9.38259    0.00000
   91      9.41279    0.00000
   92      9.50202    0.00000
   93      9.60446    0.00000
   94      9.71016    0.00000
   95      9.80539    0.00000
   96      9.98552    0.00000
   97     10.19996    0.00000

Forces in eV/Ang:
  0 C   -19.16725   -1.36739   -0.78921
  1 C     0.19653   -1.66307    0.34463
  2 C     1.21022   -3.79093    0.89479
  3 C    -2.47217   -0.51580   -0.53068
  4 C     0.39096   -1.07149   -0.64832
  5 C    -1.21736   -0.25231    3.42818
  6 C     0.33593    2.65924   -3.04284
  7 C    -2.92684    2.25906   -1.52007
  8 C     0.92598    0.58703    0.08552
  9 C     0.24626   -1.76480    0.51992
 10 C    -2.19962    0.36082   -0.01347
 11 C    -0.66034    0.12964   -0.41980
 12 C     6.51009   -4.69220   -0.79823
 13 C    -0.82812   -0.53817    0.78027
 14 C    -3.56252   -6.96347   -0.54409
 15 C     9.67781   -0.38330    0.68484
 16 C     3.64304    6.28101   -0.19487
 17 C     0.52722   -0.23657   -0.48359
 18 C     3.28051    5.70303    1.26669
 19 C    -0.56620    1.91382   -0.04003
 20 C     2.70636    0.71723   -0.25533
 21 C    -1.00333   -1.54774   -0.05906
 22 C     0.95048    2.77444    0.43996
 23 C     3.93770    1.48685    0.93510

System changes: positions

[...]

Density initialized from wave functions
   /       |             C                        |
  /        |         C  C  C  C                   |
 *         |       C  C       C                   |
 |         |    C   C   C   C    C  C             |
 |         .---C--C------C---C-C---C--------------.
 |        /         C   C C  C                   /

[...]

Density initialized from wave functions
   /       |             C                        |
  /        |        C   C   C C                   |
 *         |       C   C      C                   |
[...]
 |         |    C       C   CC   C C              |
 |         .----C-C------C-----C---C--------------.
 |        /         C  C  C  C                   /

[...]

Density initialized from wave functions
   /       |             C                        |
  /        |       C   C    C C                   |
 *         |       CC  C       C                  |
 |         |    C       C   CC    CC              |
 |         .----C-C------C-----C---C--------------.
 |        /         C  C  C  C                   /

[...]

Density initialized from wave functions
   /       |             C                        |
  /        |       C   C    C C                   |
 *         |       CC  C       C                  |
 |         |    C       C   CC    CC              |
 |         .----C-C------C-----C---C--------------.
 |        /         C  C  C  C                   /

[...]

Density initialized from wave functions
   /       |             C                        |
  /        |       C   C    C C                   |
 *         |       CC  C       C  C               |
 |         |    C       C   CC     C              |
 |         .----C-C------C-----C---C--------------.
 |        /         C  C  C  C                   /

[...]

Density initialized from wave functions
   /       |             C                        |
  /        |       C   C    C  C                  |
 *         |       CC  C       C  C               |
 |         |    C       C   CC     C              |
 |         .----C-C------C-----C---C--------------.
 |        /         C  C  C  C                   /

[...]

Density initialized from wave functions
   /       |             C                        |
  /        |       C   C    C  C                  |
 *         |       C   C       C  C               |
 |         |    C        C  CC     C              |
 |         .----C-C------C-----C---C--------------.
 |        /         C  C  C  C                   /

[...]

Density initialized from wave functions
   /       |             C                        |
  /        |       C   C    C  C                  |
 *         |       C   C       C  C               |
 |         |     C       C  CC     C              |
 |         .----C-C------C-----C---C--------------.
 |        /         C  C  C  C                   /

[...]

Density initialized from wave functions
   /       |             C                        |
  /        |       C   C     C C                  |
 *         |       C   C       C  C               |
 |         |     C       C  C      C              |
 |         .----C-C------C-----C---C--------------.
 |        /         C  C  C  C                   /

[...]

Density initialized from wave functions
   /       |             C                        |
  /        |       C   C     C C                  |
 *         |       C   C       C  C               |
 |         |     C       C  C      C              |
 |         .----C-C------C-----C---C--------------.
 |        /         C  C  C  C                   /

[...]

Density initialized from wave functions
  /        |       C   C C   C C                  |
 *         |       C   C       C  C               |
 |         |     C       C  C      C              |
 |         .----C-C------C-----C---C--------------.
 |        /         C  C  C  C                   /

[...]

Density initialized from wave functions
  /        |       C   C C   C C                  |
 *         |       C   C       C   C              |
 |         |     C       C  C      C              |
 |         .----C-C------C-----C--C---------------.
 |        /         C  C  C  C                   /

[...]

Density initialized from wave functions
  /        |       C   C C   C C                  |
 *         |       C   C       C   C              |
 |         |     C       C  C      C              |
 |         .----C-C------C-----C--C---------------.
 |        /         C  C  C  C                   /

[...]

Density initialized from wave functions
  /        |       C   C C   C C                  |
 *         |       C   C       C   C              |
 |         |     C C     C  CC     C              |
 |         .----C-C------C-----C--C---------------.
 |        /         C  C  C  C                   /

[...]

Density initialized from wave functions
  /        |       C   C C   C C                  |
 *         |       C   C       C   C              |
 |         |     C C     C  CC     C              |
 |         .----C-C------C-----C--C---------------.
 |        /         C  C  C  C                   /

[...]

Density initialized from wave functions
  /        |       C   C C   C C                  |
 *         |       C   C       C   C              |
 |         |     CC      C  CC     C              |
 |         .----C-C------C-----C--C---------------.
 |        /         C  C  C  C                   /

[...]

Density initialized from wave functions
  /        |       C   C C   C C                  |
 *         |       C   C        C  C              |
 |         |     CC      C  CC     C              |
 |         .----C-C------C-----C--C---------------.
 |        /         C  C  C  C                   /

[...]

Density initialized from wave functions
  /        |       C   C C   C C                  |
 *         |       C   C        C  C              |
 |         |     CC      C   C     C              |
 |         .----C-C------C-----C--C---------------.
 |        /         C  C  C  C                   /

[...]

Density initialized from wave functions
  /        |       C   C C   C C                  |
 *         |       C   C        C  C              |
 |         |     CC      C   C     C              |
 |         .----C-C------C-----C--C---------------.
 |        /         C  C  C  C                   /

[...]

Density initialized from wave functions
  /        |       C   C C   C C                  |
 *         |       C   C        C  C              |
 |         |     CC      C   C     C              |
 |         .----CC-------C---C-C--C---------------.
 |        /         C  C  C  C                   /

[...]

Density initialized from wave functions
  /        |       C   C C   C C                  |
 *         |       C   C        C  C              |
 |         |     CC      C   C     C              |
 |         .----CC-------C---C-C--C---------------.
 |        /         C  C  C  C                   /

[...]

Density initialized from wave functions
  /        |       C   C C   C C                  |
 *         |       C   C        C  C              |
 |         |     CC      C   C     C              |
 |         .----CC-------C---C-C---C--------------.
 |        /         C  C  C  C                   /

[...]

Density initialized from wave functions
  /        |       C   C  C  C C                  |
 *         |       C   C        C  C              |
 |         |     CC      C   C     C              |
 |         .---C-C-------C---C-C---C--------------.
 |        /         C  C  C  C                   /

[...]

Density initialized from wave functions
  /        |       C   C  C  C C                  |
 *         |      CC   C        C  C              |
 |         |     C       C   C     C              |
 |         .---C-C-------C---C-C---C--------------.
 |        /         C  C  C  C                   /

[...]

Density initialized from wave functions
  /        |       C   C  C  C C                  |
 *         |      CC   C        C  C              |
 |         |     C       C   C     C              |
 |         .---C-C-------C---C-C---C--------------.
 |        /         C  C  C  C                   /

[...]

Density initialized from wave functions
  /        |       C   C  C  C C                  |
 *         |     C C   C        C  C              |
 |         |     C       C   C     C              |
 |         .---C-C-------C---C-C--C---------------.
 |        /         C  C  C  C                   /

[...]

Density initialized from wave functions
  /        |       C   C C   C C                  |
 *         |     C C   C        C  C              |
 |         |     C       C   C     C              |
 |         .---C-C-------C---C-C--C---------------.
 |        /         C  C  C  C                   /

[...]

Density initialized from wave functions
  /        |           C C   C C                  |
 *         |     C C   C        C  C              |
 |         |     C       C   C     C              |
 |         .---C-C-------C---C-C---C--------------.
 |        /         C  C  C  C                   /

[...]

Density initialized from wave functions
  /        |           C C   C C                  |
 *         |     C C   C        C  C              |
 |         |     C       C   C     C              |
 |         .---C-C-------C-----C---C--------------.
 |        /         C  C  C  C                   /

[...]

Density initialized from wave functions
  /        |           C C   C C                  |
 *         |     C C   C        C  C              |
 |         |     C       C   C     C              |
 |         .---C-C-------C-----C---C--------------.
 |        /         C  C  C  C                   /

[...]

Density initialized from wave functions
  /        |           C C   C C                  |
 *         |     C C   C        C  C              |
 |         |     C       C   C     C              |
 |         .-----C-------C-----C---C--------------.
 |        /    C    C  C  C  C                   /

[...]

Density initialized from wave functions
  /        |           C C   C C                  |
 *         |     C C   C        C  C              |
 |         |     C       C   C     C              |
 |         .-----C-------C-----C---C--------------.
 |        /    C    C  C  C  C                   /

[...]

Density initialized from wave functions
  /        |           C C   C C                  |
 *         |    C  C   C        C  C              |
 |         |     C       C   C     C              |
 |         .-----C-------C---C-C---C--------------.
 |        /    C    C  C  C  C                   /

[...]

Density initialized from wave functions
  /        |       C   C C   C C                  |
 *         |    C  C   C        C  C              |
 |         |     C       C   C     C              |
 |         .-----C-------C---C-C---C--------------.
 |        /    C    C  C  C  C                   /

[...]

System changes: positions

Initializing position-dependent things.

Density initialized from wave functions
  /        |       C   C C   C C                  |
 *         |    C  C   C        C  C              |
 |         |     C       C   C     C              |
 |         .-----C-------C---C-C---C--------------.
 |        /     C   C  C  C  C                   /

Positions:
   0 C      4.746965   10.214345    5.117518
   1 C     12.014142    6.948417    4.920677
   2 C      4.634324    6.471863    6.251806
   3 C      7.707650    5.533797    4.916601
   4 C      8.121491    6.930736    4.969118
   5 C      6.380001    5.110682    4.995766
   6 C      5.174925    5.530250    5.179344
   7 C     11.902563    8.271432    4.971533
   8 C     10.116823    5.113463    4.793414
   9 C     10.681649    6.424834    4.873825
  10 C      9.514072    7.306385    4.932015
  11 C      8.910723    4.752755    4.803836
  12 C      6.513886    9.101121    5.088595
  13 C      7.716653    8.417074    5.016402
  14 C      4.519918    7.530032    5.313008
  15 C      6.144899   10.654433    5.020736
  16 C      7.048383   11.609126    4.936603
  17 C      4.294081    6.467948    4.392078
  18 C      5.091343    8.842322    5.197578
  19 C      8.383136   11.627414    4.907392
  20 C      9.545739   11.136336    4.913951
  21 C     10.140299    9.838825    4.947331
  22 C      9.210985    8.730753    4.960124
  23 C     11.535852    9.522133    4.981906

Unit cell:
           periodic     x           y           z      points  spacing
  1. axis:    yes   16.000000    0.000000    0.000000    80     0.2000
  2. axis:    yes    0.000000   16.000000    0.000000    80     0.2000
  3. axis:    yes    0.000000    0.000000   10.000000    48     0.2083

Effective grid spacing dv^(1/3) = 0.2027

                     log10-error:    total        iterations:
           time      wfs    density  energy       fermi  poisson
iter:   1  15:22:39          +inf  -179.614572    2      5
iter:   2  15:22:40         -2.75  -179.612495    2      1
iter:   3  15:22:40         -2.91  -179.610226    2      1
iter:   4  15:22:41         -3.02  -179.608768    2      1
iter:   5  15:22:41         -3.12  -179.608797    2      2
iter:   6  15:22:42         -3.33  -179.609071    2      1
iter:   7  15:22:42         -3.21  -179.609136    2      1
iter:   8  15:22:43         -3.66  -179.608922    2      1
iter:   9  15:22:43         -3.78  -179.609136    2      1
iter:  10  15:22:43         -3.79  -179.609023    2      1
iter:  11  15:22:44         -3.48  -179.608645    2      1
iter:  12  15:22:44         -3.82  -179.608790    2      1
iter:  13  15:22:45         -4.25  -179.608915    2      1

Converged after 13 iterations.

Dipole moment: (-0.194558, 0.005646, -0.030088) |e|*Ang

Energy contributions relative to reference atoms: (reference = -24663.074771)

Kinetic:       +113.895450
Potential:     -120.780943
External:        +0.000000
XC:            -175.589177
Entropy (-ST):   -0.164113
Local:           +2.947812
Free energy:   -179.690971
Extrapolated:  -179.608915

Fermi level: -4.43283

 Band  Eigenvalues  Occupancy
    0    -23.52953    2.00000
    1    -22.91639    2.00000
    2    -22.37015    2.00000
    3    -21.20594    2.00000
    4    -20.84806    2.00000
    5    -20.44233    2.00000
    6    -19.76767    2.00000
    7    -19.26248    2.00000
    8    -18.23627    2.00000
    9    -18.15642    2.00000
   10    -17.78534    2.00000
   11    -16.67742    2.00000
   12    -16.61135    2.00000
   13    -16.13701    2.00000
   14    -15.02518    2.00000
   15    -14.53191    2.00000
   16    -14.40153    2.00000
   17    -14.27847    2.00000
   18    -13.19830    2.00000
   19    -12.82895    2.00000
   20    -12.60016    2.00000
   21    -12.43285    2.00000
   22    -11.98541    2.00000
   23    -11.00228    2.00000
   24    -10.94694    2.00000
   25    -10.59556    2.00000
   26    -10.48767    2.00000
   27    -10.40781    2.00000
   28     -9.91923    2.00000
   29     -9.75026    2.00000
   30     -9.47266    2.00000
   31     -9.37520    2.00000
   32     -9.15374    2.00000
   33     -9.09596    2.00000
   34     -8.44501    2.00000
   35     -8.18599    2.00000
   36     -7.62398    2.00000
   37     -7.46953    2.00000
   38     -7.07729    2.00000
   39     -6.87517    2.00000
   40     -6.55119    2.00000
   41     -6.49339    2.00000
   42     -5.93145    2.00000
   43     -5.71121    1.99999
   44     -5.66684    1.99999
   45     -5.09970    1.99746
   46     -4.74382    1.91459
   47     -4.69689    1.86686
   48     -4.21008    0.19461
   49     -4.00169    0.02647
   50     -3.24196    0.00001
   51     -2.90797    0.00000
   52     -2.85969    0.00000
   53     -2.09606    0.00000
   54     -1.92963    0.00000
   55     -1.71377    0.00000
   56     -1.54961    0.00000
   57     -1.53013    0.00000
   58     -1.39926    0.00000
   59     -1.23641    0.00000
[...]
   83      8.56041    0.00000
   84      8.72147    0.00000
   85      8.86603    0.00000
   86      8.90914    0.00000
   87      9.15885    0.00000
   88      9.33824    0.00000
   89      9.39206    0.00000
   90      9.40216    0.00000
   91      9.49474    0.00000
   92      9.61947    0.00000
   93      9.77728    0.00000
   94      9.84208    0.00000
   95     10.09195    0.00000
   96     10.19191    0.00000
   97     10.28436    0.00000

Forces in eV/Ang:
  0 C    -0.03523    0.02150    0.01227
  1 C     0.00096    0.02246   -0.01164
  2 C    -0.01377    0.02379    0.06809
  3 C     0.05939    0.01667    0.01396
  4 C    -0.00898    0.02056   -0.00129
  5 C    -0.01894   -0.06524    0.00203
  6 C    -0.02323   -0.03856    0.00975
  7 C    -0.00592    0.03147   -0.05131
  8 C     0.03900   -0.00211    0.01308
  9 C    -0.01587   -0.00634   -0.01286
 10 C    -0.00233   -0.00339    0.00976
 11 C    -0.02178   -0.00787    0.04076
 12 C     0.00018   -0.00708   -0.00998
 13 C     0.00187   -0.00795    0.00343
 14 C    -0.03394   -0.02343   -0.04105
 15 C     0.01422   -0.00089    0.01330
 16 C     0.01332    0.01621    0.01677
 17 C    -0.04746   -0.00994   -0.07520
 18 C     0.02615    0.00081    0.01507
 19 C     0.00582   -0.00568   -0.00742
 20 C    -0.01392   -0.00973    0.01150
 21 C    -0.00903   -0.03021    0.02168
 22 C    -0.02186   -0.00209    0.01774
 23 C    -0.00686   -0.02178   -0.01434