User:   esb@s65n53.grendel.cscaa.dk
Date:   Wed Nov  8 14:12:55 2017
Arch:   x86_64
Pid:    91612
Python: 2.7.13
gpaw:   /home/esb/DFT/gpaw_git/gpaw
_gpaw:  /home/esb/DFT/gpaw_git/build/bin.linux-x86_64-2.7/gpaw-python
ase:    /home/esb/DFT/ase_git/ase (version 3.15.0b1)
numpy:  /comm/swstack/core/python/2.7.13/lib/python2.7/site-packages/numpy (version 1.13.3)
scipy:  /comm/swstack/core/python/2.7.13/lib/python2.7/site-packages/scipy (version 0.19.1)
units:  Angstrom and eV
cores:  16
Extra parameters: {'blacs': True}

Input parameters:
  basis: dzp
  gpts: [80 80 48]
  kpts: [1 1 1]
  maxiter: 99
  mixer: {backend: pulay,
          beta: 0.05,
          method: separate,
          nmaxold: 5,
          weight: 75}
  mode: lcao
  nbands: -50
  occupations: {name: fermi-dirac,
                width: 0.1}
  poissonsolver: {eps: 1e-07,
                  name: fd,
                  nn: 3,
                  relax: GS}
  xc: PBE

System changes: positions, numbers, cell, pbc, initial_charges, initial_magmoms

Initialize ...

C-setup:
  name: Carbon
  id: 4aa54d4b901d75f77cc0ea3eec22967b
  Z: 6
  valence: 4
  core: 2
  charge: 0.0
  file: /home/esb/DFT/gpaw-setups-0.8.7929/C.PBE.gz
  cutoffs: 0.64(comp), 1.14(filt), 1.14(core), lmax=2
  valence states:
                energy  radius
    2s(2.00)   -13.751   0.635
    2p(2.00)    -5.284   0.635
    *s          13.461   0.635
    *p          21.927   0.635
    *d           0.000   0.635

  LCAO basis set for C:
    Name: dzp
    File: /home/esb/DFT/gpaw-setups-0.8.7929/C.dzp.basis.gz
    Number of radial functions: 5
    Number of spherical harmonics: 13
      l=0, rc=5.5469 Bohr: 2s-sz confined orbital
      l=1, rc=6.6719 Bohr: 2p-sz confined orbital
      l=0, rc=3.0312 Bohr: 2s-dz split-valence wave
      l=1, rc=3.7500 Bohr: 2p-dz split-valence wave
      l=2, rc=6.6719 Bohr: d-type Gaussian polarization

Reference energy: -24663.074771

Spin-paired calculation

Occupation numbers:
  Fermi-Dirac: width=0.1000 eV

Convergence criteria:
  Maximum total energy change: 0.0005 eV / electron
  Maximum integral of absolute density change: 0.0001 electrons
  Maximum integral of absolute eigenstate change: 4e-08 eV^2
  Maximum number of iterations: 99

Symmetries present (total): 1

  ( 1  0  0)
  ( 0  1  0)
  ( 0  0  1)

1 k-point (Gamma)
1 k-point in the irreducible part of the Brillouin zone
       k-points in crystal coordinates                weights
   0:     0.00000000    0.00000000    0.00000000          1/1

Wave functions: LCAO
  Diagonalizer: Serial LAPACK
  Atomic Correction: dense with blas
  Datatype: float
  Eigensolver: None

LCAO using direct dense diagonalizer

Densities:
  Coarse grid: 80*80*48 grid
  Fine grid: 160*160*96 grid
  Total Charge: 0.000000

Density mixing:
  Method: separate
  Backend: pulay
  Linear mixing parameter: 0.05
  Mixing with 5 old densities
  Damping of long wave oscillations: 75

Hamiltonian:
  XC and Coulomb potentials evaluated on a 160*160*96 grid
  Using the PBE Exchange-Correlation functional
  Interpolation: tri-quintic (5. degree polynomial)
  Poisson solver: Gauss-Seidel solver with 6 multi-grid levels
    Coarsest grid: 5 x 5 x 3 points
    Stencil: 6*3+1=19 point O(h^6) finite-difference Laplacian
    Max iterations: 1000
    Tolerance: 1.000000e-07

Total number of cores used: 16
Domain decomposition: 2 x 4 x 2

Number of atoms: 24
Number of atomic orbitals: 312
Number of bands in calculation: 98
Bands to converge: occupied states only
Number of valence electrons: 96

... initialized

Initializing position-dependent things.

Density initialized from atomic densities
  /        |        C   C C   C                   |
 *         |            C   C   C                 |
 |         |   C C C       CC C  C                |
 |         .--C-----C---C------CC-----------------.
 |        /            C   C   C                 /
 |       /        C                             /
 |      /          C                           /

Positions:
   0 C      3.577121    7.056713    4.803530
   1 C      8.536501    7.662500    4.921587
   2 C      9.530743    6.240841    5.524037
   3 C      9.321807    9.487969    4.430029
   4 C      8.287310   10.537614    4.495866
   5 C      5.916823    7.727318    4.377006
   6 C      9.489706    4.769891    5.390690
   7 C      4.376654    8.003106    4.792830
   8 C      5.344877    7.875212    5.436876
   9 C      5.142092   10.789989    4.953491
  10 C      3.589993    8.792355    4.417468
  11 C      6.699403   11.340201    4.393329
  12 C      5.873407    4.741659    4.453295
  13 C      7.720681    4.887203    5.226395
  14 C      6.298217    3.548912    4.324900
  15 C     10.154211   10.162354    4.293050
  16 C     11.188760    5.017777    4.704763
  17 C      6.616707   10.209992    5.282992
  18 C      7.724475    6.887669    4.693554
  19 C     11.023763    8.053951    4.967247
  20 C     11.103382    6.025393    5.246859
  21 C      8.880887   11.104867    5.458830
  22 C      7.535982   11.352971    5.137526
  23 C     10.019944    8.125052    4.471165

Unit cell:
           periodic     x           y           z      points  spacing
  1. axis:    yes   16.000000    0.000000    0.000000    80     0.2000
  2. axis:    yes    0.000000   16.000000    0.000000    80     0.2000
  3. axis:    yes    0.000000    0.000000   10.000000    48     0.2083

Effective grid spacing dv^(1/3) = 0.2027

                     log10-error:    total        iterations:
           time      wfs    density  energy       fermi  poisson
iter:   1  14:12:57          +inf  -128.417496    3      6
iter:   2  14:12:58         -0.80  -125.296535    4      3
iter:   3  14:12:58         -0.87  -121.897090    3      3
iter:   4  14:12:59         -0.97  -120.836262    3      3
iter:   5  14:12:59         -1.04  -119.787246    4      3
iter:   6  14:13:00         -1.13  -118.827000    4      3
iter:   7  14:13:00         -1.37  -118.730015    4      3
iter:   8  14:13:01         -1.51  -118.621215    3      3
iter:   9  14:13:01         -1.74  -118.604688    3      2
iter:  10  14:13:02         -1.80  -118.561598    4      3
iter:  11  14:13:02         -2.04  -118.552441    3      3
iter:  12  14:13:03         -2.29  -118.553417    3      2
iter:  13  14:13:03         -2.46  -118.549727    3      2
iter:  14  14:13:04         -2.57  -118.545559    3      2
iter:  15  14:13:04         -2.78  -118.545657    3      2
iter:  16  14:13:05         -2.90  -118.549836    2      1
iter:  17  14:13:05         -3.02  -118.553641    2      1
iter:  18  14:13:06         -3.20  -118.550704    2      1
iter:  19  14:13:06         -3.30  -118.545591    2      1
iter:  20  14:13:07         -3.36  -118.538715    3      1
iter:  21  14:13:07         -3.71  -118.544722    2      1
iter:  22  14:13:08         -3.87  -118.545390    2      1
iter:  23  14:13:08         -3.97  -118.543811    2      1
iter:  24  14:13:09         -4.09  -118.545254    2      1

Converged after 24 iterations.

Dipole moment: (0.062184, 0.757044, 0.139431) |e|*Ang

Energy contributions relative to reference atoms: (reference = -24663.074771)

Kinetic:       +305.963071
Potential:     -246.084955
External:        +0.000000
XC:            -181.162387
Entropy (-ST):   -0.371987
Local:           +2.925011
Free energy:   -118.731247
Extrapolated:  -118.545254

Fermi level: -5.51203

 Band  Eigenvalues  Occupancy
    0    -29.58275    2.00000
    1    -26.22152    2.00000
    2    -25.30477    2.00000
    3    -23.61802    2.00000
    4    -22.67297    2.00000
    5    -22.16768    2.00000
    6    -21.72216    2.00000
    7    -20.94170    2.00000
    8    -19.04950    2.00000
    9    -18.12167    2.00000
   10    -17.97994    2.00000
   11    -16.87749    2.00000
   12    -16.75478    2.00000
   13    -16.25475    2.00000
   14    -15.83352    2.00000
   15    -14.95621    2.00000
   16    -14.78243    2.00000
   17    -14.50015    2.00000
   18    -13.61947    2.00000
   19    -12.56728    2.00000
   20    -12.00718    2.00000
   21    -11.52046    2.00000
   22    -11.27278    2.00000
   23    -10.79992    2.00000
   24    -10.26227    2.00000
   25     -9.94412    2.00000
   26     -9.89632    2.00000
   27     -9.66911    2.00000
   28     -9.57540    2.00000
   29     -8.88922    2.00000
   30     -8.67103    2.00000
   31     -8.52535    2.00000
   32     -8.41325    2.00000
   33     -8.17530    2.00000
   34     -7.99656    2.00000
   35     -7.72014    2.00000
   36     -7.59039    2.00000
   37     -7.36312    2.00000
   38     -7.18353    2.00000
   39     -7.04364    2.00000
   40     -6.85715    2.00000
   41     -6.47918    1.99987
   42     -6.35559    1.99957
   43     -6.14198    1.99633
   44     -5.94353    1.97362
   45     -5.88824    1.95458
   46     -5.75718    1.84134
   47     -5.60587    1.43756
   48     -5.45855    0.73877
   49     -5.15897    0.05691
   50     -4.78757    0.00143
   51     -4.35212    0.00002
   52     -4.17150    0.00000
   53     -3.57236    0.00000
   54     -3.38227    0.00000
   55     -3.26316    0.00000
   56     -3.00010    0.00000
   57     -2.72781    0.00000
   58     -2.34372    0.00000
   59     -2.25411    0.00000
[...]
   83      7.20753    0.00000
   84      7.40587    0.00000
   85      7.53856    0.00000
   86      7.59218    0.00000
   87      8.03642    0.00000
   88      8.23361    0.00000
   89      8.44147    0.00000
   90      8.56867    0.00000
   91      8.79135    0.00000
   92      9.00686    0.00000
   93      9.07262    0.00000
   94      9.11273    0.00000
   95      9.26972    0.00000
   96      9.38380    0.00000
   97      9.52480    0.00000

Forces in eV/Ang:
  0 C   -10.96401   -8.22783   -1.35192
  1 C    16.04234    7.65781    2.83538
  2 C     2.20306   -4.34407    0.20292
  3 C   -22.11587  -19.72940    0.57828
  4 C     8.66574  -11.49581  -10.57890
  5 C     9.97457   -2.90433   -5.82093
  6 C    -4.27826    2.99174   -0.31824
  7 C    -0.00572    3.37988   -3.03409
  8 C    15.96514   -2.28445   17.28189
  9 C     4.56636   -1.91762   -0.36844
 10 C   -13.12572    9.36223   -6.25543
 11 C   -22.68286    3.22589  -18.38787
 12 C     0.30785    3.58770    1.08976
 13 C    -0.25680    0.44480   -1.94246
 14 C     2.36229   -2.79877    0.14132
 15 C    26.65171   20.31948   -4.07064
 16 C     0.36996  -15.84673   -7.44559
 17 C    -9.87852   -2.63674    4.12228
 18 C   -14.43925  -12.16585   -3.02718
 19 C    21.50115   -4.17398    8.93848
 20 C    -2.73146   19.29200    7.95583
 21 C     4.63409    6.00631    6.45439
 22 C    11.22138    8.86774   21.30135
 23 C   -23.93131    3.44959   -8.31346

System changes: positions

[...]

Density initialized from wave functions
   /       |                  C                   |
  /        |        C  C   C                      |
 *         |            C   C   C                 |
 |         |   C C C       CC C  C                |
 |         .--C-----C---C-----C-C-----------------.
 |        /            C   C   C                 /
 |       /        C                             /
 |      /          C                           /

[...]

Density initialized from wave functions
[...]
 |         .-C---C--C--C-C--CC--C-----------------.
 |        /            C  C                      /
 |       /       C  C                           /

[...]

Density initialized from wave functions
   /       |         C  C                         |
  /        |                 C                    |
 *         |           C  C    C                  |
 |         C           C  C  C C  C               |
 |         .-C---C--C----C--C---C-----------------.
 |        /            C  C  C                   /
 |       /       C  C                           /

[...]

Density initialized from wave functions
   /       |         C C                          |
  /        |                 C                    |
 *         |           C  C    C                  |
 |         C           C  C  C C  C               |
 |         .-C---C--C----C--C---C-----------------.
 |        /            C  C  C                   /
 |       /       C  C                           /

[...]

Density initialized from wave functions
   /       |         C C                          |
  /        |                 C                    |
 *         |           C  C    C                  |
 |         C        C  C  C  C C  C               |
 |         .-C---C-------C--C---C-----------------.
 |        /            C  C  C                   /
 |       /          C                           /
 |      /        C                             /

[...]

Density initialized from wave functions
   /       |         C C                          |
  /        |                 C                    |
 *         |           C  C    C                  |
 |         C        C  C  C  C C  C               |
 |         .-C---C-------C--C---C-----------------.
 |        /            C  C  C                   /
 |       /          C                           /
 |      /        C                             /

[...]

Density initialized from wave functions
   /       |         C C                          |
  /        |                 C                    |
 *         |           C  C  C C                  |
 |         C        C  C  C    C  C               |
 |         .--C--C-------C--C---C-----------------.
 |        /            C  C  C                   /
 |       /          C                           /
 |      /        C                             /

[...]

Density initialized from wave functions
   /       |         C C                          |
  /        |                 C C                  |
 *         |           C  C  C                    |
 |         C        C  C  C    C  C               |
 |         .--C--C-------C--C---C-----------------.
 |        /            C  C  C                   /
 |       /          C                           /
 |      /        C                             /

[...]

Density initialized from wave functions
   /       |         C C                          |
  /        |                 C C                  |
 *         |           C  C  C                    |
 |         C        C  C  C    C  C               |
 |         .--C--C-------C--C---C-----------------.
 |        /            C  C  C                   /
 |       /          C                           /
 |      /        C                             /

[...]

Density initialized from wave functions
   /       |           C                          |
  /        |         C       C                    |
 *         |           C  C  C C                  |
 |         C           C  C    C  C               |
 |         .--C--C--C----C--C---C-----------------.
 |        /            C  C  C                   /
 |       /          C                           /
 |      /        C                             /

[...]

Density initialized from wave functions
   /       |           C                          |
  /        |         C       C                    |
 *         |           C  C  C C                  |
 |         C           C  C    C  C               |
 |         .--C--C--C----C--C---C-----------------.
 |        /            C  C  C                   /
 |       /          C                           /
 |      /        C                             /

[...]

Density initialized from wave functions
   /       |           C                          |
  /        |         C       C                    |
 *         |           C  C   CC                  |
 |         C           C  C    C  C               |
 |         .--C--C--C----C--C---C-----------------.
 |        /            C  C  C                   /
 |       /          C                           /
 |      /        C                             /

[...]

Density initialized from wave functions
   /       |           C                          |
  /        |         C       C                    |
 *         |           C  C   CC                  |
 |         C           C  C    C  C               |
 |         .--C--C--C----C--C---C-----------------.
 |        /            C  C  C                   /
 |       /          C                           /
 |      /        C                             /

[...]

Density initialized from wave functions
   /       |           C                          |
  /        |         C       C                    |
 *         |           C  C   CC                  |
 |         |           C  C    C  C               |
 |         C--C--C--C----C--C---C-----------------.
 |        /            C  C  C                   /
 |       /       C  C                           /

[...]

Density initialized from wave functions
   /       |           C                          |
  /        |         C       C                    |
 *         |           C  C   CC                  |
 |         |           C  C    C  C               |
 |         C--C--C--C----C--C---C-----------------.
 |        /            C  C  C                   /
 |       /       C  C                           /

[...]

Density initialized from wave functions
   /       |           C                          |
  /        |         C       C                    |
 *         |           C  C   CC                  |
 |         |        C  C  C    C  C               |
 |         C--C--C-------C--C---C-C---------------.
 |        /            C  C  C                   /
 |       /       C  C                           /

[...]

Density initialized from wave functions
   /       |           C                          |
  /        |         C       C                    |
 *         |           C  C   CC                  |
 |         |        C  C  C    C  C               |
 |         C--C--C-------C--C---C-C---------------.
 |        /            C  C  C                   /
 |       /       C  C                           /

[...]

Density initialized from wave functions
   /       |           C                          |
  /        |         C       C                    |
 *         |           C  C   CC                  |
 |         |        C  C       C  C               |
 |         C--C--C-------C--C---C-C---------------.
 |        /            C  C  C                   /
 |       /       C  C                           /

[...]

Density initialized from wave functions
   /       |           C                          |
  /        |         C       C                    |
 *         |           C  C   CC                  |
 |         |        C  C       C  C               |
 |         C--C--C-------C--C---C-C---------------.
 |        /            C  C  C                   /
 |       /       C  C                           /

[...]

Density initialized from wave functions
   /       |           C                          |
  /        |         C       C C                  |
 *         |           C  C   C                   |
 |         |        C  C       C  C               |
 |         C--C--C-------C--C---C-C---------------.
 |        /            C  C  C                   /
 |       /       C  C                           /

[...]

Density initialized from wave functions
   /       |           C                          |
  /        |        C        C C                  |
 *         |           C  C   C                   |
 |         |        C  C       C  C               |
 |        C.--C--C-------C--C---C-C---------------.
 |        /            C  C  C                   /
 |       /       C  C                           /

[...]

Density initialized from wave functions
   /       |           C                          |
  /        |        C        C C                  |
 *         |           C  C   C                   |
 |         |     C  C  C       C  C               |
 |        C.--C----------C--C---C-C---------------.
 |        /            C  C  C                   /
 |       /       C  C                           /

[...]

Density initialized from wave functions
   /       |           C                          |
  /        |        C        C C                  |
 *         |           C  C   C                   |
 |         |     C  C  C       C  C               |
 |        C.--C----------C--C---C-C---------------.
 |        /            C  C  C                   /
 |       /       C  C                           /

[...]

Density initialized from wave functions
   /       |           C                          |
  /        |        C        C C                  |
 *         |           C  C   C                   |
 |         |        C  C       C  C               |
 |        C.--C--C-------C--C---C-C---------------.
 |        /            C  C  C                   /
 |       /       C  C                           /

[...]

Density initialized from wave functions
   /       |           C                          |
  /        |        C        C C                  |
 *         |           C  C  C                    |
 |         |           C       C  C               |
 |         C--C--C--C----C--C---C-C---------------.
 |        /            C  C  C                   /
 |       /      C   C                           /

[...]

Density initialized from wave functions
   /       |           C                          |
  /        |        C        C C                  |
 *         |           C  C  C                    |
 |         |           C       C  C               |
 |         C--C--C--C----C--C---C-C---------------.
 |        /            C  C  C                   /
 |       /      C   C                           /

[...]

System changes: positions

Initializing position-dependent things.

Density initialized from wave functions
   /       |           C                          |
  /        |        C        C C                  |
 *         |           C  C  C                    |
 |         |        C  C       C  C               |
 |         C--C--C-------C--C---C-C---------------.
 |        /            C  C  C                   /
 |       /      C   C                           /

Positions:
   0 C      1.851604    8.006915    4.521684
   1 C      9.393120    6.828065    4.919160
   2 C     10.028425    5.475091    5.006420
   3 C      9.305347    9.232667    4.946113
   4 C      7.880146    9.157000    4.835355
   5 C      7.154767    7.914916    4.763614
   6 C      8.907078    4.626756    5.130250
   7 C      4.493732    7.908955    4.597909
   8 C      5.756727    7.859700    4.658460
   9 C      4.971751   11.399311    4.916428
  10 C      3.159786    7.964541    4.544931
  11 C      6.077112   10.988167    4.104271
  12 C      6.441845    4.729932    4.517693
  13 C      7.655094    5.311268    4.814280
  14 C      5.258589    4.226762    4.279801
  15 C      9.594784   10.661278    4.958519
  16 C     11.433234    5.505404    5.133630
  17 C      6.179283   11.064577    5.625990
  18 C      7.976724    6.742263    4.812369
  19 C     11.564699    7.975279    5.074495
  20 C     11.932783    6.722063    5.181503
  21 C      8.622756   11.432404    4.744163
  22 C      7.355247   10.608066    4.795499
  23 C     10.136500    8.072883    5.012577

Unit cell:
           periodic     x           y           z      points  spacing
  1. axis:    yes   16.000000    0.000000    0.000000    80     0.2000
  2. axis:    yes    0.000000   16.000000    0.000000    80     0.2000
  3. axis:    yes    0.000000    0.000000   10.000000    48     0.2083

Effective grid spacing dv^(1/3) = 0.2027

                     log10-error:    total        iterations:
           time      wfs    density  energy       fermi  poisson
iter:   1  14:32:05          +inf  -174.882044    3      5
iter:   2  14:32:06         -2.66  -174.878559    2      1
iter:   3  14:32:06         -2.91  -174.879185    2      1
iter:   4  14:32:07         -3.00  -174.879231    3      1
iter:   5  14:32:07         -3.08  -174.880242    3      1
iter:   6  14:32:08         -3.28  -174.880341    2      1
iter:   7  14:32:08         -3.49  -174.878767    2      1
iter:   8  14:32:09         -3.65  -174.878492    2      1
iter:   9  14:32:09         -3.72  -174.878371    2      1
iter:  10  14:32:10         -3.79  -174.878557    2      1
iter:  11  14:32:10         -4.03  -174.878310    2      1

Converged after 11 iterations.

Dipole moment: (2.097547, 0.271943, 0.129100) |e|*Ang

Energy contributions relative to reference atoms: (reference = -24663.074771)

Kinetic:       +111.417038
Potential:     -119.794135
External:        +0.000000
XC:            -169.160017
Entropy (-ST):   -0.471181
Local:           +2.894395
Free energy:   -175.113901
Extrapolated:  -174.878310

Fermi level: -5.43035

 Band  Eigenvalues  Occupancy
    0    -24.81900    2.00000
    1    -23.54488    2.00000
    2    -22.58615    2.00000
    3    -21.90508    2.00000
    4    -21.02193    2.00000
    5    -20.29612    2.00000
    6    -19.59338    2.00000
    7    -19.41411    2.00000
    8    -18.45349    2.00000
    9    -18.21543    2.00000
   10    -17.96396    2.00000
   11    -17.61894    2.00000
   12    -16.83690    2.00000
   13    -16.28538    2.00000
   14    -15.36378    2.00000
   15    -14.98973    2.00000
   16    -14.57514    2.00000
   17    -14.01131    2.00000
   18    -13.65267    2.00000
   19    -13.32137    2.00000
   20    -13.24631    2.00000
   21    -12.34011    2.00000
   22    -12.06690    2.00000
   23    -11.79977    2.00000
   24    -11.55306    2.00000
   25    -11.21324    2.00000
   26    -10.54561    2.00000
   27    -10.44427    2.00000
   28    -10.30760    2.00000
   29     -9.64993    2.00000
   30     -9.27560    2.00000
   31     -8.94082    2.00000
   32     -8.72753    2.00000
   33     -8.20730    2.00000
   34     -8.01237    2.00000
   35     -7.86246    2.00000
   36     -7.73108    2.00000
   37     -7.47352    2.00000
   38     -7.34760    2.00000
   39     -6.95474    2.00000
   40     -6.31894    1.99972
   41     -6.17949    1.99888
   42     -5.93383    1.98707
   43     -5.80984    1.95602
   44     -5.77266    1.93683
   45     -5.76043    1.92891
   46     -5.61794    1.73427
   47     -5.50125    1.34037
   48     -5.43493    1.02290
   49     -5.12999    0.09453
   50     -4.59708    0.00048
   51     -3.96265    0.00000
   52     -3.41606    0.00000
   53     -3.09283    0.00000
   54     -2.80490    0.00000
   55     -2.06988    0.00000
   56     -1.71596    0.00000
   57     -1.30825    0.00000
   58     -0.95989    0.00000
   59     -0.80450    0.00000
[...]
   83      7.70475    0.00000
   84      7.94757    0.00000
   85      8.24131    0.00000
   86      8.27430    0.00000
   87      8.51362    0.00000
   88      8.62240    0.00000
   89      8.73686    0.00000
   90      8.90068    0.00000
   91      9.09504    0.00000
   92      9.14642    0.00000
   93      9.22323    0.00000
   94      9.29241    0.00000
   95      9.46685    0.00000
   96      9.67903    0.00000
   97      9.84084    0.00000

Forces in eV/Ang:
  0 C    -0.03919   -0.00884   -0.02481
  1 C     0.02619   -0.00699   -0.00078
  2 C     0.01504   -0.01735   -0.00743
  3 C     0.00835   -0.00020   -0.02410
  4 C    -0.00418   -0.00032    0.03160
  5 C    -0.03274   -0.00775   -0.00144
  6 C     0.02374   -0.01284   -0.02691
  7 C    -0.01873   -0.02008    0.00588
  8 C     0.04221   -0.00434   -0.01723
  9 C     0.04189   -0.02531    0.02433
 10 C     0.00683    0.00119   -0.00690
 11 C    -0.00050    0.02041   -0.05779
 12 C     0.02305    0.03618    0.02963
 13 C     0.01968    0.03787   -0.01098
 14 C    -0.04120   -0.01115    0.01334
 15 C     0.07088   -0.03407   -0.03805
 16 C    -0.02158    0.01746    0.00243
 17 C    -0.04030   -0.04852    0.03779
 18 C     0.00134   -0.00449    0.01407
 19 C    -0.02803   -0.06177    0.02818
 20 C    -0.01349    0.01444    0.02468
 21 C    -0.03271    0.04054    0.02196
 22 C    -0.02162    0.02281   -0.00464
 23 C    -0.02322    0.00178    0.00730