User:   esb@s65n32.grendel.cscaa.dk
Date:   Thu Nov  9 12:24:54 2017
Arch:   x86_64
Pid:    25205
Python: 2.7.13
gpaw:   /home/esb/DFT/gpaw_git/gpaw
_gpaw:  /home/esb/DFT/gpaw_git/build/bin.linux-x86_64-2.7/gpaw-python
ase:    /home/esb/DFT/ase_git/ase (version 3.15.0b1)
numpy:  /comm/swstack/core/python/2.7.13/lib/python2.7/site-packages/numpy (version 1.13.3)
scipy:  /comm/swstack/core/python/2.7.13/lib/python2.7/site-packages/scipy (version 0.19.1)
units:  Angstrom and eV
cores:  16
Extra parameters: {'blacs': True}

Input parameters:
  basis: dzp
  gpts: [80 80 48]
  kpts: [1 1 1]
  maxiter: 99
  mixer: {backend: pulay,
          beta: 0.05,
          method: separate,
          nmaxold: 5,
          weight: 75}
  mode: lcao
  nbands: -50
  occupations: {name: fermi-dirac,
                width: 0.1}
  poissonsolver: {eps: 1e-07,
                  name: fd,
                  nn: 3,
                  relax: GS}
  xc: PBE

System changes: positions, numbers, cell, pbc, initial_charges, initial_magmoms

Initialize ...

C-setup:
  name: Carbon
  id: 4aa54d4b901d75f77cc0ea3eec22967b
  Z: 6
  valence: 4
  core: 2
  charge: 0.0
  file: /home/esb/DFT/gpaw-setups-0.8.7929/C.PBE.gz
  cutoffs: 0.64(comp), 1.14(filt), 1.14(core), lmax=2
  valence states:
                energy  radius
    2s(2.00)   -13.751   0.635
    2p(2.00)    -5.284   0.635
    *s          13.461   0.635
    *p          21.927   0.635
    *d           0.000   0.635

  LCAO basis set for C:
    Name: dzp
    File: /home/esb/DFT/gpaw-setups-0.8.7929/C.dzp.basis.gz
    Number of radial functions: 5
    Number of spherical harmonics: 13
      l=0, rc=5.5469 Bohr: 2s-sz confined orbital
      l=1, rc=6.6719 Bohr: 2p-sz confined orbital
      l=0, rc=3.0312 Bohr: 2s-dz split-valence wave
      l=1, rc=3.7500 Bohr: 2p-dz split-valence wave
      l=2, rc=6.6719 Bohr: d-type Gaussian polarization

Reference energy: -24663.074771

Spin-paired calculation

Occupation numbers:
  Fermi-Dirac: width=0.1000 eV

Convergence criteria:
  Maximum total energy change: 0.0005 eV / electron
  Maximum integral of absolute density change: 0.0001 electrons
  Maximum integral of absolute eigenstate change: 4e-08 eV^2
  Maximum number of iterations: 99

Symmetries present (total): 1

  ( 1  0  0)
  ( 0  1  0)
  ( 0  0  1)

1 k-point (Gamma)
1 k-point in the irreducible part of the Brillouin zone
       k-points in crystal coordinates                weights
   0:     0.00000000    0.00000000    0.00000000          1/1

Wave functions: LCAO
  Diagonalizer: Serial LAPACK
  Atomic Correction: dense with blas
  Datatype: float
  Eigensolver: None

LCAO using direct dense diagonalizer

Densities:
  Coarse grid: 80*80*48 grid
  Fine grid: 160*160*96 grid
  Total Charge: 0.000000

Density mixing:
  Method: separate
  Backend: pulay
  Linear mixing parameter: 0.05
  Mixing with 5 old densities
  Damping of long wave oscillations: 75

Hamiltonian:
  XC and Coulomb potentials evaluated on a 160*160*96 grid
  Using the PBE Exchange-Correlation functional
  Interpolation: tri-quintic (5. degree polynomial)
  Poisson solver: Gauss-Seidel solver with 6 multi-grid levels
    Coarsest grid: 5 x 5 x 3 points
    Stencil: 6*3+1=19 point O(h^6) finite-difference Laplacian
    Max iterations: 1000
    Tolerance: 1.000000e-07

Total number of cores used: 16
Domain decomposition: 2 x 4 x 2

Number of atoms: 24
Number of atomic orbitals: 312
Number of bands in calculation: 98
Bands to converge: occupied states only
Number of valence electrons: 96

... initialized

Initializing position-dependent things.

Density initialized from atomic densities
   /       |      C  C  C   C C                   |
  /        |     C                                |
 *         |  C     C   C C   C  C                |
 |         | C                                    |
 |         .---C---C-C---C--C----C----------------.
 |        /    C     C    C                      /
 |       /       C     C                        /

Positions:
   0 C      9.367469    4.132462    5.116581
   1 C      9.519101    5.543678    5.209460
   2 C      5.713535    3.344428    5.326439
   3 C      3.478645    7.461403    5.782887
   4 C      5.816388    6.119330    5.454633
   5 C      8.349364    3.398632    5.171257
   6 C      4.483426    5.475644    5.523497
   7 C      8.198879    6.195252    5.294327
   8 C      7.023028    3.875364    5.245263
   9 C      4.691322    4.070902    5.432875
  10 C      3.243281    6.174632    5.664165
  11 C      7.020796    5.340016    5.298345
  12 C      9.481827    9.403401    6.522056
  13 C      8.410012    9.993560    6.792643
  14 C      5.824545    9.712832    6.983621
  15 C      7.153387    9.355574    6.731828
  16 C      4.832140    8.913923    6.970784
  17 C      7.313184    7.915624    6.285417
  18 C      4.757819    7.557674    6.648607
  19 C      6.126032    7.167583    6.259298
  20 C      8.579121    7.253736    5.900614
  21 C     11.258656    6.607516    5.106323
  22 C     11.143262    7.795300    5.627136
  23 C      9.826746    8.133424    6.012067

Unit cell:
           periodic     x           y           z      points  spacing
  1. axis:    yes   16.000000    0.000000    0.000000    80     0.2000
  2. axis:    yes    0.000000   16.000000    0.000000    80     0.2000
  3. axis:    yes    0.000000    0.000000   10.000000    48     0.2083

Effective grid spacing dv^(1/3) = 0.2027

                     log10-error:    total        iterations:
           time      wfs    density  energy       fermi  poisson
iter:   1  12:24:56          +inf  -182.438546    2      6
iter:   2  12:24:57         -0.91  -181.553747    3      3
iter:   3  12:24:58         -0.94  -178.249447    34     4
iter:   4  12:24:58         -1.23  -177.840308    33     3
iter:   5  12:24:59         -1.45  -177.868003    4      3
iter:   6  12:25:00         -1.56  -177.794393    3      3
iter:   7  12:25:00         -1.73  -177.772900    3      3
iter:   8  12:25:01         -1.86  -177.727935    3      3
iter:   9  12:25:02         -2.14  -177.721349    3      2
iter:  10  12:25:03         -2.25  -177.714506    3      2
iter:  11  12:25:03         -2.61  -177.708909    2      2
iter:  12  12:25:04         -2.71  -177.708960    2      2
iter:  13  12:25:05         -2.86  -177.720356    2      1
iter:  14  12:25:05         -3.00  -177.715460    2      1
iter:  15  12:25:06         -3.11  -177.709087    2      1
iter:  16  12:25:07         -3.22  -177.713148    2      1
iter:  17  12:25:07         -3.31  -177.718243    2      1
iter:  18  12:25:08         -3.60  -177.711070    2      1
iter:  19  12:25:09         -3.70  -177.709048    2      1
iter:  20  12:25:09         -3.88  -177.711253    2      1
iter:  21  12:25:10         -4.03  -177.708526    2      1

Converged after 21 iterations.

Dipole moment: (-0.292845, -0.242940, 0.017974) |e|*Ang

Energy contributions relative to reference atoms: (reference = -24663.074771)

Kinetic:       +132.632725
Potential:     -133.199739
External:        +0.000000
XC:            -180.120138
Entropy (-ST):   -0.161476
Local:           +3.059364
Free energy:   -177.789264
Extrapolated:  -177.708526

Fermi level: -4.51366

 Band  Eigenvalues  Occupancy
    0    -23.47814    2.00000
    1    -22.28852    2.00000
    2    -21.88183    2.00000
    3    -20.77651    2.00000
    4    -20.64974    2.00000
    5    -20.38217    2.00000
    6    -19.39921    2.00000
    7    -19.32098    2.00000
    8    -18.39459    2.00000
    9    -18.15953    2.00000
   10    -17.86506    2.00000
   11    -17.05586    2.00000
   12    -15.99883    2.00000
   13    -15.74173    2.00000
   14    -15.30949    2.00000
   15    -15.09543    2.00000
   16    -14.59366    2.00000
   17    -13.02129    2.00000
   18    -12.80431    2.00000
   19    -12.60233    2.00000
   20    -12.41756    2.00000
   21    -12.11384    2.00000
   22    -11.95157    2.00000
   23    -11.21480    2.00000
   24    -10.98609    2.00000
   25    -10.85903    2.00000
   26    -10.81281    2.00000
   27    -10.46271    2.00000
   28     -9.81844    2.00000
   29     -9.62381    2.00000
   30     -9.49863    2.00000
   31     -8.93500    2.00000
   32     -8.50348    2.00000
   33     -8.34331    2.00000
   34     -8.19722    2.00000
   35     -7.92340    2.00000
   36     -7.15840    2.00000
   37     -6.86099    2.00000
   38     -6.81519    2.00000
   39     -6.73478    2.00000
   40     -6.43620    2.00000
   41     -6.33356    2.00000
   42     -6.30622    2.00000
   43     -5.90860    2.00000
   44     -5.78610    1.99999
   45     -5.55328    1.99994
   46     -5.06564    1.99202
   47     -4.70821    1.74991
   48     -4.31886    0.24953
   49     -3.96928    0.00861
   50     -3.18181    0.00000
   51     -2.91665    0.00000
   52     -2.88879    0.00000
   53     -2.78822    0.00000
   54     -2.48332    0.00000
   55     -2.01035    0.00000
   56     -1.87274    0.00000
   57     -1.68676    0.00000
   58     -0.94341    0.00000
   59      0.19837    0.00000
[...]
   83      8.90334    0.00000
   84      9.06603    0.00000
   85      9.13257    0.00000
   86      9.28636    0.00000
   87      9.37642    0.00000
   88      9.49054    0.00000
   89      9.58622    0.00000
   90      9.65799    0.00000
   91      9.80087    0.00000
   92      9.99084    0.00000
   93     10.03813    0.00000
   94     10.11712    0.00000
   95     10.16496    0.00000
   96     10.33884    0.00000
   97     10.36716    0.00000

Forces in eV/Ang:
  0 C     2.00441    2.75965   -0.11896
  1 C     3.08690   -3.58638   -1.76122
  2 C     0.34258    0.00614   -0.19699
  3 C     0.70626   -2.46666    1.32950
  4 C     1.37377   -5.29699   -0.38280
  5 C    -1.10176   -0.69470   -0.10168
  6 C    -1.14597   -2.76847   -1.97574
  7 C     3.30194   -8.99714   -2.86763
  8 C     0.44784   -0.31584   -0.14318
  9 C    -0.07324    0.54575   -0.09485
 10 C     1.69115    0.71818    0.06192
 11 C    -0.69999    0.72730   -0.83182
 12 C     0.03619   -0.66624   -0.31028
 13 C    -0.50449    0.04045    0.06604
 14 C    -0.66987    0.02146    0.73821
 15 C     0.30653   -0.33590    0.03399
 16 C     2.21753    1.33925    1.07799
 17 C     0.30171    2.21255    1.86389
 18 C    -2.32420    6.08495   -0.07315
 19 C    -3.70377    1.98221   -0.17958
 20 C    -1.84340   11.53229    3.86499
 21 C    -2.89140   -1.05844    0.45463
 22 C    -0.48449   -3.06604   -0.98644
 23 C    -0.43401    1.23565    0.50973

System changes: positions

[...]

Density initialized from wave functions
   /       |      C  C  C   C C                   |
  /        |     C      C                         |
 *         |  C     C     C   C  C                |
 |         | C                                    |
 |         .---C---C-C---C--C----C----------------.
 |        /    C     C    C                      /
 |       /       C     C                        /

[...]

Density initialized from wave functions
   /       |      C  C  C   C C                   |
  /        |     C      C                         |
 *         |  C     C     C   C  C                |
 |         | C                                    |
 |         .---C---C-C---C--C---C-----------------.
 |        /    C     C    C                      /
 |       /       C     C                        /

[...]

Density initialized from wave functions
   /       |      C  C  C   C C                   |
  /        |     C      C                         |
 *         |  C     C     C   C  C                |
 |         | C                                    |
 |         .---C---C-C---C--C---C-----------------.
 |        /    C     C    C                      /
 |       /       C     C                        /

[...]

Density initialized from wave functions
   /       |      C  C  C   C C                   |
  /        |     C      C                         |
 *         |  C     C     C   C  C                |
 |         | C                                    |
 |         .---C---C--C--C--C---C-----------------.
 |        /    C     C    C                      /
 |       /       C     C                        /

[...]

Density initialized from wave functions
    /      |         C                            |
   /       |      C     C   C C                   |
  /        |     C      C                         |
 *         |  C     C     C   C  C                |
 |         | C                                    |
 |         .---C---C--C--C--C---C-----------------.
 |        /    C     C    C                      /
 |       /       C      C                       /

[...]

Density initialized from wave functions
    /      |         C                            |
   /       |      C     C   C C                   |
  /        |     C      C                         |
 *         |  C     C     C   C  C                |
 |         | C                                    |
 |         .---C---C--C--C--C---C-----------------.
 |        /    C     C     C                     /
 |       /       C      C                       /

[...]

Density initialized from wave functions
    /      |         C                            |
   /       |       C    C   C C                   |
  /        |     C      C                         |
 *         |  C     C     C   C                   |
 |         | C                   C                |
 |         .---C---C--C--C--C---C-----------------.
 |        /    C     C     C                     /
 |       /       C      C                       /

[...]

Density initialized from wave functions
    /      |         C                            |
   /       |       C    C   C C                   |
  /        |     C      C                         |
 *         |  C     C     C   C                   |
 |         | C                   C                |
 |         .---C---C--C--C--C---C-----------------.
 |        /    C     C     C                     /
 |       /       C      C                       /

[...]

Density initialized from wave functions
    /      |         C                            |
   /       |       C    C   C C                   |
  /        |     C      C                         |
 *         |  C     C     C   C                   |
 |         | C                  C                 |
 |         .---C---C--C--C--C--C------------------.
 |        /    C     C     C                     /
 |       /       C      C                       /

[...]

Density initialized from wave functions
    /      |          C                           |
   /       |       C    C   C C                   |
  /        |     C      C                         |
 *         |  C     C     C   C                   |
 |         | C                  C                 |
 |         .---C---C--C--C--C--C------------------.
 |        /    C     C     C                     /
 |       /       C      C                       /

[...]

Density initialized from wave functions
    /      |          C                           |
   /       |       C    C   C C                   |
  /        |     C     C                          |
 *         |  C     C     C   C                   |
 |         | C                  C                 |
 |         .---C---C--C--C-----C------------------.
 |        /    C     C     CC                    /
 |       /       C      C                       /

[...]

Density initialized from wave functions
    /      |          C                           |
   /       |       C    C   C C                   |
  /        |     C     C                          |
 *         |  C     C     C   C                   |
 |         | C                  C                 |
 |         .---C---C--C--C-----C------------------.
 |        /    C     C     CC                    /
 |       /       C      C                       /

[...]

Density initialized from wave functions
    /      |          C                           |
   /       |       C    C   C C                   |
  /        |     C     C                          |
 *         |  C     C     C   C                   |
 |         | C                  C                 |
 |         .---C---C--C--C-----C------------------.
 |        /    C     C      C                    /
 |       /       C      C  C                    /

[...]

Density initialized from wave functions
    /      |          C                           |
   /       |       C    C   C C                   |
  /        |     C     C                          |
 *         |  C     C     C   C                   |
 |         | C                  C                 |
 |         .---C---C--C--C-----C------------------.
 |        /    C     C      C                    /
 |       /       C      C  C                    /

[...]

Density initialized from wave functions
    /      |          C                           |
   /       |       C    C   C C                   |
  /        |     C     C                          |
 *         |  C     C     C   C                   |
 |         | C                  C                 |
 |         .---C---C--C--C--C--C------------------.
 |        /    C     C                           /
 |       /       C      C  C                    /

[...]

Density initialized from wave functions
    /      |          C     C                     |
   /       |      C     C     C                   |
  /        |     C     C                          |
 *         |  C     C     C   C                   |
 |         | C                  C                 |
 |         .---C---C--C--C--C--C------------------.
 |        /    C     C                           /
 |       /       C      C  C                    /

[...]

Density initialized from wave functions
    /      |          C     C                     |
   /       |      C     C     C                   |
  /        |     C     C                          |
 *         |  C     C     C   C                   |
 |         | C     C            C                 |
 |         .---C------C--C--C--C------------------.
 |        /    C     C                           /
 |       /       C      C  C                    /

[...]

Density initialized from wave functions
    /      |          C     C                     |
   /       |      C     C     C                   |
  /        |     C     C                          |
 *         |  C     C     C   C                   |
 |         | C     C            C                 |
 |         .----C-----C--C--C--C------------------.
 |        /    C     C                           /
 |       /       C      C  C                    /

[...]

Density initialized from wave functions
    /      |          C     C                     |
   /       |       C    C     C                   |
  /        |     C     C                          |
 *         |  C     C     C   C                   |
 |         | C     C            C                 |
 |         .----C-----C--C--C--C------------------.
 |        /    C     C                           /
 |       /       C      C  C                    /

[...]

Density initialized from wave functions
    /      |          C     C                     |
   /       |       C    C     C                   |
  /        |     C      C                         |
 *         |  C     C     C   C                   |
 |         | C     C            C                 |
 |         .---C------C--C--C--C------------------.
 |        /    C     C                           /
 |       /       C      C  C                    /

[...]

Density initialized from wave functions
    /      |          C                           |
   /       |       C    C   C C                   |
  /        |     C      C                         |
 *         |  C     C     C   C                   |
 |         | C     C            C                 |
 |         .----C-----C--C--C--C------------------.
 |        /    C     C                           /
 |       /       C      C  C                    /

[...]

Density initialized from wave functions
    /      |          C                           |
   /       |       C    C   C C                   |
  /        |     C      C                         |
 *         |  C     C     C   C                   |
 |         | C     C            C                 |
 |         .---C------C--C--C--C------------------.
 |        /    C     C                           /
 |       /       C      C  C                    /

[...]

Density initialized from wave functions
    /      |          C                           |
   /       |       C    C   C C                   |
  /        |     C     C                          |
 *         |  C     C     C   C                   |
 |         | C     C            C                 |
 |         .----C-----C--C--C--C------------------.
 |        /    C     C                           /
 |       /       C      C  C                    /

[...]

Density initialized from wave functions
    /      |          C                           |
   /       |       C    C   C C                   |
  /        |     C     C                          |
 *         |  C     C     C   C                   |
 |         | C     C            C                 |
 |         .---C------C--C--C--C------------------.
 |        /    C                                 /
 |       /       C   C  C  C                    /

[...]

System changes: positions

Initializing position-dependent things.

Density initialized from wave functions
    /      |          C                           |
   /       |       C    C   C C                   |
  /        |     C      C                         |
 *         |  C     C     C   C                   |
 |         | C     C            C                 |
 |         .---C------C--C--C--C------------------.
 |        /    C     C                           /
 |       /       C      C  C                    /

Positions:
   0 C      9.536628    4.008218    4.900960
   1 C      9.709144    5.361952    5.206930
   2 C      5.877120    3.321875    4.976296
   3 C      3.486561    7.253062    6.215100
   4 C      5.899797    5.984172    5.731146
   5 C      8.461160    3.361606    4.857080
   6 C      4.601592    5.251683    5.550619
   7 C      8.414431    6.040426    5.556166
   8 C      7.168805    3.851752    5.078443
   9 C      4.788881    3.921449    5.160232
  10 C      3.492573    6.059936    5.822870
  11 C      7.161639    5.302443    5.470066
  12 C      9.519536    9.512016    6.496180
  13 C      8.443918   10.071962    6.819828
  14 C      5.866390   10.002517    7.031901
  15 C      7.155992    9.524934    6.770571
  16 C      4.781620    9.384508    6.897164
  17 C      7.154950    8.096239    6.307841
  18 C      4.596587    8.070365    6.456832
  19 C      5.896516    7.374876    6.167381
  20 C      8.409985    7.439361    5.964275
  21 C     10.799176    6.237764    5.259057
  22 C     10.797218    7.442506    5.613366
  23 C      9.701057    8.205524    6.031337

Unit cell:
           periodic     x           y           z      points  spacing
  1. axis:    yes   16.000000    0.000000    0.000000    80     0.2000
  2. axis:    yes    0.000000   16.000000    0.000000    80     0.2000
  3. axis:    yes    0.000000    0.000000   10.000000    48     0.2083

Effective grid spacing dv^(1/3) = 0.2027

                     log10-error:    total        iterations:
           time      wfs    density  energy       fermi  poisson
iter:   1  12:31:35          +inf  -188.444771    2      5
iter:   2  12:31:36         -3.07  -188.444231    1      1
iter:   3  12:31:37         -3.15  -188.443025    1      1
iter:   4  12:31:37         -3.39  -188.441633    1      1
iter:   5  12:31:38         -3.68  -188.442745    1      1
iter:   6  12:31:39         -3.41  -188.444510    1      1
iter:   7  12:31:39         -4.02  -188.444576    1      1

Converged after 7 iterations.

Dipole moment: (0.003556, -0.003517, 0.001996) |e|*Ang

Energy contributions relative to reference atoms: (reference = -24663.074771)

Kinetic:       +117.140240
Potential:     -126.202004
External:        +0.000000
XC:            -182.452511
Entropy (-ST):   -0.000394
Local:           +3.069896
Free energy:   -188.444773
Extrapolated:  -188.444576

Fermi level: -4.17196

 Band  Eigenvalues  Occupancy
    0    -22.46331    2.00000
    1    -21.66528    2.00000
    2    -21.66431    2.00000
    3    -20.54175    2.00000
    4    -20.53781    2.00000
    5    -19.83010    2.00000
    6    -19.43151    2.00000
    7    -18.85306    2.00000
    8    -18.00470    2.00000
    9    -17.99829    2.00000
   10    -17.65649    2.00000
   11    -17.64965    2.00000
   12    -15.65810    2.00000
   13    -15.65099    2.00000
   14    -15.08957    2.00000
   15    -14.84670    2.00000
   16    -14.84330    2.00000
   17    -13.29938    2.00000
   18    -12.51469    2.00000
   19    -12.47994    2.00000
   20    -12.46280    2.00000
   21    -12.43643    2.00000
   22    -12.11275    2.00000
   23    -11.36539    2.00000
   24    -11.35759    2.00000
   25    -10.83823    2.00000
   26    -10.82915    2.00000
   27    -10.36545    2.00000
   28     -9.76135    2.00000
   29     -9.50023    2.00000
   30     -9.49765    2.00000
   31     -9.35870    2.00000
   32     -9.34806    2.00000
   33     -8.28764    2.00000
   34     -8.28284    2.00000
   35     -7.82228    2.00000
   36     -6.89957    2.00000
   37     -6.69374    2.00000
   38     -6.49342    2.00000
   39     -6.41728    2.00000
   40     -6.41603    2.00000
   41     -6.29295    2.00000
   42     -6.29097    2.00000
   43     -6.17935    2.00000
   44     -6.16935    2.00000
   45     -6.13805    2.00000
   46     -5.17611    1.99991
   47     -5.17419    1.99991
   48     -3.17580    0.00009
   49     -3.09453    0.00004
   50     -3.08768    0.00004
   51     -2.64530    0.00000
   52     -2.45837    0.00000
   53     -2.45142    0.00000
   54     -2.19827    0.00000
   55     -2.19530    0.00000
   56     -1.06640    0.00000
   57     -1.05474    0.00000
   58     -0.90267    0.00000
   59      0.60291    0.00000
[...]
   83      9.36500    0.00000
   84      9.37080    0.00000
   85      9.38446    0.00000
   86      9.38805    0.00000
   87      9.49637    0.00000
   88      9.83550    0.00000
   89      9.83811    0.00000
   90      9.96445    0.00000
   91      9.97541    0.00000
   92      9.97689    0.00000
   93     10.25004    0.00000
   94     10.52325    0.00000
   95     10.52527    0.00000
   96     10.55458    0.00000
   97     10.88113    0.00000

Forces in eV/Ang:
  0 C     0.03225    0.01027   -0.02846
  1 C    -0.01116    0.01218    0.00691
  2 C     0.01028    0.00487    0.02263
  3 C     0.01369   -0.02357    0.01202
  4 C    -0.00198   -0.00931   -0.00616
  5 C    -0.02993    0.01883   -0.00758
  6 C    -0.00153   -0.00127    0.02601
  7 C    -0.00359    0.01198   -0.03696
  8 C    -0.01211    0.02924   -0.05107
  9 C     0.00664   -0.01895    0.03118
 10 C    -0.01093    0.00156    0.04295
 11 C    -0.00515    0.00914   -0.01257
 12 C     0.02048   -0.02716   -0.03884
 13 C    -0.07824    0.04586    0.01793
 14 C     0.03186   -0.00499    0.02727
 15 C     0.01556    0.00117    0.02124
 16 C    -0.02244    0.00563   -0.01241
 17 C     0.00890   -0.00798   -0.02470
 18 C     0.01017   -0.02476   -0.01068
 19 C     0.00767   -0.00126   -0.02084
 20 C     0.00138   -0.00141   -0.01059
 21 C     0.03329   -0.02572    0.05688
 22 C    -0.03598   -0.00070    0.05676
 23 C    -0.02276   -0.01623   -0.03805