User:   esb@s65n32.grendel.cscaa.dk
Date:   Thu Nov  9 11:23:14 2017
Arch:   x86_64
Pid:    24099
Python: 2.7.13
gpaw:   /home/esb/DFT/gpaw_git/gpaw
_gpaw:  /home/esb/DFT/gpaw_git/build/bin.linux-x86_64-2.7/gpaw-python
ase:    /home/esb/DFT/ase_git/ase (version 3.15.0b1)
numpy:  /comm/swstack/core/python/2.7.13/lib/python2.7/site-packages/numpy (version 1.13.3)
scipy:  /comm/swstack/core/python/2.7.13/lib/python2.7/site-packages/scipy (version 0.19.1)
units:  Angstrom and eV
cores:  16
Extra parameters: {'blacs': True}

Input parameters:
  basis: dzp
  gpts: [80 80 48]
  kpts: [1 1 1]
  maxiter: 99
  mixer: {backend: pulay,
          beta: 0.05,
          method: separate,
          nmaxold: 5,
          weight: 75}
  mode: lcao
  nbands: -50
  occupations: {name: fermi-dirac,
                width: 0.1}
  poissonsolver: {eps: 1e-07,
                  name: fd,
                  nn: 3,
                  relax: GS}
  xc: PBE

System changes: positions, numbers, cell, pbc, initial_charges, initial_magmoms

Initialize ...

C-setup:
  name: Carbon
  id: 4aa54d4b901d75f77cc0ea3eec22967b
  Z: 6
  valence: 4
  core: 2
  charge: 0.0
  file: /home/esb/DFT/gpaw-setups-0.8.7929/C.PBE.gz
  cutoffs: 0.64(comp), 1.14(filt), 1.14(core), lmax=2
  valence states:
                energy  radius
    2s(2.00)   -13.751   0.635
    2p(2.00)    -5.284   0.635
    *s          13.461   0.635
    *p          21.927   0.635
    *d           0.000   0.635

  LCAO basis set for C:
    Name: dzp
    File: /home/esb/DFT/gpaw-setups-0.8.7929/C.dzp.basis.gz
    Number of radial functions: 5
    Number of spherical harmonics: 13
      l=0, rc=5.5469 Bohr: 2s-sz confined orbital
      l=1, rc=6.6719 Bohr: 2p-sz confined orbital
      l=0, rc=3.0312 Bohr: 2s-dz split-valence wave
      l=1, rc=3.7500 Bohr: 2p-dz split-valence wave
      l=2, rc=6.6719 Bohr: d-type Gaussian polarization

Reference energy: -24663.074771

Spin-paired calculation

Occupation numbers:
  Fermi-Dirac: width=0.1000 eV

Convergence criteria:
  Maximum total energy change: 0.0005 eV / electron
  Maximum integral of absolute density change: 0.0001 electrons
  Maximum integral of absolute eigenstate change: 4e-08 eV^2
  Maximum number of iterations: 99

Symmetries present (total): 1

  ( 1  0  0)
  ( 0  1  0)
  ( 0  0  1)

1 k-point (Gamma)
1 k-point in the irreducible part of the Brillouin zone
       k-points in crystal coordinates                weights
   0:     0.00000000    0.00000000    0.00000000          1/1

Wave functions: LCAO
  Diagonalizer: Serial LAPACK
  Atomic Correction: dense with blas
  Datatype: float
  Eigensolver: None

LCAO using direct dense diagonalizer

Densities:
  Coarse grid: 80*80*48 grid
  Fine grid: 160*160*96 grid
  Total Charge: 0.000000

Density mixing:
  Method: separate
  Backend: pulay
  Linear mixing parameter: 0.05
  Mixing with 5 old densities
  Damping of long wave oscillations: 75

Hamiltonian:
  XC and Coulomb potentials evaluated on a 160*160*96 grid
  Using the PBE Exchange-Correlation functional
  Interpolation: tri-quintic (5. degree polynomial)
  Poisson solver: Gauss-Seidel solver with 6 multi-grid levels
    Coarsest grid: 5 x 5 x 3 points
    Stencil: 6*3+1=19 point O(h^6) finite-difference Laplacian
    Max iterations: 1000
    Tolerance: 1.000000e-07

Total number of cores used: 16
Domain decomposition: 2 x 4 x 2

Number of atoms: 24
Number of atomic orbitals: 312
Number of bands in calculation: 98
Bands to converge: occupied states only
Number of valence electrons: 96

... initialized

Initializing position-dependent things.

Density initialized from atomic densities
  /       C|                               C  C   |
 *         | C   C  C  C  C         C   C         |
 |         | C       C   C  C C  C                |
 |         .--C----C-C--C-------------------------.
 |        /   C     C                            /
 |       /      C      C                        /

Positions:
   0 C      5.475356    2.547808    5.380250
   1 C      3.277671    6.419539    5.686620
   2 C      7.813038    7.306786    5.140267
   3 C      8.917301    8.151583    4.950659
   4 C      6.569235    9.809763    5.185886
   5 C      7.743082   10.209563    4.987110
   6 C      5.655173    8.735896    5.357004
   7 C      6.342271    7.456986    5.312254
   8 C      4.231077    8.847378    5.537609
   9 C      5.784994    6.082988    5.421513
  10 C      8.176236    3.209649    5.332080
  11 C      8.104981    5.894490    5.177121
  12 C      6.857864    3.720848    5.428126
  13 C      6.897319    5.168096    5.343998
  14 C      4.608842    3.479230    5.519144
  15 C      4.277668    4.765506    5.438223
  16 C      9.499476    9.196423    4.361138
  17 C      1.043271    9.945784    5.354893
  18 C     13.234478   10.186743    4.950406
  19 C     10.748433    9.615024    4.515277
  20 C     14.489020   10.277494    5.146169
  21 C     15.796336   10.186026    5.302523
  22 C     11.954845    9.956724    4.720559
  23 C      2.310062    9.550679    5.322292

Unit cell:
           periodic     x           y           z      points  spacing
  1. axis:    yes   16.000000    0.000000    0.000000    80     0.2000
  2. axis:    yes    0.000000   16.000000    0.000000    80     0.2000
  3. axis:    yes    0.000000    0.000000   10.000000    48     0.2083

Effective grid spacing dv^(1/3) = 0.2027

                     log10-error:    total        iterations:
           time      wfs    density  energy       fermi  poisson
iter:   1  11:23:16          +inf  -169.814406    2      6
iter:   2  11:23:16         -0.88  -167.691471    3      3
iter:   3  11:23:17         -0.93  -166.349978    3      3
iter:   4  11:23:17         -0.99  -165.611821    3      3
iter:   5  11:23:18         -1.06  -165.033317    35     3
iter:   6  11:23:19         -1.23  -164.656256    3      3
iter:   7  11:23:19         -1.37  -164.630929    4      3
iter:   8  11:23:20         -1.54  -164.556476    3      3
iter:   9  11:23:20         -1.76  -164.535255    2      2
iter:  10  11:23:21         -1.86  -164.509637    3      3
iter:  11  11:23:21         -2.05  -164.497870    3      2
iter:  12  11:23:22         -2.21  -164.493492    3      2
iter:  13  11:23:22         -2.43  -164.489498    3      2
iter:  14  11:23:23         -2.55  -164.489116    3      2
iter:  15  11:23:23         -2.72  -164.487180    2      2
iter:  16  11:23:24         -2.88  -164.485615    2      2
iter:  17  11:23:24         -3.07  -164.483727    2      1
iter:  18  11:23:25         -3.21  -164.479605    2      1
iter:  19  11:23:25         -3.37  -164.476866    2      1
iter:  20  11:23:26         -3.65  -164.482950    2      1
iter:  21  11:23:26         -3.80  -164.483236    2      1
iter:  22  11:23:27         -3.96  -164.483364    2      1
iter:  23  11:23:27         -4.07  -164.485278    2      1

Converged after 23 iterations.

Dipole moment: (15.824368, 0.354087, -0.009714) |e|*Ang

Energy contributions relative to reference atoms: (reference = -24663.074771)

Kinetic:        +62.909044
Potential:      -80.435380
External:        +0.000000
XC:            -149.601087
Entropy (-ST):   -0.500777
Local:           +2.892533
Free energy:   -164.735666
Extrapolated:  -164.485278

Fermi level: -4.73918

 Band  Eigenvalues  Occupancy
    0    -22.34993    2.00000
    1    -21.12150    2.00000
    2    -20.85944    2.00000
    3    -20.63475    2.00000
    4    -20.27587    2.00000
    5    -19.92779    2.00000
    6    -19.31619    2.00000
    7    -18.95495    2.00000
    8    -18.18444    2.00000
    9    -17.53922    2.00000
   10    -17.40038    2.00000
   11    -16.84019    2.00000
   12    -16.62496    2.00000
   13    -16.04855    2.00000
   14    -15.33232    2.00000
   15    -14.63015    2.00000
   16    -14.33233    2.00000
   17    -13.77151    2.00000
   18    -13.57167    2.00000
   19    -13.12853    2.00000
   20    -12.27826    2.00000
   21    -11.39207    2.00000
   22    -10.67509    2.00000
   23    -10.53544    2.00000
   24    -10.12885    2.00000
   25     -9.94954    2.00000
   26     -9.68645    2.00000
   27     -9.63965    2.00000
   28     -9.39249    2.00000
   29     -9.27220    2.00000
   30     -9.11823    2.00000
   31     -8.81971    2.00000
   32     -8.28084    2.00000
   33     -8.20266    2.00000
   34     -8.03833    2.00000
   35     -8.00751    2.00000
   36     -7.21743    2.00000
   37     -6.86732    2.00000
   38     -6.73196    2.00000
   39     -6.58428    2.00000
   40     -6.32380    2.00000
   41     -6.04326    2.00000
   42     -5.83784    1.99997
   43     -5.51105    1.99911
   44     -5.37573    1.99657
   45     -5.10112    1.94780
   46     -4.86414    1.55448
   47     -4.82625    1.40981
   48     -4.64314    0.55362
   49     -4.63316    0.51457
   50     -4.28864    0.02186
   51     -4.05499    0.00213
   52     -3.72904    0.00008
   53     -3.40507    0.00000
   54     -3.13981    0.00000
   55     -2.91653    0.00000
   56     -2.64706    0.00000
   57     -2.26794    0.00000
   58     -1.96268    0.00000
   59     -1.24485    0.00000
[...]
   83      8.16977    0.00000
   84      8.49377    0.00000
   85      8.68150    0.00000
   86      8.92947    0.00000
   87      9.02232    0.00000
   88      9.11681    0.00000
   89      9.18083    0.00000
   90      9.26162    0.00000
   91      9.32304    0.00000
   92      9.35944    0.00000
   93      9.46858    0.00000
   94      9.60937    0.00000
   95      9.71626    0.00000
   96      9.85892    0.00000
   97      9.97569    0.00000

Forces in eV/Ang:
  0 C     4.31880    0.20877   -0.02470
  1 C     2.61738   -3.13525   -0.52698
  2 C     0.89010   -1.06855    0.17964
  3 C    -2.30026   -0.05133   -0.99410
  4 C    -0.66979   -0.48054    0.00747
  5 C     1.83299    0.97283   -0.57723
  6 C    -1.14114    0.92925   -0.70484
  7 C    -1.71837   -0.94269    0.27072
  8 C    -3.27570   -1.94123    0.51118
  9 C    -0.71909   -0.80746   -0.06446
 10 C    -1.83894    0.41052    0.19695
 11 C     0.54137    0.02234    0.11751
 12 C     1.27165   -2.40800   -0.63021
 13 C    -1.64019   -0.88156    0.32777
 14 C    -1.32165    2.63989    0.03249
 15 C    -1.79550    7.12144    0.60622
 16 C    -0.99178   -0.42180    1.68401
 17 C     5.96557   -1.69338    0.47254
 18 C    -2.14664   -0.20245   -0.36489
 19 C     0.17763    0.56445   -0.20052
 20 C     2.99848   -0.10450    0.39927
 21 C    -4.56306    0.60369   -0.43205
 22 C     1.49914    0.43221    0.03932
 23 C     2.00943    0.21433   -0.31730

System changes: positions

[...]

Density initialized from wave functions
  /       C|                               C  C   |
 *         | C   C  C  C  C         C   C         |
 |         | C       C   C  C C  C                |
 |         .--C----C-C--C-------------------------.
 |        /   C     C                            /
 |       /      C      C                        /

[...]

Density initialized from wave functions
  /       C|                               C  C   |
 *         | C  C   C  C  C         C   C         |
 |         | C       C   C  C C  C                |
 |         .--C----C-C--C-------------------------.
[...]
 |        /    C    C                            /
 |       /       C     C                        /

[...]

Density initialized from wave functions
  /     C  |                                      |
 *        C|  C C  C   C  C   C  C   C  C  C      |
 |         | C      C   C  C                      |
 |         .---C---C-C--C-------------------------.
 |        /    C    C                            /
 |       /       C     C                        /

[...]

Density initialized from wave functions
  /     C  |                                      |
 *        C|  C C  C   C  C   C  C   C  C  C      |
 |         | C      C   C  C                      |
 |         .---C---C-C--C-------------------------.
 |        /    C C  C                            /
 |       /             C                        /

[...]

Density initialized from wave functions
  /     C  |                                      |
 *        C|  C C  C   C  C   C  C   C  C  C      |
 |         | C      C   C  C                      |
 |         .---C---C-C--C-------------------------.
 |        /    C C  C                            /
 |       /             C                        /

[...]

Density initialized from wave functions
 *     C  C|  C C   C  C  C   C  C   C  C  C      |
 |         | C      C   C  C                      |
 |         .---C---C-C--C-------------------------.
 |        /   C  C  C                            /
 |       /             C                        /

[...]

Density initialized from wave functions
 *     C  C| C  C   C  C  C   C  C   C  C  C      |
 |         | C      C   C  C                      |
 |         .---C---C-C--C-------------------------.
 |        /   C C   C                            /
 |       /             C                        /

[...]

Density initialized from wave functions
 *     C  C|  C C   C  C  C   C  C  C   C  C      |
 |         | C      C   C  C                      |
 |         .---C--C--C--C-------------------------.
 |        /   C C   C                            /
 |       /             C                        /

[...]

Density initialized from wave functions
 *     C  C|  C C   C  C  C   C  C  C   C  C      |
 |         | C       C  C  C                      |
 |         .---C--C--C--C-------------------------.
 |        /   C C   C  C                         /

[...]

Density initialized from wave functions
 *     C  C|  C  C  C  C   C  C  C  C   C  C      |
 |         | C       C  C  C                      |
 |         .---C--C--C--C-------------------------.
 |        /   C C   C  C                         /

[...]

Density initialized from wave functions
 *     C  C|  C  C  C  C   C  C  C  C   C  C      |
 |         |C        C  C  C                      |
 |         .---C--C--C--C-------------------------.
 |        /   C C   C  C                         /

[...]

Density initialized from wave functions
 *     C  C|  C  C  C  C   C  C  C  C   C  C      |
 |         |C        C  C  C                      |
 |         .---C--C--C--C-------------------------.
 |        /   C C   C  C                         /

[...]

Density initialized from wave functions
 *     C  C|  C  C  C  C   C  C  C   C  C  C      |
 |         |C        C  C  C                      |
 |         .---C--C-C---C-------------------------.
 |        /   C C   C  C                         /

[...]

Density initialized from wave functions
 *     C  C|  C  C  C   C  C  C  C   C  C  C      |
 |         |C        C  C  C                      |
 |         .---C--C-C---C-------------------------.
 |        /   C C   C   C                        /

[...]

Density initialized from wave functions
 *     C  C|  C  C  C   C  C  C  C   C  C  C      |
 |         C         C  C  C                      |
 |         .---C--C-C---C-------------------------.
 |        /   C C   C   C                        /

[...]

Density initialized from wave functions
 *     C  C|  C  C  C   C  C  C  C   C  C  C      |
 |         C         C  C  C                      |
 |         .---C--C-C---C-------------------------.
 |        /   C C   C   C                        /

[...]

Density initialized from wave functions
 *     C  C|  C  C  C   C  C  C   C  C  C  C      |
 |         |         C  C  C                      |
 |         C---C--C-C---C-------------------------.
 |        /   C C   C   C                        /

[...]

Density initialized from wave functions
 *     C  C|  C  C  C   C  C  C   C  C  C  C      |
 |         |         C  C  C                      |
 |         C---C--C-C---C-------------------------.
 |        /   C C   C   C                        /

[...]

Density initialized from wave functions
 *     C  C|        C   C  C  C   C  C  C  C      |
 |         |  C  C   C  C  C                      |
 |         C---C--C-C---C-------------------------.
 |        /   C C   C   C                        /

[...]

Density initialized from wave functions
 *     C   |        C   C  C  C   C  C  C  C      |
 |         C  C  C   C  C  C                      |
 |         C---C--C-C---C-------------------------.
 |        /   C C   C   C                        /

[...]

Density initialized from wave functions
 *     C   |        C   C  C  C   C  C  C  C      |
 |         C  C  C   C  C  C                      |
 |         C---C--C-C---C-------------------------.
 |        /   C C   C   C                        /

[...]

Density initialized from wave functions
 *     C   |        C   C  C  C   C  C  C  C      |
 |         C  C  C   C  C  C                      |
 |         C--CC--C-C---C-------------------------.
 |        /     C   C   C                        /

[...]

Density initialized from wave functions
  /        |               C                      |
 *     C   |        C   C     C   C  C  C  C      |
 |        C|  C  C   C  C  C                      |
 |         C--CC--C-C---C-------------------------.
 |        /     C   C   C                        /

[...]

Density initialized from wave functions
  /        |               C                      |
 *     C   |        C   C     C   C  C  C  C      |
 |        C|  C  C   C  C  C                      |
 |         C-C-C--C-C---C-------------------------.
 |        /     C  C    C                        /

[...]

Density initialized from wave functions
  /        |               C                      |
 *     C   |        C   C     C   C  C  C  C      |
 |        C|  C  C   C  C  C                      |
 |         C-C-C--C-C---C-------------------------.
 |        /     C  C    C                        /

[...]

Density initialized from wave functions
  /        |               C                      |
 *     C   |        C   C  C  C   C  C  C  C      |
 |        C|  C  C   C  C                         |
 |         C-C-C--C-C---C-------------------------.
 |        /     C  C   C                         /

[...]

Density initialized from wave functions
  /        |               C                      |
 *     C   |        C   C  C   C  C  C  C  C      |
 |        C|  C  C   C  C                         |
 |         C-C-C--C-C---C-------------------------.
 |        /     C  C   C                         /

[...]

Density initialized from wave functions
  /        |               C                      |
 *     C   |        C   C  C   C  C  C  C  C      |
 |        C|  C  C   C  C                         |
 |         C--CC--C-C---C-------------------------.
 |        /     C  C   C                         /

[...]

Density initialized from wave functions
  /        |               C                      |
 *     C   |        C  C   C   C  C  C  C  C      |
 |        C|  C  C   C  C                         |
 |         C--CC--C-C---C-------------------------.
 |        /     C  C   C                         /

[...]

Density initialized from wave functions
 *     C   |        C  C  CC   C  C  C  C  C      |
 |        C|  C  C   C  C                         |
 |         C--CC--C-C---C-------------------------.
 |        /     C  C   C                         /

[...]

Density initialized from wave functions
 *     C   |     C  C  C  CC   C  C  C  C  C      |
 |        C|  C      C  C                         |
 |         C--CC--C-C---C-------------------------.
 |        /     C  C   C                         /

[...]

Density initialized from wave functions
 *     C   |     C  C  C  CC   C  C  C  C  C      |
 |        C|  C      C  C                         |
 |         .C-CC--C-C---C-------------------------.
 |        /     C  C   C                         /

[...]

Density initialized from wave functions
 *     C   |     C  C  C  CC   C  C  C  C  C      |
 |        C|  C      C  C                         |
 |         .C-CC--C-C---C-------------------------.
 |        /     C  C   C                         /

[...]

Density initialized from wave functions
 *     C   C     C  C  C  CC   C  C  C  C  C      |
 |         |  C      C  C                         |
 |         .C-CC--C-C---C-------------------------.
 |        /     C  C   C                         /

[...]

Density initialized from wave functions
 *     C   C     C  C  C  CC   C  C  C  C  C      |
 |         |  C      C  C                         |
 |         .C-CC--C-C---C-------------------------.
 |        /     C  C    C                        /

[...]

Density initialized from wave functions
 *     C   C  C  C  C  C  CC   C  C  C  C  C      |
 |         |         C  C                         |
 |         C--CC--C-C---C-------------------------.
 |        /     C  C    C                        /

[...]

Density initialized from wave functions
 *     C   C  C  C  C  C  CC   C  C  C  C  C      |
 |         |         C  C                         |
 |         C--CC--C-C---C-------------------------.
 |        /     C  C    C                        /

[...]

Density initialized from wave functions
 *     C   C  C  C  C  C  CC   C  C  C  C  C      |
 |         |         C  C                         |
 |         C---C--C-C---C-------------------------.
 |        /   C C  C    C                        /

[...]

Density initialized from wave functions
 *     C   C  C  C  C  C  CC  C   C  C  C  C      |
 |         |         C  C                         |
 |         C---C--C-C---C-------------------------.
 |        /   C C   C   C                        /

[...]

Density initialized from wave functions
 *     C   C  C  C  C  C  CC  C   C  C  C  C      |
 |         |         C  C                         |
 |         C---C--C-C---C-------------------------.
 |        /   C C   C                            /

[...]

System changes: positions

Initializing position-dependent things.

Density initialized from wave functions
 *     C   C  C  C  C  C  CC  C  C   C  C  C      |
 |         |         C  C                         |
 |         C---C--C-C---C-------------------------.
 |        /   C C   C                            /

Positions:
   0 C      5.366899    3.612429    5.612102
   1 C      2.999266    5.017311    5.617874
   2 C      7.526826    7.556452    5.157457
   3 C      8.480361    8.665376    5.140070
   4 C      6.516816   10.081291    5.025128
   5 C      7.752627    9.882404    5.079183
   6 C      5.471449    9.122569    5.059769
   7 C      6.061487    7.801270    5.129565
   8 C      4.103935    9.298506    5.033012
   9 C      5.321386    6.524340    5.222207
  10 C      8.110553    4.759701    5.570399
  11 C      7.724994    6.126697    5.218898
  12 C      6.562318    4.246796    5.449792
  13 C      6.407689    5.615017    5.215144
  14 C      4.195841    4.268268    5.579075
  15 C      4.122150    5.824595    5.398295
  16 C      9.851952    8.569499    5.176290
  17 C      1.529536    9.385340    5.003415
  18 C     13.680479    9.010580    5.091573
  19 C     11.114315    8.645990    5.171781
  20 C     14.960211    9.196194    5.041715
  21 C     16.249663    9.336004    5.014442
  22 C     12.415870    8.803010    5.136421
  23 C      2.844032    9.369286    5.013262

Unit cell:
           periodic     x           y           z      points  spacing
  1. axis:    yes   16.000000    0.000000    0.000000    80     0.2000
  2. axis:    yes    0.000000   16.000000    0.000000    80     0.2000
  3. axis:    yes    0.000000    0.000000   10.000000    48     0.2083

Effective grid spacing dv^(1/3) = 0.2027

                     log10-error:    total        iterations:
           time      wfs    density  energy       fermi  poisson
iter:   1  11:40:20          +inf  -183.269935    3      5
iter:   2  11:40:21         -2.76  -183.264644    2      1
iter:   3  11:40:21         -3.01  -183.261676    2      1
iter:   4  11:40:22         -3.26  -183.263007    2      1
iter:   5  11:40:22         -3.34  -183.262173    2      1
iter:   6  11:40:23         -3.57  -183.260635    2      1
iter:   7  11:40:24         -3.48  -183.264721    2      1
iter:   8  11:40:24         -3.20  -183.261996    2      1
iter:   9  11:40:25         -3.74  -183.262447    2      1
iter:  10  11:40:25         -4.23  -183.262877    2      1

Converged after 10 iterations.

Dipole moment: (-15.866801, 0.146199, -0.109255) |e|*Ang

Energy contributions relative to reference atoms: (reference = -24663.074771)

Kinetic:       +117.162784
Potential:     -125.031559
External:        +0.000000
XC:            -178.348134
Entropy (-ST):   -0.159077
Local:           +3.033570
Free energy:   -183.342416
Extrapolated:  -183.262877

Fermi level: -4.43447

 Band  Eigenvalues  Occupancy
    0    -23.72829    2.00000
    1    -22.61858    2.00000
    2    -21.81740    2.00000
    3    -20.53265    2.00000
    4    -20.41442    2.00000
    5    -20.21016    2.00000
    6    -19.70320    2.00000
    7    -19.39762    2.00000
    8    -19.26999    2.00000
    9    -18.29045    2.00000
   10    -18.02623    2.00000
   11    -17.87895    2.00000
   12    -16.52457    2.00000
   13    -15.99904    2.00000
   14    -15.63865    2.00000
   15    -15.10540    2.00000
   16    -14.95678    2.00000
   17    -14.25642    2.00000
   18    -13.79891    2.00000
   19    -13.55947    2.00000
   20    -12.87646    2.00000
   21    -12.13416    2.00000
   22    -11.97593    2.00000
   23    -11.27454    2.00000
   24    -10.98964    2.00000
   25    -10.68692    2.00000
   26    -10.37891    2.00000
   27     -9.78824    2.00000
   28     -9.70137    2.00000
   29     -9.38199    2.00000
   30     -9.23959    2.00000
   31     -9.22133    2.00000
   32     -9.03368    2.00000
   33     -8.99019    2.00000
   34     -8.87460    2.00000
   35     -8.57809    2.00000
   36     -7.88971    2.00000
   37     -7.56116    2.00000
   38     -7.48308    2.00000
   39     -7.35185    2.00000
   40     -6.41101    2.00000
   41     -6.20057    2.00000
   42     -6.16516    2.00000
   43     -5.93512    2.00000
   44     -5.70648    1.99999
   45     -5.06500    1.99635
   46     -4.75790    1.92421
   47     -4.68648    1.85107
   48     -4.22954    0.22824
   49     -3.46581    0.00012
   50     -3.22409    0.00001
   51     -2.91452    0.00000
   52     -2.49162    0.00000
   53     -1.93316    0.00000
   54     -1.91692    0.00000
   55     -1.52579    0.00000
   56     -1.15216    0.00000
   57      0.40999    0.00000
   58      0.66608    0.00000
   59      0.89693    0.00000
[...]
   83      8.68640    0.00000
   84      8.78394    0.00000
   85      8.96834    0.00000
   86      8.98117    0.00000
   87      9.10680    0.00000
   88      9.15269    0.00000
   89      9.36028    0.00000
   90      9.51484    0.00000
   91      9.56253    0.00000
   92      9.64239    0.00000
   93      9.72615    0.00000
   94      9.85027    0.00000
   95      9.91311    0.00000
   96     10.00362    0.00000
   97     10.16305    0.00000

Forces in eV/Ang:
  0 C    -0.05639    0.00087   -0.00633
  1 C     0.07139    0.03076    0.01151
  2 C    -0.04083    0.00144   -0.01411
  3 C    -0.01485    0.00712    0.04135
  4 C    -0.01558    0.07999   -0.01727
  5 C     0.00763   -0.01533    0.00105
  6 C     0.03823    0.00335   -0.00249
  7 C    -0.02514   -0.02095    0.02802
  8 C     0.03776    0.01140    0.00398
  9 C     0.01773   -0.04689   -0.01002
 10 C    -0.01894    0.02891    0.03076
 11 C     0.01940   -0.03837    0.00410
 12 C    -0.07443    0.03340    0.02281
 13 C     0.04050   -0.00900   -0.03277
 14 C     0.01428    0.01631    0.00925
 15 C    -0.01141   -0.06226   -0.02392
 16 C    -0.00450   -0.01283   -0.02596
 17 C    -0.05196    0.01672   -0.00351
 18 C     0.03263   -0.02317   -0.00522
 19 C    -0.00335    0.00327   -0.02168
 20 C    -0.00741   -0.01616    0.00460
 21 C     0.06441   -0.01926   -0.00353
 22 C    -0.03571    0.00656    0.01097
 23 C    -0.00702    0.03506   -0.00442