User:   esb@s65n32.grendel.cscaa.dk
Date:   Thu Nov  9 10:22:40 2017
Arch:   x86_64
Pid:    22780
Python: 2.7.13
gpaw:   /home/esb/DFT/gpaw_git/gpaw
_gpaw:  /home/esb/DFT/gpaw_git/build/bin.linux-x86_64-2.7/gpaw-python
ase:    /home/esb/DFT/ase_git/ase (version 3.15.0b1)
numpy:  /comm/swstack/core/python/2.7.13/lib/python2.7/site-packages/numpy (version 1.13.3)
scipy:  /comm/swstack/core/python/2.7.13/lib/python2.7/site-packages/scipy (version 0.19.1)
units:  Angstrom and eV
cores:  16
Extra parameters: {'blacs': True}

Input parameters:
  basis: dzp
  gpts: [80 80 48]
  kpts: [1 1 1]
  maxiter: 99
  mixer: {backend: pulay,
          beta: 0.05,
          method: separate,
          nmaxold: 5,
          weight: 75}
  mode: lcao
  nbands: -50
  occupations: {name: fermi-dirac,
                width: 0.1}
  poissonsolver: {eps: 1e-07,
                  name: fd,
                  nn: 3,
                  relax: GS}
  xc: PBE

System changes: positions, numbers, cell, pbc, initial_charges, initial_magmoms

Initialize ...

C-setup:
  name: Carbon
  id: 4aa54d4b901d75f77cc0ea3eec22967b
  Z: 6
  valence: 4
  core: 2
  charge: 0.0
  file: /home/esb/DFT/gpaw-setups-0.8.7929/C.PBE.gz
  cutoffs: 0.64(comp), 1.14(filt), 1.14(core), lmax=2
  valence states:
                energy  radius
    2s(2.00)   -13.751   0.635
    2p(2.00)    -5.284   0.635
    *s          13.461   0.635
    *p          21.927   0.635
    *d           0.000   0.635

  LCAO basis set for C:
    Name: dzp
    File: /home/esb/DFT/gpaw-setups-0.8.7929/C.dzp.basis.gz
    Number of radial functions: 5
    Number of spherical harmonics: 13
      l=0, rc=5.5469 Bohr: 2s-sz confined orbital
      l=1, rc=6.6719 Bohr: 2p-sz confined orbital
      l=0, rc=3.0312 Bohr: 2s-dz split-valence wave
      l=1, rc=3.7500 Bohr: 2p-dz split-valence wave
      l=2, rc=6.6719 Bohr: d-type Gaussian polarization

Reference energy: -24663.074771

Spin-paired calculation

Occupation numbers:
  Fermi-Dirac: width=0.1000 eV

Convergence criteria:
  Maximum total energy change: 0.0005 eV / electron
  Maximum integral of absolute density change: 0.0001 electrons
  Maximum integral of absolute eigenstate change: 4e-08 eV^2
  Maximum number of iterations: 99

Symmetries present (total): 1

  ( 1  0  0)
  ( 0  1  0)
  ( 0  0  1)

1 k-point (Gamma)
1 k-point in the irreducible part of the Brillouin zone
       k-points in crystal coordinates                weights
   0:     0.00000000    0.00000000    0.00000000          1/1

Wave functions: LCAO
  Diagonalizer: Serial LAPACK
  Atomic Correction: dense with blas
  Datatype: float
  Eigensolver: None

LCAO using direct dense diagonalizer

Densities:
  Coarse grid: 80*80*48 grid
  Fine grid: 160*160*96 grid
  Total Charge: 0.000000

Density mixing:
  Method: separate
  Backend: pulay
  Linear mixing parameter: 0.05
  Mixing with 5 old densities
  Damping of long wave oscillations: 75

Hamiltonian:
  XC and Coulomb potentials evaluated on a 160*160*96 grid
  Using the PBE Exchange-Correlation functional
  Interpolation: tri-quintic (5. degree polynomial)
  Poisson solver: Gauss-Seidel solver with 6 multi-grid levels
    Coarsest grid: 5 x 5 x 3 points
    Stencil: 6*3+1=19 point O(h^6) finite-difference Laplacian
    Max iterations: 1000
    Tolerance: 1.000000e-07

Total number of cores used: 16
Domain decomposition: 2 x 4 x 2

Number of atoms: 24
Number of atomic orbitals: 312
Number of bands in calculation: 98
Bands to converge: occupied states only
Number of valence electrons: 96

... initialized

Initializing position-dependent things.

Density initialized from atomic densities
  /        |           C  C                       |
 *         |  C C   C      C   C  C               |
 |         | C       C  CC CC  C CC               |
 |         .-C-C-C-----------------C--------------.

Positions:
   0 C      6.375922    9.789677    5.940044
   1 C      4.071908    8.709465    5.847802
   2 C      7.622854    9.807095    5.802140
   3 C      5.495636    8.689150    5.818119
   4 C     10.978126    9.956465    4.854680
   5 C      3.537909    7.528178    5.687544
   6 C      8.496992    8.748068    5.468537
   7 C      9.873213    9.080310    5.151590
   8 C      6.313855    7.469667    5.597377
   9 C      3.259175    6.251518    5.560335
  10 C      7.778894    7.476540    5.450777
  11 C     11.113106    8.505769    4.934269
  12 C      8.317151    4.017309    6.905600
  13 C      5.842229    3.445302    6.728350
  14 C      9.340772    4.698756    6.656622
  15 C      6.974689    4.291090    6.553791
  16 C     12.212402    6.286267    5.468602
  17 C      4.733588    3.972751    6.282267
  18 C      9.450294    5.913363    5.942704
  19 C     10.780798    6.381548    5.603018
  20 C      6.933670    5.626606    5.905669
  21 C      3.770136    4.732142    5.814484
  22 C      8.126806    6.442003    5.623827
  23 C     11.457682    7.481149    5.105660

Unit cell:
           periodic     x           y           z      points  spacing
  1. axis:    yes   16.000000    0.000000    0.000000    80     0.2000
  2. axis:    yes    0.000000   16.000000    0.000000    80     0.2000
  3. axis:    yes    0.000000    0.000000   10.000000    48     0.2083

Effective grid spacing dv^(1/3) = 0.2027

                     log10-error:    total        iterations:
           time      wfs    density  energy       fermi  poisson
iter:   1  10:22:42          +inf  -174.501062    3      6
iter:   2  10:22:43         -0.88  -173.168792    4      3
iter:   3  10:22:43         -0.92  -171.740296    5      3
iter:   4  10:22:44         -0.98  -169.463435    35     4
iter:   5  10:22:45         -1.22  -169.333765    4      3
iter:   6  10:22:45         -1.38  -169.047873    5      3
iter:   7  10:22:46         -1.57  -169.075201    3      3
iter:   8  10:22:46         -1.58  -168.926762    3      2
iter:   9  10:22:47         -1.73  -168.850026    4      3
iter:  10  10:22:48         -1.93  -168.831809    4      2
iter:  11  10:22:48         -2.09  -168.825925    3      3
iter:  12  10:22:49         -2.26  -168.821220    3      2
iter:  13  10:22:50         -2.42  -168.820527    3      2
iter:  14  10:22:50         -2.53  -168.821351    3      2
iter:  15  10:22:51         -2.75  -168.818197    3      2
iter:  16  10:22:51         -3.04  -168.824208    3      1
iter:  17  10:22:52         -3.12  -168.834675    3      1
iter:  18  10:22:53         -3.32  -168.822154    2      1
iter:  19  10:22:53         -3.43  -168.818532    2      1
iter:  20  10:22:54         -3.52  -168.816901    2      1
iter:  21  10:22:54         -3.62  -168.813990    2      1
iter:  22  10:22:55         -3.78  -168.814833    2      1
iter:  23  10:22:55         -3.87  -168.815028    2      1
iter:  24  10:22:56         -3.96  -168.812145    3      1
iter:  25  10:22:57         -4.34  -168.815023    2      1

Converged after 25 iterations.

Dipole moment: (-0.187781, -0.063728, -0.050546) |e|*Ang

Energy contributions relative to reference atoms: (reference = -24663.074771)

Kinetic:       +159.059221
Potential:     -149.834875
External:        +0.000000
XC:            -180.849275
Entropy (-ST):   -0.386836
Local:           +3.003322
Free energy:   -169.008441
Extrapolated:  -168.815023

Fermi level: -4.42782

 Band  Eigenvalues  Occupancy
    0    -24.00493    2.00000
    1    -23.46724    2.00000
    2    -22.45127    2.00000
    3    -21.48504    2.00000
    4    -21.00514    2.00000
    5    -20.17627    2.00000
    6    -20.16820    2.00000
    7    -19.32064    2.00000
    8    -18.63359    2.00000
    9    -18.61320    2.00000
   10    -17.87639    2.00000
   11    -17.30865    2.00000
   12    -16.51449    2.00000
   13    -16.26284    2.00000
   14    -15.75043    2.00000
   15    -15.02873    2.00000
   16    -14.26877    2.00000
   17    -13.33788    2.00000
   18    -13.20110    2.00000
   19    -12.61996    2.00000
   20    -12.60953    2.00000
   21    -11.95307    2.00000
   22    -11.51897    2.00000
   23    -11.41523    2.00000
   24    -11.37127    2.00000
   25    -10.78229    2.00000
   26    -10.49682    2.00000
   27    -10.24121    2.00000
   28     -9.46629    2.00000
   29     -9.41208    2.00000
   30     -9.01340    2.00000
   31     -8.79387    2.00000
   32     -8.70881    2.00000
   33     -8.38790    2.00000
   34     -8.23617    2.00000
   35     -8.02245    2.00000
   36     -7.83200    2.00000
   37     -7.69458    2.00000
   38     -7.25476    2.00000
   39     -7.22007    2.00000
   40     -6.52267    2.00000
   41     -6.42864    2.00000
   42     -6.18278    2.00000
   43     -6.15260    2.00000
   44     -5.47449    1.99994
   45     -5.23761    1.99939
   46     -4.95961    1.99024
   47     -4.39367    0.83086
   48     -4.34956    0.62752
   49     -4.33061    0.54894
   50     -3.77952    0.00305
   51     -3.36340    0.00005
   52     -3.13929    0.00001
   53     -2.87115    0.00000
   54     -2.19404    0.00000
   55     -2.11850    0.00000
   56     -1.48225    0.00000
   57     -1.20312    0.00000
   58     -0.76878    0.00000
   59     -0.39488    0.00000
[...]
   83      8.64983    0.00000
   84      8.88366    0.00000
   85      8.95855    0.00000
   86      8.99291    0.00000
   87      9.12380    0.00000
   88      9.17331    0.00000
   89      9.44156    0.00000
   90      9.44221    0.00000
   91      9.70961    0.00000
   92      9.81058    0.00000
   93      9.87092    0.00000
   94      9.92959    0.00000
   95      9.99178    0.00000
   96     10.24493    0.00000
   97     10.45898    0.00000

Forces in eV/Ang:
  0 C     0.49879    0.06283   -0.03470
  1 C     0.52353   -0.33017   -0.17109
  2 C    -0.38063    0.05520   -0.30009
  3 C    -0.40583   -0.59107    0.13758
  4 C    -1.33935   -0.87659    0.23605
  5 C    -0.92033   -2.40271   -0.26787
  6 C     1.65486    1.50617   -0.65773
  7 C    -3.30387    2.30702    0.36721
  8 C     1.15705   -0.13160    0.36119
  9 C     2.45019   -6.75116    1.61457
 10 C   -10.67392   30.92501   -4.60748
 11 C    -6.16424   26.44459   -5.09043
 12 C     0.44036    0.23775   -0.07343
 13 C     0.23647    0.50037   -0.28573
 14 C    -0.24547   -0.36103   -0.20346
 15 C    -0.68650    0.26161   -0.02126
 16 C    -1.58697   -0.07216    0.10863
 17 C    -2.10950    1.19513   -0.84334
 18 C     2.27728   -0.37758   -0.32422
 19 C    -1.34781   -3.59372    1.33034
 20 C     0.83599    0.89963    0.17060
 21 C    -2.15276    7.00547   -0.66613
 22 C    10.12814  -30.89498    5.74135
 23 C    11.17609  -25.05369    3.52151

System changes: positions

[...]

Density initialized from wave functions
  /        |           C  C                       |
 *         |  C C   C      C   C  C               |
 |         | C       C  CC CC  C CC               |
 |         .-C-C-C-----------------C--------------.

[...]

Density initialized from wave functions
  /        |           C  C                       |
 *         |  C C   C      C   C  C               |
 |         | C       C  CC CC  C CC               |
 |         .-C-C-C-----------------C--------------.

[...]

Density initialized from wave functions
  /        |           C  C                       |
 *         |    C   C      C   C  C               |
 |         | CC      C  CC CC  C CC               |
 |         .-C-C-C-----------------C--------------.

[...]

Density initialized from wave functions
  /        |           C  C                       |
 *         |    C   C      C   C  C               |
 |         | CC      CC CC CC  C CC               |
 |         .-C-C-C-----------------C--------------.

[...]

Density initialized from wave functions
  /        |          C   C                       |
 *         |    C   C      C   C  C               |
 |         | CC      CC CC CC  C CC               |
 |         .-C-C-C-----------------C--------------.

[...]

Density initialized from wave functions
  /        |          C   C                       |
 *         |    C   C      C   C  C               |
 |         | CC      CC CC CC  C  C               |
 |         .-C-C-C-----------------C--------------.

[...]

Density initialized from wave functions
  /        |          C  C                        |
 *         |    C   CC     C   C  C               |
 |         | CC      CC CC CC  C  C               |
 |         .-C-C-C-----------------C--------------.

[...]

Density initialized from wave functions
  /        |          C  C                        |
 *         |    C   CC     C   C  C               |
 |         | CC      CCC C CC  C  C               |
 |         .-C-C-C-----------------C--------------.

[...]

Density initialized from wave functions
  /        |          C  C                        |
 *         |    C   C C    C   C  C               |
 |         | CC      CCC C CC  C  C               |
 |         .-CC--C-----------------C--------------.

[...]

Density initialized from wave functions
  /        |          C  C                        |
 *         |    C   C C    C   C  C               |
 |         | CC      CCC C CC  C  C               |
 |         .-CC--C-----------------C--------------.

[...]

Density initialized from wave functions
  /        |          C  C                        |
 *         |    C   C C    C   C  C               |
 |         |C C      CCC CC C  C CC               |
 |         .-CC--C-----------------C--------------.

[...]

Density initialized from wave functions
  /        |          C  C                        |
 *         |    C   C C    C   C  C               |
 |         |C C      CCC CC C  C CC               |
 |         .-CC--C-----------------C--------------.

[...]

Density initialized from wave functions
  /        |          C  C                        |
 *         |    C   C C  C C   C  C               |
 |         |C C      CCC  C C  C CC               |
 |         .C-C--C-----------------C--------------.

[...]

Density initialized from wave functions
  /        |          C  C                        |
 *         |    C   C C  C C   C  C               |
 |         |C C      CCC  C C  C CC               |
 |         .C-C--C-----------------C--------------.

[...]

Density initialized from wave functions
  /        |          C  C                        |
 *         |    C   C C  C C   C  C               |
 |         |C C      CCC  C C   CCC               |
 |         .C-C--C-----------------C--------------.

[...]

Density initialized from wave functions
  /        |          C  C                        |
 *         |    C   C C  C C   C  C               |
 |         |C C      CCC  C C   CCC               |
 |         .C-C--C-----------------C--------------.

[...]

Density initialized from wave functions
  /        |          C  C                        |
 *         |    C   C C   CC   C  C               |
 |         |C C      CCC  C C   CCC               |
 |         .C-C--C-----------------C--------------.

[...]

Density initialized from wave functions
  /        |          C  C                        |
 *         |    C   C C   CC   C  C               |
 |         |C C      CCC  C C   CCC               |
 |         .C-C--C-----------------C--------------.

[...]

Density initialized from wave functions
  /        |          C  C                        |
 *         |    C   C C   CC   C   C              |
 |         |C C      CCC  C C   CCC               |
 |         .C-C--C--------C--------C--------------.

[...]

Density initialized from wave functions
  /        |          C  C                        |
 *         |    C   C C   C C  C   C              |
 |         C  C      CCC  C C   CCC               |
 |         .C-C--C--------C--------C--------------.

[...]

Density initialized from wave functions
  /        |          C  C                        |
 *         |    C   C C   C C  C   C              |
 |         C  C      CCC  C C   CCC               |
 |         .C-C--C--------C--------C--------------.

[...]

Density initialized from wave functions
  /        |          C  C                        |
 *         |    C   C C   C C  C   C              |
 |         C  C      CC   C C   CCC               |
 |         .C-C--C-----C--C--------C--------------.

[...]

Density initialized from wave functions
  /        |          C  C                        |
 *         |    C   C C   C C  C  C               |
 |         C  C      CC   C C   CCC               |
 |         .C-C--C-----C--C--------C--------------.

[...]

Density initialized from wave functions
  /        |          C  C                        |
 *         |    C   C C   C C  C  C               |
 |         C  C      CC   C C   C C               |
 |         .C-C--C-----C--C--------C--------------.

[...]

Density initialized from wave functions
  /        |          C  C                        |
 *         |    C   C C   C C  C  C               |
 |         C C       CC   C C   C C               |
 |         C--C--C-----C--C--------C--------------.

[...]

System changes: positions

Initializing position-dependent things.

Density initialized from wave functions
  /        |          C  C                        |
 *         |    C   C C   C C  C  C               |
 |         C C       CC   C C   C C               |
 |         .C-C--C-----C--C--------C--------------.

Positions:
   0 C      6.161410    9.630398    5.506532
   1 C      4.281351    7.887076    5.753039
   2 C      7.364831    9.971656    5.365938
   3 C      5.609508    8.331261    5.759408
   4 C     11.126748   10.098123    4.654058
   5 C      3.269590    7.142929    5.751008
   6 C      8.550199    9.162569    5.459954
   7 C      9.931654    9.399907    5.156590
   8 C      6.735256    7.434506    5.960464
   9 C      2.720832    5.913251    5.852476
  10 C      8.101221    7.866582    5.819582
  11 C     11.122840    8.719841    5.086678
  12 C      8.108833    3.891621    6.483395
  13 C      5.546227    4.150888    6.393188
  14 C      9.287606    4.305510    6.331022
  15 C      6.870599    4.609334    6.395008
  16 C     12.452915    6.214683    5.328184
  17 C      4.297203    4.124857    6.269582
  18 C      9.748070    5.639085    6.057884
  19 C     11.028607    6.179265    5.705330
  20 C      7.222378    6.006168    6.203219
  21 C      3.101192    4.720582    6.056295
  22 C      8.584079    6.451647    6.058498
  23 C     11.586641    7.371583    5.317210

Unit cell:
           periodic     x           y           z      points  spacing
  1. axis:    yes   16.000000    0.000000    0.000000    80     0.2000
  2. axis:    yes    0.000000   16.000000    0.000000    80     0.2000
  3. axis:    yes    0.000000    0.000000   10.000000    48     0.2083

Effective grid spacing dv^(1/3) = 0.2027

                     log10-error:    total        iterations:
           time      wfs    density  energy       fermi  poisson
iter:   1  10:29:08          +inf  -182.748212    2      5
iter:   2  10:29:09         -2.95  -182.747065    2      1
iter:   3  10:29:10         -2.99  -182.745631    2      2
iter:   4  10:29:10         -3.25  -182.746280    2      1
iter:   5  10:29:11         -3.38  -182.745742    2      2
iter:   6  10:29:11         -3.30  -182.747007    2      1
iter:   7  10:29:12         -3.54  -182.748748    2      1
iter:   8  10:29:13         -3.40  -182.746635    2      1
iter:   9  10:29:13         -4.27  -182.746492    2      1

Converged after 9 iterations.

Dipole moment: (-1.414806, -0.381305, 0.331732) |e|*Ang

Energy contributions relative to reference atoms: (reference = -24663.074771)

Kinetic:       +111.267667
Potential:     -119.051980
External:        +0.000000
XC:            -177.909285
Entropy (-ST):   -0.085888
Local:           +2.990049
Free energy:   -182.789436
Extrapolated:  -182.746492

Fermi level: -4.00325

 Band  Eigenvalues  Occupancy
    0    -23.20882    2.00000
    1    -22.58928    2.00000
    2    -22.17261    2.00000
    3    -21.56972    2.00000
    4    -21.00742    2.00000
    5    -20.33868    2.00000
    6    -20.08831    2.00000
    7    -19.95470    2.00000
    8    -18.97869    2.00000
    9    -18.28033    2.00000
   10    -17.54543    2.00000
   11    -16.88406    2.00000
   12    -16.35858    2.00000
   13    -16.12600    2.00000
   14    -15.22005    2.00000
   15    -15.19994    2.00000
   16    -14.22234    2.00000
   17    -14.10059    2.00000
   18    -13.58991    2.00000
   19    -13.30460    2.00000
   20    -12.93668    2.00000
   21    -12.35341    2.00000
   22    -12.06244    2.00000
   23    -10.80677    2.00000
   24    -10.69226    2.00000
   25    -10.21860    2.00000
   26    -10.19656    2.00000
   27     -9.84670    2.00000
   28     -9.66260    2.00000
   29     -9.66027    2.00000
   30     -9.38765    2.00000
   31     -9.34086    2.00000
   32     -9.24265    2.00000
   33     -8.85666    2.00000
   34     -8.12979    2.00000
   35     -7.91222    2.00000
   36     -7.79329    2.00000
   37     -7.60036    2.00000
   38     -7.55168    2.00000
   39     -7.42357    2.00000
   40     -6.60231    2.00000
   41     -6.37113    2.00000
   42     -6.32651    2.00000
   43     -5.76495    2.00000
   44     -5.67842    2.00000
   45     -5.41074    2.00000
   46     -5.07042    1.99995
   47     -4.28785    1.89022
   48     -3.71752    0.10860
   49     -3.24887    0.00106
   50     -3.01176    0.00010
   51     -2.94572    0.00005
   52     -2.85172    0.00002
   53     -2.59887    0.00000
   54     -2.08962    0.00000
   55     -1.40260    0.00000
   56     -1.29818    0.00000
   57     -0.80651    0.00000
   58     -0.32443    0.00000
   59      0.43971    0.00000
[...]
   83      8.75424    0.00000
   84      8.94305    0.00000
   85      8.96356    0.00000
   86      9.01709    0.00000
   87      9.28220    0.00000
   88      9.39412    0.00000
   89      9.40865    0.00000
   90      9.72709    0.00000
   91      9.81501    0.00000
   92      9.94013    0.00000
   93     10.00601    0.00000
   94     10.08424    0.00000
   95     10.19926    0.00000
   96     10.28656    0.00000
   97     10.41959    0.00000

Forces in eV/Ang:
  0 C     0.00495   -0.00484   -0.00116
  1 C     0.03333    0.00534    0.00899
  2 C     0.01400    0.05524   -0.02623
  3 C     0.01568   -0.00484   -0.00125
  4 C     0.00576    0.06096    0.05587
  5 C     0.00244    0.00384    0.01341
  6 C    -0.00074   -0.02475   -0.01901
  7 C    -0.00937   -0.04767   -0.01408
  8 C     0.01409   -0.01593   -0.01871
  9 C    -0.04516   -0.01340    0.02929
 10 C    -0.00209   -0.05804   -0.04851
 11 C     0.02900   -0.01110   -0.02883
 12 C    -0.00631   -0.00725    0.00439
 13 C     0.01615    0.01711   -0.00930
 14 C     0.01363   -0.06142   -0.00328
 15 C     0.00055    0.00131   -0.00530
 16 C     0.01699   -0.00280    0.08064
 17 C     0.01570   -0.00910    0.02847
 18 C    -0.02661    0.00340   -0.01391
 19 C    -0.03842    0.03944   -0.00798
 20 C    -0.00935    0.01607   -0.02427
 21 C    -0.04859    0.00602    0.00818
 22 C    -0.04879    0.02203   -0.06453
 23 C     0.00766    0.01548   -0.02387