User:   esb@s66n54.grendel.cscaa.dk
Date:   Wed Nov  8 14:13:01 2017
Arch:   x86_64
Pid:    96416
Python: 2.7.13
gpaw:   /home/esb/DFT/gpaw_git/gpaw
_gpaw:  /home/esb/DFT/gpaw_git/build/bin.linux-x86_64-2.7/gpaw-python
ase:    /home/esb/DFT/ase_git/ase (version 3.15.0b1)
numpy:  /comm/swstack/core/python/2.7.13/lib/python2.7/site-packages/numpy (version 1.13.3)
scipy:  /comm/swstack/core/python/2.7.13/lib/python2.7/site-packages/scipy (version 0.19.1)
units:  Angstrom and eV
cores:  16
Extra parameters: {'blacs': True}

Input parameters:
  basis: dzp
  gpts: [80 80 48]
  kpts: [1 1 1]
  maxiter: 99
  mixer: {backend: pulay,
          beta: 0.05,
          method: separate,
          nmaxold: 5,
          weight: 75}
  mode: lcao
  nbands: -50
  occupations: {name: fermi-dirac,
                width: 0.1}
  poissonsolver: {eps: 1e-07,
                  name: fd,
                  nn: 3,
                  relax: GS}
  xc: PBE

System changes: positions, numbers, cell, pbc, initial_charges, initial_magmoms

Initialize ...

C-setup:
  name: Carbon
  id: 4aa54d4b901d75f77cc0ea3eec22967b
  Z: 6
  valence: 4
  core: 2
  charge: 0.0
  file: /home/esb/DFT/gpaw-setups-0.8.7929/C.PBE.gz
  cutoffs: 0.64(comp), 1.14(filt), 1.14(core), lmax=2
  valence states:
                energy  radius
    2s(2.00)   -13.751   0.635
    2p(2.00)    -5.284   0.635
    *s          13.461   0.635
    *p          21.927   0.635
    *d           0.000   0.635

  LCAO basis set for C:
    Name: dzp
    File: /home/esb/DFT/gpaw-setups-0.8.7929/C.dzp.basis.gz
    Number of radial functions: 5
    Number of spherical harmonics: 13
      l=0, rc=5.5469 Bohr: 2s-sz confined orbital
      l=1, rc=6.6719 Bohr: 2p-sz confined orbital
      l=0, rc=3.0312 Bohr: 2s-dz split-valence wave
      l=1, rc=3.7500 Bohr: 2p-dz split-valence wave
      l=2, rc=6.6719 Bohr: d-type Gaussian polarization

Reference energy: -24663.074771

Spin-paired calculation

Occupation numbers:
  Fermi-Dirac: width=0.1000 eV

Convergence criteria:
  Maximum total energy change: 0.0005 eV / electron
  Maximum integral of absolute density change: 0.0001 electrons
  Maximum integral of absolute eigenstate change: 4e-08 eV^2
  Maximum number of iterations: 99

Symmetries present (total): 1

  ( 1  0  0)
  ( 0  1  0)
  ( 0  0  1)

1 k-point (Gamma)
1 k-point in the irreducible part of the Brillouin zone
       k-points in crystal coordinates                weights
   0:     0.00000000    0.00000000    0.00000000          1/1

Wave functions: LCAO
  Diagonalizer: Serial LAPACK
  Atomic Correction: dense with blas
  Datatype: float
  Eigensolver: None

LCAO using direct dense diagonalizer

Densities:
  Coarse grid: 80*80*48 grid
  Fine grid: 160*160*96 grid
  Total Charge: 0.000000

Density mixing:
  Method: separate
  Backend: pulay
  Linear mixing parameter: 0.05
  Mixing with 5 old densities
  Damping of long wave oscillations: 75

Hamiltonian:
  XC and Coulomb potentials evaluated on a 160*160*96 grid
  Using the PBE Exchange-Correlation functional
  Interpolation: tri-quintic (5. degree polynomial)
  Poisson solver: Gauss-Seidel solver with 6 multi-grid levels
    Coarsest grid: 5 x 5 x 3 points
    Stencil: 6*3+1=19 point O(h^6) finite-difference Laplacian
    Max iterations: 1000
    Tolerance: 1.000000e-07

Total number of cores used: 16
Domain decomposition: 2 x 4 x 2

Number of atoms: 24
Number of atomic orbitals: 312
Number of bands in calculation: 98
Bands to converge: occupied states only
Number of valence electrons: 96

... initialized

Initializing position-dependent things.

Density initialized from atomic densities
   /       |         C        C                   |
  /        |                C   C                 |
 *         |           C CC   C  C                |
 |         |    CC CC        C   C                |
 |         .-C--------C-C----C----C---------------.
 |        /            C     C                   /
 |       /        C                             /

Positions:
   0 C      5.497642    8.248289    4.672011
   1 C      5.450368    7.453494    5.652614
   2 C      5.441630   11.343395    5.499651
   3 C      7.595315    8.271976    5.308717
   4 C     10.725807    9.246626    5.445288
   5 C      4.353239    9.332415    4.496712
   6 C      8.993347   11.272100    5.592944
   7 C      4.231449    6.730362    5.647100
   8 C      3.025782    7.561704    4.445529
   9 C     11.528343    7.351336    4.461230
  10 C      9.485937    9.839208    4.459219
  11 C     10.151488   10.643957    5.561751
  12 C      7.613689    6.561441    4.617052
  13 C      6.607982    9.822787    5.004293
  14 C     11.721681    6.409043    5.300867
  15 C     10.313254    4.160655    5.321101
  16 C      7.477504   10.650639    4.710447
  17 C      9.540834    7.902458    4.947412
  18 C      8.128157   11.798867    4.606921
  19 C      5.739431    4.328838    4.797037
  20 C     10.083472    5.285828    5.183837
  21 C      7.653127    5.061684    4.535819
  22 C      6.719726    7.369568    4.836972
  23 C     10.919848    9.380415    4.289064

Unit cell:
           periodic     x           y           z      points  spacing
  1. axis:    yes   16.000000    0.000000    0.000000    80     0.2000
  2. axis:    yes    0.000000   16.000000    0.000000    80     0.2000
  3. axis:    yes    0.000000    0.000000   10.000000    48     0.2083

Effective grid spacing dv^(1/3) = 0.2027

                     log10-error:    total        iterations:
           time      wfs    density  energy       fermi  poisson
iter:   1  14:13:03          +inf  -137.149344    3      6
iter:   2  14:13:04         -0.82  -132.387747    3      3
iter:   3  14:13:04         -0.90  -130.332127    3      3
iter:   4  14:13:05         -0.98  -128.899331    3      3
iter:   5  14:13:06         -1.06  -128.603376    3      3
iter:   6  14:13:06         -1.11  -128.092188    2      3
iter:   7  14:13:07         -1.18  -127.772810    3      3
iter:   8  14:13:07         -1.31  -127.601069    3      3
iter:   9  14:13:08         -1.52  -127.532740    3      3
iter:  10  14:13:08         -1.68  -127.521179    2      3
iter:  11  14:13:09         -1.87  -127.511192    2      2
iter:  12  14:13:09         -1.95  -127.506009    2      2
iter:  13  14:13:10         -2.04  -127.500779    2      2
iter:  14  14:13:10         -2.20  -127.492926    2      2
iter:  15  14:13:11         -2.35  -127.493090    2      2
iter:  16  14:13:11         -2.57  -127.490053    2      2
iter:  17  14:13:12         -2.71  -127.495451    2      1
iter:  18  14:13:12         -2.76  -127.491598    2      1
iter:  19  14:13:13         -2.85  -127.485771    2      1
iter:  20  14:13:13         -2.92  -127.485967    2      1
iter:  21  14:13:14         -3.03  -127.484937    2      1
iter:  22  14:13:14         -3.17  -127.488587    2      2
iter:  23  14:13:15         -3.40  -127.488299    2      1
iter:  24  14:13:15         -3.51  -127.488556    2      1
iter:  25  14:13:16         -3.60  -127.487019    2      1
iter:  26  14:13:16         -3.86  -127.486929    2      1
iter:  27  14:13:16         -4.02  -127.487958    2      1

Converged after 27 iterations.

Dipole moment: (-0.493846, 0.889216, 0.142929) |e|*Ang

Energy contributions relative to reference atoms: (reference = -24663.074771)

Kinetic:       +141.160416
Potential:     -128.173290
External:        +0.000000
XC:            -142.870493
Entropy (-ST):   -0.592279
Local:           +2.691548
Free energy:   -127.784097
Extrapolated:  -127.487958

Fermi level: -4.97865

 Band  Eigenvalues  Occupancy
    0    -26.43608    2.00000
    1    -25.64689    2.00000
    2    -23.07303    2.00000
    3    -22.32975    2.00000
    4    -20.66776    2.00000
    5    -19.18046    2.00000
    6    -18.76763    2.00000
    7    -18.31990    2.00000
    8    -18.00976    2.00000
    9    -17.17914    2.00000
   10    -16.90916    2.00000
   11    -16.15682    2.00000
   12    -15.25008    2.00000
   13    -14.88577    2.00000
   14    -14.16698    2.00000
   15    -14.02068    2.00000
   16    -13.59002    2.00000
   17    -13.36282    2.00000
   18    -12.51800    2.00000
   19    -12.16457    2.00000
   20    -12.08121    2.00000
   21    -11.55120    2.00000
   22    -11.17167    2.00000
   23    -10.63469    2.00000
   24    -10.13882    2.00000
   25     -9.97741    2.00000
   26     -9.76345    2.00000
   27     -9.39203    2.00000
   28     -8.90407    2.00000
   29     -8.84911    2.00000
   30     -8.26088    2.00000
   31     -8.02815    2.00000
   32     -7.93636    2.00000
   33     -7.79978    2.00000
   34     -7.56856    2.00000
   35     -7.20401    2.00000
   36     -7.15075    2.00000
   37     -6.58102    2.00000
   38     -6.49213    2.00000
   39     -6.33744    2.00000
   40     -6.14177    1.99998
   41     -5.91739    1.99983
   42     -5.79427    1.99943
   43     -5.63353    1.99714
   44     -5.50121    1.98930
   45     -5.25064    1.87639
   46     -5.09676    1.53028
   47     -5.04724    1.33010
   48     -4.93835    0.80119
   49     -4.76325    0.20791
   50     -4.73783    0.16510
   51     -4.68652    0.10222
   52     -4.17765    0.00066
   53     -4.08971    0.00028
   54     -3.98597    0.00010
   55     -3.96242    0.00008
   56     -3.68733    0.00000
   57     -3.58944    0.00000
   58     -3.13195    0.00000
   59     -2.62184    0.00000
[...]
   83      6.31431    0.00000
   84      6.90579    0.00000
   85      7.11346    0.00000
   86      7.35657    0.00000
   87      7.52113    0.00000
   88      7.78873    0.00000
   89      7.98779    0.00000
   90      8.14726    0.00000
   91      8.50585    0.00000
   92      8.55618    0.00000
   93      8.73370    0.00000
   94      9.03424    0.00000
   95      9.11767    0.00000
   96      9.33340    0.00000
   97      9.36407    0.00000

Forces in eV/Ang:
  0 C    -2.88699    9.85432   -6.94823
  1 C    -4.15909   -6.62970    6.72318
  2 C     1.29660   -4.17817   -1.75028
  3 C     4.17585    5.11509    2.39503
  4 C    -3.61529   -0.84492   19.26464
  5 C     0.15404   -2.25740   -0.26302
  6 C    -1.77300    2.95717   -0.88974
  7 C    -0.31756    1.20100   -2.18767
  8 C     3.32522    0.02635    2.78251
  9 C    -1.48548    2.52421   -2.34981
 10 C     1.16406   -2.35952   -3.32687
 11 C     1.24696   -2.03176    1.98717
 12 C     8.15946  -15.49974   -3.61003
 13 C    -5.01452   -4.40655    3.45182
 14 C    -2.58502   -3.71150    0.99351
 15 C     2.24973  -15.12831    1.75605
 16 C     1.39228    4.70966   -2.00083
 17 C    -1.51999    1.38715    1.19881
 18 C     1.08226    2.93890    1.47894
 19 C     3.45526    1.74589   -0.32857
 20 C     0.13687   16.19037   -1.63895
 21 C    -2.18357    3.47798    1.05097
 22 C    -7.75193    5.02948    1.09357
 23 C     5.47838   -0.21411  -18.75754

System changes: positions

[...]

Density initialized from wave functions
   /       |         C        C                   |
  /        |                C   C                 |
 *         |           C CC      C                |
 |         |    CC CC        CC   C               |
 |         .-C--------C-C----C----C---------------.
 |        /            C     C                   /
[...]
  /        |      C  C C  C  C C                  |
 *         |                    C                 |
 |         |   C C   C            C C             |
 |         .-C-C------C-C------------C------------.
 |        /               C        C             /
 |       /                   C  C               /

[...]

Density initialized from wave functions
   /       |           C  C                       |
  /        |      C  C C  C  C C                  |
 *         |                    C                 |
 |         |   C C   C             CC             |
 |         .-C-C------C-C------------C------------.
 |        /               C        C             /
 |       /                   C  C               /

[...]

Density initialized from wave functions
   /       |           C  C  C                    |
  /        |      C  C C  C  C C                  |
 *         |                    C                 |
 |         |   C C   C             CC             |
 |         .-C-C------C-C------------C------------.
 |        /               C        C             /
 |       /                   C  C               /

[...]

Density initialized from wave functions
   /       |           C  C  C                    |
  /        |      C  C C  C  C C                  |
 *         |                    C                 |
 |         |   C C   C             CC             |
 |         .-C-C------C-C------------C------------.
 |        /               C        C             /
 |       /                   C  C               /

[...]

Density initialized from wave functions
   /       |           C  C  C                    |
  /        |      C  C C  C  C C                  |
 *         |                    C                 |
 |         |   C C   C             CC             |
 |         .-C-C------C-C-----------C-------------.
 |        /               C        C             /
 |       /                   C  C               /

[...]

Density initialized from wave functions
   /       |           C  C  C                    |
  /        |      C  C C  C  C C                  |
 *         |                    C                 |
 |         |   C C   C             CC             |
 |         .-C-C------C-C-----------C-------------.
 |        /               C        C             /
 |       /                   C  C               /

[...]

Density initialized from wave functions
   /       |           C  C  C                    |
  /        |      C  C C  C     C                 |
 *         |                 C  C                 |
 |         |   C C   C             CC             |
 |         .-C-C------C-C-----------C-------------.
 |        /               C        C             /
 |       /                   C  C               /

[...]

Density initialized from wave functions
   /       |           C  C  C                    |
  /        |      C  C C  C     C                 |
 *         |                 C  C                 |
 |         |   C C   C             CC             |
 |         .-C-C------C-C-----------C-------------.
 |        /               C        C             /
 |       /                   C  C               /

[...]

Density initialized from wave functions
   /       |           C  C  C                    |
  /        |      C  C C  C     C                 |
 *         |                 C  C  C              |
 |         |   C C   C              C             |
 |         .-C-C------C-C-----------C-------------.
 |        /               C        C             /
 |       /                   C  C               /

[...]

Density initialized from wave functions
   /       |           C  C  C                    |
  /        |      C  C C  C  C  C                 |
 *         |                    C  C              |
 |         |   C C   C              C             |
 |         .-C-C------C-C-----------C-------------.
 |        /               C        C             /
 |       /                   C  C               /

[...]

Density initialized from wave functions
   /       |           C  C  C                    |
  /        |      C  C C  C  C  C                 |
 *         |                    C  C              |
 |         |   C C   C              C             |
 |         .-C-C------C-C-----------C-------------.
 |        /               C        C             /
 |       /                   C  C               /

[...]

Density initialized from wave functions
   /       |           C  C  C                    |
  /        |      C  C C  C     C                 |
 *         |                 C  C  C              |
 |         |   C C   C              C             |
 |         .C--C------C-C-----------C-------------.
 |        /               C        C             /
 |       /                   C  C               /

[...]

Density initialized from wave functions
   /       |           C  C  C                    |
  /        |      C  C C  C     C                 |
 *         |   C             C  C  C              |
 |         |     C   C              C             |
 |         .C--C------C-C-----------C-------------.
 |        /               C        C             /
 |       /                   C  C               /

[...]

Density initialized from wave functions
   /       |           C  C  C                    |
  /        |      C  C    C     C                 |
 *         |   C       C     C  C  C              |
 |         |     C   C              C             |
 |         .C--C------C-C-----------C-------------.
 |        /               C        C             /
 |       /                   C  C               /

[...]

Density initialized from wave functions
   /       |           C  C  C                    |
  /        |      C  C          C                 |
 *         |   C       C  C  C  C  C              |
 |         |     C   C              C             |
 |         .C--C------C-C-----------C-------------.
 |        /               C        C             /
 |       /                   C  C               /

[...]

Density initialized from wave functions
   /       |           C  C  C                    |
  /        |         C          C                 |
 *         |   C  C    C  C  C     C              |
 |         |     C   C              C             |
 |         .C--C------C-C-----------C-------------.
 |        /               C        C             /
 |       /                   C  C               /

[...]

Density initialized from wave functions
   /       |           C  C  C                    |
  /        |         C          C                 |
 *         |   C  C    C  C  C     C              |
 |         |     C   C              C             |
 |         .C--C------C-C-----------C-------------.
 |        /               C        C             /
 |       /                   C  C               /

[...]

Density initialized from wave functions
   /       |           C  C  C                    |
  /        |         C          C                 |
 *         |   C  C    C  C  C     C              |
 |         |     C   C              C             |
 |         .C-C-------C-C-----------C-------------.
 |        /               C        C             /
 |       /                   C  C               /

[...]

Density initialized from wave functions
   /       |           C  C  C                    |
  /        |         C          C                 |
 *         |   C  C    C  C  C     C              |
 |         |     C   C              C             |
 |         .C-C-------C-C-----------C-------------.
 |        /               C        C             /
 |       /                   C  C               /

[...]

Density initialized from wave functions
   /       |           C  C  C                    |
  /        |         C          C                 |
 *         |   C  C    C  C  C     C              |
 |         |     C   C              C             |
 |         .C-C-------C-C------------C------------.
 |        /               C        C             /
 |       /                   C  C               /

[...]

Density initialized from wave functions
   /       |           C  C  C                    |
  /        |         C          C                 |
 *         |   C  C    C  C  C     C              |
 |         |     C   C              C             |
 |         .C-C-------C-C------------C------------.
 |        /               C        C             /
 |       /                   C  C               /

[...]

Density initialized from wave functions
   /       |           C  C  C                    |
  /        |         C       C  CC                |
 *         |   C  C    C  C        C              |
 |         |     C   C              C             |
 |         .C-C-------C-C------------C------------.
 |        /               C        C             /
 |       /                   C  C               /

[...]

Density initialized from wave functions
   /       |           C  C  C                    |
  /        |         C       C  CC                |
 *         |   C  C    C  C        C              |
 |         |     C   C              C             |
 |         .C-C-------C-C------------C------------.
 |        /               C        C             /
 |       /                   C  C               /

[...]

Density initialized from wave functions
   /       |           C  C  C                    |
  /        |         C          CC                |
 *         |   C  C    C  C  C     C              |
 |         |     C   C              C             |
 |         .C-C-------C-C------------C------------.
 |        /               C        C             /
 |       /                   C  C               /

[...]

Density initialized from wave functions
   /       |           C  C  C                    |
  /        |         C          CC                |
 *         |  C   C    C  C  C     C              |
 |         |C    C   C              C             |
 |         .--C-------C-C------------C------------.
 |        /               C        C             /
 |       /                   C  C               /

[...]

Density initialized from wave functions
   /       |           C  C  C  C                 |
  /        |         C           C                |
 *         |  C   C    C  C  C     C              |
 |         |C    C   C              C             |
 |         .--C-------C-C------------C------------.
 |        /               C        C             /
 |       /                   C  C               /

[...]

System changes: positions

Initializing position-dependent things.

Density initialized from wave functions
   /       |           C  C  C  C                 |
  /        |         C           C                |
 *         |  C   C    C  C  C     C              |
 |         |C    C   C              C             |
 |         .--C-------C-C------------C------------.
 |        /               C        C             /
 |       /                   C  C               /

Positions:
   0 C      4.548957    8.939707    5.657963
   1 C      4.733159    7.480995    5.572564
   2 C      6.276311   10.908919    5.587054
   3 C      6.820736    8.494227    5.755895
   4 C      9.287865    9.365081    5.503145
   5 C      3.221666    8.953746    5.073537
   6 C      9.703293   11.628251    5.229182
   7 C      3.583383    7.300031    4.754851
   8 C      2.326475    8.023627    4.685535
   9 C     12.664820    7.601113    4.132554
  10 C     11.548975    9.833653    4.779883
  11 C     10.302319   10.308830    5.187805
  12 C      6.896575    6.037715    5.427738
  13 C      5.801057    9.585181    5.710387
  14 C     12.283197    6.357552    4.098067
  15 C     10.319499    4.834904    4.514063
  16 C      7.207872   11.749818    5.506202
  17 C      8.182572    8.807970    5.696344
  18 C      8.526434   12.057310    5.365932
  19 C      9.078321    4.780271    4.853391
  20 C     11.499863    5.322866    4.208707
  21 C      7.899710    5.300935    5.169690
  22 C      6.167468    7.203883    5.592687
  23 C     12.252411    8.824002    4.427462

Unit cell:
           periodic     x           y           z      points  spacing
  1. axis:    yes   16.000000    0.000000    0.000000    80     0.2000
  2. axis:    yes    0.000000   16.000000    0.000000    80     0.2000
  3. axis:    yes    0.000000    0.000000   10.000000    48     0.2083

Effective grid spacing dv^(1/3) = 0.2027

                     log10-error:    total        iterations:
           time      wfs    density  energy       fermi  poisson
iter:   1  14:43:59          +inf  -181.576010    2      5
iter:   2  14:43:59         -2.15  -181.530723    2      2
iter:   3  14:44:00         -2.99  -181.529802    2      1
iter:   4  14:44:00         -3.07  -181.528661    2      1
iter:   5  14:44:01         -3.24  -181.527486    2      1
iter:   6  14:44:01         -3.08  -181.528827    2      1
iter:   7  14:44:02         -3.53  -181.530955    2      1
iter:   8  14:44:02         -2.98  -181.529352    2      1
iter:   9  14:44:03         -4.02  -181.529367    2      1

Converged after 9 iterations.

Dipole moment: (0.432870, -0.045033, 0.008050) |e|*Ang

Energy contributions relative to reference atoms: (reference = -24663.074771)

Kinetic:       +102.726675
Potential:     -112.863286
External:        +0.000000
XC:            -174.318730
Entropy (-ST):   -0.279080
Local:           +3.065515
Free energy:   -181.668907
Extrapolated:  -181.529367

Fermi level: -4.34348

 Band  Eigenvalues  Occupancy
    0    -23.54648    2.00000
    1    -21.62408    2.00000
    2    -20.91455    2.00000
    3    -20.53487    2.00000
    4    -20.01562    2.00000
    5    -19.90810    2.00000
    6    -19.17224    2.00000
    7    -18.96437    2.00000
    8    -18.92355    2.00000
    9    -17.91727    2.00000
   10    -17.71578    2.00000
   11    -17.43328    2.00000
   12    -16.65624    2.00000
   13    -16.04231    2.00000
   14    -15.67089    2.00000
   15    -15.14045    2.00000
   16    -14.74248    2.00000
   17    -14.44877    2.00000
   18    -13.56459    2.00000
   19    -13.27670    2.00000
   20    -12.63273    2.00000
   21    -12.47313    2.00000
   22    -12.14172    2.00000
   23    -11.24164    2.00000
   24    -10.93468    2.00000
   25    -10.64962    2.00000
   26    -10.25214    2.00000
   27     -9.98970    2.00000
   28     -9.39023    2.00000
   29     -9.21268    2.00000
   30     -9.10738    2.00000
   31     -8.88881    2.00000
   32     -8.43594    2.00000
   33     -8.27837    2.00000
   34     -8.19625    2.00000
   35     -8.15554    2.00000
   36     -7.41582    2.00000
   37     -7.39470    2.00000
   38     -7.15451    2.00000
   39     -6.86854    2.00000
   40     -6.45709    2.00000
   41     -6.31754    2.00000
   42     -5.83132    2.00000
   43     -5.52780    1.99999
   44     -5.45968    1.99997
   45     -4.98582    1.99676
   46     -4.90707    1.99289
   47     -4.38398    1.19981
   48     -4.30446    0.80735
   49     -3.70061    0.00322
   50     -2.84130    0.00000
   51     -2.59636    0.00000
   52     -2.11958    0.00000
   53     -2.01203    0.00000
   54     -1.26381    0.00000
   55     -0.97689    0.00000
   56     -0.55483    0.00000
   57     -0.44615    0.00000
   58     -0.39022    0.00000
   59     -0.22019    0.00000
[...]
   83      8.89729    0.00000
   84      9.05358    0.00000
   85      9.17390    0.00000
   86      9.29383    0.00000
   87      9.39861    0.00000
   88      9.52065    0.00000
   89      9.59269    0.00000
   90      9.71809    0.00000
   91      9.73081    0.00000
   92      9.88858    0.00000
   93     10.03203    0.00000
   94     10.10388    0.00000
   95     10.13878    0.00000
   96     10.26038    0.00000
   97     10.39069    0.00000

Forces in eV/Ang:
  0 C    -0.02109   -0.02436    0.06361
  1 C    -0.02528   -0.03343   -0.01599
  2 C    -0.02106    0.01226    0.01045
  3 C    -0.02259   -0.04051    0.01456
  4 C    -0.00890    0.00112   -0.04427
  5 C     0.04566   -0.02520   -0.00621
  6 C     0.03977    0.00610    0.00037
  7 C    -0.00512    0.02862   -0.01888
  8 C     0.03506    0.00943    0.03986
  9 C    -0.05061    0.00978    0.06421
 10 C    -0.01676   -0.02019   -0.01387
 11 C    -0.02064   -0.02980   -0.01674
 12 C     0.02267    0.04158   -0.02968
 13 C    -0.01454    0.01770    0.00507
 14 C    -0.01983    0.04157    0.00275
 15 C     0.02212    0.02040   -0.03646
 16 C     0.02582   -0.05533   -0.01289
 17 C    -0.03041    0.02217   -0.03328
 18 C    -0.03476    0.01727    0.01404
 19 C    -0.00798    0.00632   -0.04592
 20 C     0.03903   -0.07834    0.03924
 21 C    -0.00781    0.03843    0.00720
 22 C    -0.01173   -0.02039   -0.00149
 23 C    -0.03281   -0.01309    0.07417