User:   esb@s65n11.grendel.cscaa.dk
Date:   Thu Nov  9 12:23:40 2017
Arch:   x86_64
Pid:    78925
Python: 2.7.13
gpaw:   /home/esb/DFT/gpaw_git/gpaw
_gpaw:  /home/esb/DFT/gpaw_git/build/bin.linux-x86_64-2.7/gpaw-python
ase:    /home/esb/DFT/ase_git/ase (version 3.15.0b1)
numpy:  /comm/swstack/core/python/2.7.13/lib/python2.7/site-packages/numpy (version 1.13.3)
scipy:  /comm/swstack/core/python/2.7.13/lib/python2.7/site-packages/scipy (version 0.19.1)
units:  Angstrom and eV
cores:  16
Extra parameters: {'blacs': True}

Input parameters:
  basis: dzp
  gpts: [80 80 48]
  kpts: [1 1 1]
  maxiter: 99
  mixer: {backend: pulay,
          beta: 0.05,
          method: separate,
          nmaxold: 5,
          weight: 75}
  mode: lcao
  nbands: -50
  occupations: {name: fermi-dirac,
                width: 0.1}
  poissonsolver: {eps: 1e-07,
                  name: fd,
                  nn: 3,
                  relax: GS}
  xc: PBE

System changes: positions, numbers, cell, pbc, initial_charges, initial_magmoms

Initialize ...

C-setup:
  name: Carbon
  id: 4aa54d4b901d75f77cc0ea3eec22967b
  Z: 6
  valence: 4
  core: 2
  charge: 0.0
  file: /home/esb/DFT/gpaw-setups-0.8.7929/C.PBE.gz
  cutoffs: 0.64(comp), 1.14(filt), 1.14(core), lmax=2
  valence states:
                energy  radius
    2s(2.00)   -13.751   0.635
    2p(2.00)    -5.284   0.635
    *s          13.461   0.635
    *p          21.927   0.635
    *d           0.000   0.635

  LCAO basis set for C:
    Name: dzp
    File: /home/esb/DFT/gpaw-setups-0.8.7929/C.dzp.basis.gz
    Number of radial functions: 5
    Number of spherical harmonics: 13
      l=0, rc=5.5469 Bohr: 2s-sz confined orbital
      l=1, rc=6.6719 Bohr: 2p-sz confined orbital
      l=0, rc=3.0312 Bohr: 2s-dz split-valence wave
      l=1, rc=3.7500 Bohr: 2p-dz split-valence wave
      l=2, rc=6.6719 Bohr: d-type Gaussian polarization

Reference energy: -24663.074771

Spin-paired calculation

Occupation numbers:
  Fermi-Dirac: width=0.1000 eV

Convergence criteria:
  Maximum total energy change: 0.0005 eV / electron
  Maximum integral of absolute density change: 0.0001 electrons
  Maximum integral of absolute eigenstate change: 4e-08 eV^2
  Maximum number of iterations: 99

Symmetries present (total): 1

  ( 1  0  0)
  ( 0  1  0)
  ( 0  0  1)

1 k-point (Gamma)
1 k-point in the irreducible part of the Brillouin zone
       k-points in crystal coordinates                weights
   0:     0.00000000    0.00000000    0.00000000          1/1

Wave functions: LCAO
  Diagonalizer: Serial LAPACK
  Atomic Correction: dense with blas
  Datatype: float
  Eigensolver: None

LCAO using direct dense diagonalizer

Densities:
  Coarse grid: 80*80*48 grid
  Fine grid: 160*160*96 grid
  Total Charge: 0.000000

Density mixing:
  Method: separate
  Backend: pulay
  Linear mixing parameter: 0.05
  Mixing with 5 old densities
  Damping of long wave oscillations: 75

Hamiltonian:
  XC and Coulomb potentials evaluated on a 160*160*96 grid
  Using the PBE Exchange-Correlation functional
  Interpolation: tri-quintic (5. degree polynomial)
  Poisson solver: Gauss-Seidel solver with 6 multi-grid levels
    Coarsest grid: 5 x 5 x 3 points
    Stencil: 6*3+1=19 point O(h^6) finite-difference Laplacian
    Max iterations: 1000
    Tolerance: 1.000000e-07

Total number of cores used: 16
Domain decomposition: 2 x 4 x 2

Number of atoms: 24
Number of atomic orbitals: 312
Number of bands in calculation: 98
Bands to converge: occupied states only
Number of valence electrons: 96

... initialized

Initializing position-dependent things.

Density initialized from atomic densities
   /       |          C        C                  |
  /        |      C     C                         |
 *         | C C     C     C  C                   |
 |         |    C  C            C                 |
 |         .----------C--C--C--C------------------.
 |        /   C    C                             /
 |       /      C   C  C  C                     /

Positions:
   0 C      5.226857    3.750034    4.871728
   1 C      4.350166    4.615233    5.185954
   2 C      4.450968    5.909206    5.726700
   3 C      5.927822    6.069831    5.971813
   4 C      5.991744   10.012670    6.296697
   5 C      7.153159    9.476422    6.310743
   6 C      4.696028    9.434889    6.265489
   7 C      7.430763    8.070011    6.240706
   8 C      4.943852    8.023854    6.489085
   9 C      6.190631    7.387407    6.401922
  10 C      3.834411    7.169325    6.051192
  11 C      2.914241    8.232495    5.679791
  12 C      9.835421    9.284829    6.639914
  13 C      9.878303    7.956616    6.157580
  14 C      8.610241    7.240820    5.938367
  15 C     10.938583    7.032907    5.842831
  16 C      7.031379    2.716762    5.047141
  17 C      8.346201    3.032705    5.085053
  18 C      9.526266    3.581489    5.155114
  19 C      6.460711    4.016329    5.215065
  20 C      9.716539    4.964761    5.379697
  21 C      7.216037    5.274512    5.435445
  22 C      8.534692    5.822284    5.570375
  23 C     10.870395    5.815187    5.524011

Unit cell:
           periodic     x           y           z      points  spacing
  1. axis:    yes   16.000000    0.000000    0.000000    80     0.2000
  2. axis:    yes    0.000000   16.000000    0.000000    80     0.2000
  3. axis:    yes    0.000000    0.000000   10.000000    48     0.2083

Effective grid spacing dv^(1/3) = 0.2027

                     log10-error:    total        iterations:
           time      wfs    density  energy       fermi  poisson
iter:   1  12:23:42          +inf  -181.550060    2      6
iter:   2  12:23:42         -0.88  -180.468430    3      3
iter:   3  12:23:43         -0.91  -179.025879    34     4
iter:   4  12:23:44         -1.02  -178.489884    3      2
iter:   5  12:23:44         -1.04  -177.147520    4      3
iter:   6  12:23:45         -1.29  -177.349903    4      3
iter:   7  12:23:46         -1.46  -177.226386    3      3
iter:   8  12:23:47         -1.57  -176.944948    3      3
iter:   9  12:23:47         -1.72  -176.838317    3      2
iter:  10  12:23:48         -1.82  -176.793414    3      2
iter:  11  12:23:48         -1.96  -176.769880    3      2
iter:  12  12:23:49         -2.17  -176.748724    3      2
iter:  13  12:23:50         -2.25  -176.747837    3      2
iter:  14  12:23:50         -2.38  -176.741298    3      2
iter:  15  12:23:51         -2.42  -176.747116    3      2
iter:  16  12:23:52         -2.68  -176.745168    2      2
iter:  17  12:23:52         -2.82  -176.744233    3      2
iter:  18  12:23:53         -3.03  -176.744187    3      2
iter:  19  12:23:54         -3.23  -176.727784    3      1
iter:  20  12:23:54         -3.75  -176.742360    2      1
iter:  21  12:23:55         -3.80  -176.745924    2      1
iter:  22  12:23:56         -3.84  -176.745752    2      1
iter:  23  12:23:56         -4.09  -176.746640    2      1

Converged after 23 iterations.

Dipole moment: (0.128000, -0.166472, 0.004929) |e|*Ang

Energy contributions relative to reference atoms: (reference = -24663.074771)

Kinetic:       +114.459424
Potential:     -120.496394
External:        +0.000000
XC:            -173.563026
Entropy (-ST):   -0.221377
Local:           +2.964044
Free energy:   -176.857329
Extrapolated:  -176.746640

Fermi level: -4.62145

 Band  Eigenvalues  Occupancy
    0    -23.14845    2.00000
    1    -22.32932    2.00000
    2    -22.18170    2.00000
    3    -20.89739    2.00000
    4    -20.78464    2.00000
    5    -20.20244    2.00000
    6    -19.65258    2.00000
    7    -19.06598    2.00000
    8    -18.73859    2.00000
    9    -18.09707    2.00000
   10    -17.60799    2.00000
   11    -17.01382    2.00000
   12    -16.62822    2.00000
   13    -15.66954    2.00000
   14    -15.57522    2.00000
   15    -14.85887    2.00000
   16    -14.23726    2.00000
   17    -14.11524    2.00000
   18    -13.28329    2.00000
   19    -12.88230    2.00000
   20    -12.79213    2.00000
   21    -12.26813    2.00000
   22    -11.52787    2.00000
   23    -11.18799    2.00000
   24    -10.92223    2.00000
   25    -10.67767    2.00000
   26    -10.60727    2.00000
   27    -10.12606    2.00000
   28     -9.90547    2.00000
   29     -9.79578    2.00000
   30     -9.58497    2.00000
   31     -8.83480    2.00000
   32     -8.53209    2.00000
   33     -8.44201    2.00000
   34     -7.96234    2.00000
   35     -7.80502    2.00000
   36     -7.35501    2.00000
   37     -7.24299    2.00000
   38     -7.12940    2.00000
   39     -6.85639    2.00000
   40     -6.68402    2.00000
   41     -6.51239    2.00000
   42     -6.18231    2.00000
   43     -5.93626    2.00000
   44     -5.58713    1.99987
   45     -5.32897    1.99831
   46     -4.90798    1.89220
   47     -4.80955    1.73545
   48     -4.47245    0.36784
   49     -4.04559    0.00629
   50     -3.54402    0.00004
   51     -3.25913    0.00000
   52     -3.05923    0.00000
   53     -2.69976    0.00000
   54     -2.60274    0.00000
   55     -2.45422    0.00000
   56     -2.25583    0.00000
   57     -1.84703    0.00000
   58     -1.22221    0.00000
   59     -0.59681    0.00000
[...]
   83      8.84183    0.00000
   84      8.97929    0.00000
   85      9.19849    0.00000
   86      9.38093    0.00000
   87      9.41944    0.00000
   88      9.48026    0.00000
   89      9.51143    0.00000
   90      9.64354    0.00000
   91      9.77646    0.00000
   92      9.83701    0.00000
   93      9.92253    0.00000
   94     10.14930    0.00000
   95     10.23378    0.00000
   96     10.28048    0.00000
   97     10.31278    0.00000

Forces in eV/Ang:
  0 C    -6.10509    2.06762   -0.35035
  1 C    -1.84906    0.61238    0.02983
  2 C     1.29819   -0.96841   -0.01648
  3 C     3.17655    0.44582   -1.44692
  4 C    -1.88135   -0.92731    0.27807
  5 C     2.19906   -0.10691   -0.30846
  6 C     1.00623   -0.39214    0.48664
  7 C    -0.09743   -1.09160   -0.29124
  8 C    -0.49437    1.70390   -0.31244
  9 C    -0.11687   -0.09007   -0.19868
 10 C    -0.90395    1.31230   -0.02357
 11 C     1.08526   -0.96909    0.08038
 12 C     0.05358   -0.79709   -0.30654
 13 C     0.28452    0.60317   -0.15069
 14 C    -1.17894    1.22870    0.69992
 15 C     0.05419   -0.16264    0.04006
 16 C     3.06117   -1.22020    0.37189
 17 C     1.04109   -0.78854    0.05727
 18 C    -0.22117    0.36283   -0.03109
 19 C     7.01822   -2.21418   -1.13943
 20 C     0.66460   -0.02739   -0.18074
 21 C    -6.78628    1.01675    2.25531
 22 C    -1.18027    0.35824    0.52149
 23 C    -0.13216    0.10528    0.04614

System changes: positions

[...]

Density initialized from wave functions
   /       |          C        C                  |
  /        |      C     C                         |
 *         | C C     C     C  C                   |
 |         |    C  C            C                 |
 |         .----------C--C--C--C------------------.
 |        /   C    C                             /
 |       /      C   C  C  C                     /

[...]

Density initialized from wave functions
   /       |          C        C                  |
  /        |      C     C                         |
 *         | C C     C    C   C                   |
 |         |    C  C            C                 |
 |         .----------C--C--C--C------------------.
 |        /   C    C                             /
 |       /      C   C  C   C                    /

[...]

Density initialized from wave functions
   /       |          C        C                  |
  /        |      C     CC                        |
 *         | C C     C    C   C                   |
 |         |    C  C            C                 |
 |         .---------C---C--C--C------------------.
 |        /   C    C                             /
 |       /      C   C  C   C                    /

[...]

Density initialized from wave functions
   /       |          C        C                  |
  /        |      C     CC                        |
 *         | C C     C    C   C                   |
 |         |    C  C            C                 |
 |         .---------C---C--C--C------------------.
 |        /   C    C                             /
 |       /      C   C  C   C                    /

[...]

Density initialized from wave functions
   /       |       C  C        C                  |
  /        |      C     CC                        |
 *         | C C     C    C   C                   |
 |         |    C  C            C                 |
 |         .---------C---C--C--C------------------.
 |        /   C                                  /
 |       /      C  CC   C  C                    /

[...]

Density initialized from wave functions
   /       |       C  C        C                  |
  /        |      C     CC                        |
 *         | C C     C    C   C                   |
 |         |    C  C            C                 |
 |         .---------C---C--C--C------------------.
 |        /   C                                  /
 |       /      C  CC   C  C                    /

[...]

Density initialized from wave functions
   /       |       C  C        C                  |
  /        |      C     CC                        |
 *         | C C     C    C   C                   |
 |         |    C  C            C                 |
 |         .---------C---C--C--C------------------.
 |        /   C            C                     /
 |       /      C  CC   C                       /

[...]

Density initialized from wave functions
   /       |       C  C        C                  |
  /        |      C     CC                        |
 *         | C C     C    C   C                   |
 |         |    C  C            C                 |
 |         .---------C---C--C--C------------------.
 |        /   C            C                     /
 |       /      C  C C  C                       /

[...]

Density initialized from wave functions
   /       |       C   C      C                   |
  /        |      C     CC                        |
 *         | C C     C    C   C                   |
 |         |    C  C            C                 |
 |         .---------C---C--C--C------------------.
 |        /   C            C                     /
 |       /      C  C C  C                       /

[...]

Density initialized from wave functions
   /       |       C   C      C                   |
  /        |      C     C C                       |
 *         | C C     C    C   C                   |
 |         |    C  C            C                 |
 |         .---------C---C--C--C------------------.
 |        /   C            C                     /
 |       /      C  C C  C                       /

[...]

Density initialized from wave functions
   /       |       C   C      C                   |
  /        |      C       C                       |
 *         | C C     C  C C   C                   |
 |         |    C  C            C                 |
 |         .---------C---C--C--C------------------.
 |        /   C            C                     /
 |       /      C  C C  C                       /

[...]

Density initialized from wave functions
   /       |       C   C      C                   |
  /        |      C       C                       |
 *         | C C    C   C C   C C                 |
 |         |    C  C                              |
 |         .---------C---C--C--C------------------.
 |        /   C            C                     /
 |       /      C  C C  C                       /

[...]

Density initialized from wave functions
   /       |        C  C      C                   |
  /        |      C       C                       |
 *         | C C    C   C C  C  C                 |
 |         |    C  C                              |
 |         .---------C---C--C--C------------------.
 |        /   C            C                     /
 |       /      C  C C  C                       /

[...]

Density initialized from wave functions
   /       |        C  C  C   C                   |
  /        |      C                               |
 *         | C C    C   C C  C  C                 |
 |         |    C  C                              |
 |         .---------C---C--C--C------------------.
 |        /   C            C                     /
 |       /      C  C C  C                       /

[...]

Density initialized from wave functions
   /       |        C  C  C   C                   |
  /        |      C                               |
 *         | C C    C   C C  C  C                 |
 |         |   C   C                              |
 |         .---------C---C--C--C------------------.
 |        /   C            C                     /
 |       /      C  C C  C                       /

[...]

Density initialized from wave functions
   /       |        C  C  C   C                   |
  /        |      C                               |
 *         | C C    C   C C  C  C                 |
 |         |   C   C                              |
 |         .---------C---C--C--C------------------.
 |        /   C    C       C                     /
 |       /      C    C  C                       /

[...]

Density initialized from wave functions
   /       |        C  C  C  C                    |
  /        |      C                               |
 *         | C C     C  C C  C  C                 |
 |         |    C  C                              |
 |         .---------C---C--C--C------------------.
 |        /   C    C       C                     /
 |       /      C    C  C                       /

[...]

Density initialized from wave functions
   /       |        C  C  C  C                    |
  /        |      C                               |
 *         | C C     C  C C  C                    |
 |         |    C  C            C                 |
 |         .---------C---C--C--C------------------.
 |        /   C    C       C                     /
 |       /      C    C  C                       /

[...]

Density initialized from wave functions
   /       |        C  C  C  C                    |
  /        |      C                               |
 *         |C  C     C  C C  C                    |
 |         |    C  C            C                 |
 |         .---------C---C--C--C------------------.
 |        /   C    C       C                     /
 |       /      C    C  C                       /

[...]

Density initialized from wave functions
   /       |        C  C  C  C                    |
  /        |      C                               |
 *         |C  C     C  C C  C  C                 |
 |         |    C  C                              |
 |         .---------C---C--C--C------------------.
 |        /   C    C       C                     /
 |       /      C    C  C                       /

[...]

Density initialized from wave functions
   /       |        C  C  C  C                    |
  /        |      C                               |
 *         |C  C     C  C C  C  C                 |
 |         |    C  C                              |
 |         .---------C---C--C--C------------------.
 |        /   C    C                             /
 |       /      C    C  C  C                    /

[...]

Density initialized from wave functions
   /       |        C  C  C  C                    |
  /        |      C                               |
 *         |C  C     C  C C  C  C                 |
 |         |    C  C                              |
 |         .---------C---C--C--C------------------.
 |        /   C    C                             /
 |       /      C    C  C  C                    /

[...]

Density initialized from wave functions
   /       |        C  C  C  C                    |
  /        |      C                               |
 *         |C  C     C  C C  C  C                 |
 |         |    C  C                              |
 |         .---------C---C--C--C------------------.
 |        /   C C  C                             /
 |       /           C  C  C                    /

[...]

Density initialized from wave functions
   /       |        C  C  C  C                    |
  /        |      C                               |
 *         |C  C     C  C C  C  C                 |
 |         |       C                              |
 |         .----C----C---C--C--C------------------.
 |        /   C C  C                             /
 |       /           C  C  C                    /

[...]

System changes: positions

Initializing position-dependent things.

Density initialized from wave functions
   /       |        C  C  C  C                    |
  /        |      C                               |
 *         |C  C     C  C C  C  C                 |
 |         |       C                              |
 |         .----C----C---C--C--C------------------.
 |        /   C C  C                             /
 |       /           C  C  C                    /

Positions:
   0 C      5.057742    3.781148    5.136671
   1 C      4.152890    4.661228    5.278712
   2 C      4.463056    5.982667    5.601981
   3 C      5.892545    6.137470    5.734051
   4 C      6.530144   10.001804    6.588641
   5 C      7.767995    9.325765    6.501629
   6 C      5.305844    9.615942    6.459957
   7 C      7.375375    7.951859    6.240765
   8 C      4.923453    8.299937    6.160879
   9 C      6.105468    7.488302    6.075866
  10 C      3.804523    7.320202    5.848440
  11 C      2.518209    7.695106    5.800265
  12 C      9.211450    9.322971    6.435324
  13 C      9.644792    7.975937    6.161324
  14 C      8.474043    7.087356    6.021438
  15 C     10.755598    7.153550    5.900061
  16 C      7.358421    2.693513    4.944945
  17 C      8.624115    3.010705    4.977825
  18 C      9.768007    3.629606    5.107243
  19 C      6.468314    3.780750    5.187747
  20 C      9.705794    5.003569    5.436001
  21 C      6.951042    5.176062    5.534366
  22 C      8.359279    5.709141    5.667662
  23 C     10.772303    5.918457    5.609977

Unit cell:
           periodic     x           y           z      points  spacing
  1. axis:    yes   16.000000    0.000000    0.000000    80     0.2000
  2. axis:    yes    0.000000   16.000000    0.000000    80     0.2000
  3. axis:    yes    0.000000    0.000000   10.000000    48     0.2083

Effective grid spacing dv^(1/3) = 0.2027

                     log10-error:    total        iterations:
           time      wfs    density  energy       fermi  poisson
iter:   1  12:33:32          +inf  -183.852182    3      4
iter:   2  12:33:32         -3.29  -183.852132    2      1
iter:   3  12:33:33         -3.38  -183.852089    2      1
iter:   4  12:33:34         -3.53  -183.852085    2      1
iter:   5  12:33:34         -3.77  -183.852040    2      1
iter:   6  12:33:35         -3.89  -183.852088    2      1
iter:   7  12:33:36         -3.57  -183.851554    2      1
iter:   8  12:33:36         -4.02  -183.851539    2      1

Converged after 8 iterations.

Dipole moment: (-0.072261, -0.075651, 0.021152) |e|*Ang

Energy contributions relative to reference atoms: (reference = -24663.074771)

Kinetic:       +118.113541
Potential:     -125.821905
External:        +0.000000
XC:            -178.962350
Entropy (-ST):   -0.342686
Local:           +2.990519
Free energy:   -184.022882
Extrapolated:  -183.851539

Fermi level: -4.67582

 Band  Eigenvalues  Occupancy
    0    -23.18812    2.00000
    1    -22.23286    2.00000
    2    -21.82402    2.00000
    3    -20.82902    2.00000
    4    -20.70780    2.00000
    5    -20.11392    2.00000
    6    -19.60401    2.00000
    7    -19.19533    2.00000
    8    -18.69681    2.00000
    9    -17.96786    2.00000
   10    -17.62108    2.00000
   11    -17.39862    2.00000
   12    -16.71859    2.00000
   13    -15.69164    2.00000
   14    -15.31792    2.00000
   15    -15.00003    2.00000
   16    -14.66293    2.00000
   17    -13.84013    2.00000
   18    -13.30210    2.00000
   19    -12.69684    2.00000
   20    -12.33067    2.00000
   21    -12.02314    2.00000
   22    -11.44597    2.00000
   23    -11.18089    2.00000
   24    -11.09266    2.00000
   25    -10.86685    2.00000
   26    -10.82975    2.00000
   27    -10.64402    2.00000
   28    -10.39630    2.00000
   29     -9.81900    2.00000
   30     -9.67448    2.00000
   31     -9.30830    2.00000
   32     -9.12904    2.00000
   33     -8.48385    2.00000
   34     -8.46330    2.00000
   35     -7.95973    2.00000
   36     -7.34586    2.00000
   37     -7.15431    2.00000
   38     -6.87145    2.00000
   39     -6.83128    2.00000
   40     -6.60459    2.00000
   41     -6.53924    2.00000
   42     -6.36967    2.00000
   43     -6.09795    2.00000
   44     -6.06057    2.00000
   45     -5.37596    1.99818
   46     -4.87985    1.76994
   47     -4.73446    1.28509
   48     -4.66490    0.94546
   49     -3.94369    0.00132
   50     -3.51354    0.00002
   51     -3.18023    0.00000
   52     -2.83869    0.00000
   53     -2.66902    0.00000
   54     -2.53854    0.00000
   55     -2.03349    0.00000
   56     -1.48423    0.00000
   57     -1.04505    0.00000
   58     -0.53594    0.00000
   59      0.43633    0.00000
[...]
   83      9.10273    0.00000
   84      9.13411    0.00000
   85      9.17485    0.00000
   86      9.30689    0.00000
   87      9.46004    0.00000
   88      9.50189    0.00000
   89      9.56698    0.00000
   90      9.57054    0.00000
   91      9.73578    0.00000
   92      9.94915    0.00000
   93     10.03835    0.00000
   94     10.29268    0.00000
   95     10.33724    0.00000
   96     10.39110    0.00000
   97     10.47339    0.00000

Forces in eV/Ang:
  0 C     0.03645   -0.01289   -0.01387
  1 C    -0.01714   -0.04219   -0.01631
  2 C     0.05739   -0.02866    0.00882
  3 C     0.00349    0.01351   -0.00353
  4 C     0.00604    0.01433   -0.00591
  5 C    -0.02418   -0.01342   -0.00011
  6 C     0.00436   -0.00173   -0.00939
  7 C    -0.02258   -0.00366    0.00349
  8 C     0.00376   -0.01224    0.00752
  9 C     0.00816    0.02328    0.00749
 10 C     0.05646   -0.00990    0.02681
 11 C    -0.06978    0.01572   -0.00272
 12 C    -0.01887    0.02576   -0.01263
 13 C    -0.01702   -0.03443    0.00650
 14 C    -0.01078   -0.02097   -0.00703
 15 C     0.02831   -0.01286    0.02717
 16 C    -0.02263    0.00147   -0.04073
 17 C     0.01024   -0.00556    0.02316
 18 C     0.01520    0.01040    0.00475
 19 C    -0.04721    0.00321   -0.01851
 20 C    -0.04968    0.00856    0.00224
 21 C     0.02516    0.01104   -0.01499
 22 C    -0.02476    0.00528   -0.03060
 23 C    -0.00077   -0.01243    0.00453