User:   esb@s65n62.grendel.cscaa.dk
Date:   Wed Nov  8 14:13:00 2017
Arch:   x86_64
Pid:    41145
Python: 2.7.13
gpaw:   /home/esb/DFT/gpaw_git/gpaw
_gpaw:  /home/esb/DFT/gpaw_git/build/bin.linux-x86_64-2.7/gpaw-python
ase:    /home/esb/DFT/ase_git/ase (version 3.15.0b1)
numpy:  /comm/swstack/core/python/2.7.13/lib/python2.7/site-packages/numpy (version 1.13.3)
scipy:  /comm/swstack/core/python/2.7.13/lib/python2.7/site-packages/scipy (version 0.19.1)
units:  Angstrom and eV
cores:  16
Extra parameters: {'blacs': True}

Input parameters:
  basis: dzp
  gpts: [80 80 48]
  kpts: [1 1 1]
  maxiter: 99
  mixer: {backend: pulay,
          beta: 0.05,
          method: separate,
          nmaxold: 5,
          weight: 75}
  mode: lcao
  nbands: -50
  occupations: {name: fermi-dirac,
                width: 0.1}
  poissonsolver: {eps: 1e-07,
                  name: fd,
                  nn: 3,
                  relax: GS}
  xc: PBE

System changes: positions, numbers, cell, pbc, initial_charges, initial_magmoms

Initialize ...

C-setup:
  name: Carbon
  id: 4aa54d4b901d75f77cc0ea3eec22967b
  Z: 6
  valence: 4
  core: 2
  charge: 0.0
  file: /home/esb/DFT/gpaw-setups-0.8.7929/C.PBE.gz
  cutoffs: 0.64(comp), 1.14(filt), 1.14(core), lmax=2
  valence states:
                energy  radius
    2s(2.00)   -13.751   0.635
    2p(2.00)    -5.284   0.635
    *s          13.461   0.635
    *p          21.927   0.635
    *d           0.000   0.635

  LCAO basis set for C:
    Name: dzp
    File: /home/esb/DFT/gpaw-setups-0.8.7929/C.dzp.basis.gz
    Number of radial functions: 5
    Number of spherical harmonics: 13
      l=0, rc=5.5469 Bohr: 2s-sz confined orbital
      l=1, rc=6.6719 Bohr: 2p-sz confined orbital
      l=0, rc=3.0312 Bohr: 2s-dz split-valence wave
      l=1, rc=3.7500 Bohr: 2p-dz split-valence wave
      l=2, rc=6.6719 Bohr: d-type Gaussian polarization

Reference energy: -24663.074771

Spin-paired calculation

Occupation numbers:
  Fermi-Dirac: width=0.1000 eV

Convergence criteria:
  Maximum total energy change: 0.0005 eV / electron
  Maximum integral of absolute density change: 0.0001 electrons
  Maximum integral of absolute eigenstate change: 4e-08 eV^2
  Maximum number of iterations: 99

Symmetries present (total): 1

  ( 1  0  0)
  ( 0  1  0)
  ( 0  0  1)

1 k-point (Gamma)
1 k-point in the irreducible part of the Brillouin zone
       k-points in crystal coordinates                weights
   0:     0.00000000    0.00000000    0.00000000          1/1

Wave functions: LCAO
  Diagonalizer: Serial LAPACK
  Atomic Correction: dense with blas
  Datatype: float
  Eigensolver: None

LCAO using direct dense diagonalizer

Densities:
  Coarse grid: 80*80*48 grid
  Fine grid: 160*160*96 grid
  Total Charge: 0.000000

Density mixing:
  Method: separate
  Backend: pulay
  Linear mixing parameter: 0.05
  Mixing with 5 old densities
  Damping of long wave oscillations: 75

Hamiltonian:
  XC and Coulomb potentials evaluated on a 160*160*96 grid
  Using the PBE Exchange-Correlation functional
  Interpolation: tri-quintic (5. degree polynomial)
  Poisson solver: Gauss-Seidel solver with 6 multi-grid levels
    Coarsest grid: 5 x 5 x 3 points
    Stencil: 6*3+1=19 point O(h^6) finite-difference Laplacian
    Max iterations: 1000
    Tolerance: 1.000000e-07

Total number of cores used: 16
Domain decomposition: 2 x 4 x 2

Number of atoms: 24
Number of atomic orbitals: 312
Number of bands in calculation: 98
Bands to converge: occupied states only
Number of valence electrons: 96

... initialized

Initializing position-dependent things.

Density initialized from atomic densities
  /        |       C C    C      C                |
 *         |     C            C  C                |
 |         |  C   C   C      CC  C                |
 |         .-C------C----C--C-C-------------------.
 |        /      C     C  C                      /
 |       /        C C                           /

Positions:
   0 C      9.657650    6.415947    5.689949
   1 C      7.424488    5.682519    4.767471
   2 C      6.155449    3.831095    4.314296
   3 C      7.668545   10.447830    5.072708
   4 C      4.868026    8.217860    5.280322
   5 C      6.394628    8.044762    4.893802
   6 C      3.609098    6.138181    5.746693
   7 C      5.481760   11.183839    5.338158
   8 C      9.919437    8.178612    5.203323
   9 C      8.249605    6.932652    5.008612
  10 C      4.114735    9.527405    4.733853
  11 C      9.339014    9.935872    4.942606
  12 C      6.982268    3.303469    5.149524
  13 C      3.286333    6.760905    4.544480
  14 C      5.847557    7.027243    4.728944
  15 C     11.050075    8.247743    5.644232
  16 C      5.422087    4.269338    5.076480
  17 C     11.489542    6.310970    5.469699
  18 C      9.230391    4.078492    5.137606
  19 C     10.431757   10.423061    5.521571
  20 C      9.854310    5.002825    5.384385
  21 C     10.245144    7.039024    4.869706
  22 C      6.936963    6.324478    5.540716
  23 C      4.628761   10.015158    5.553085

Unit cell:
           periodic     x           y           z      points  spacing
  1. axis:    yes   16.000000    0.000000    0.000000    80     0.2000
  2. axis:    yes    0.000000   16.000000    0.000000    80     0.2000
  3. axis:    yes    0.000000    0.000000   10.000000    48     0.2083

Effective grid spacing dv^(1/3) = 0.2027

                     log10-error:    total        iterations:
           time      wfs    density  energy       fermi  poisson
iter:   1  14:13:02          +inf  -132.507335    3      6
iter:   2  14:13:03         -0.79  -128.504335    3      3
iter:   3  14:13:04         -0.85  -126.080924    3      3
iter:   4  14:13:04         -0.89  -124.631674    2      2
iter:   5  14:13:05         -0.97  -123.116857    3      4
iter:   6  14:13:05         -1.07  -122.265099    3      3
iter:   7  14:13:06         -1.16  -121.791596    4      3
iter:   8  14:13:06         -1.28  -121.590626    3      3
iter:   9  14:13:07         -1.44  -121.497444    3      3
iter:  10  14:13:07         -1.48  -121.476966    3      3
iter:  11  14:13:08         -1.60  -121.338620    3      2
iter:  12  14:13:09         -1.84  -121.319773    3      2
iter:  13  14:13:09         -1.93  -121.312110    3      2
iter:  14  14:13:10         -2.05  -121.295986    3      2
iter:  15  14:13:10         -2.27  -121.291722    3      2
iter:  16  14:13:11         -2.44  -121.288768    3      2
iter:  17  14:13:11         -2.53  -121.288814    3      2
iter:  18  14:13:12         -2.62  -121.287666    3      2
iter:  19  14:13:12         -2.80  -121.286015    2      2
iter:  20  14:13:13         -3.05  -121.285096    2      1
iter:  21  14:13:13         -3.17  -121.282007    2      1
iter:  22  14:13:14         -3.26  -121.283603    2      1
iter:  23  14:13:14         -3.37  -121.282832    2      1
iter:  24  14:13:15         -3.54  -121.284404    2      1
iter:  25  14:13:15         -3.64  -121.285100    2      1
iter:  26  14:13:16         -3.79  -121.285248    2      1
iter:  27  14:13:16         -3.97  -121.286192    2      1
iter:  28  14:13:17         -4.23  -121.286730    2      1

Converged after 28 iterations.

Dipole moment: (-0.061720, 0.447849, -0.251583) |e|*Ang

Energy contributions relative to reference atoms: (reference = -24663.074771)

Kinetic:       +249.185432
Potential:     -206.701521
External:        +0.000000
XC:            -166.340494
Entropy (-ST):   -0.576071
Local:           +2.857888
Free energy:   -121.574766
Extrapolated:  -121.286730

Fermi level: -5.04464

 Band  Eigenvalues  Occupancy
    0    -27.04748    2.00000
    1    -25.63667    2.00000
    2    -23.77146    2.00000
    3    -23.10511    2.00000
    4    -22.69046    2.00000
    5    -21.75446    2.00000
    6    -19.66689    2.00000
    7    -18.67696    2.00000
    8    -18.43956    2.00000
    9    -17.85877    2.00000
   10    -17.32114    2.00000
   11    -16.06789    2.00000
   12    -15.40032    2.00000
   13    -15.23218    2.00000
   14    -14.97493    2.00000
   15    -14.09828    2.00000
   16    -13.19165    2.00000
   17    -13.01037    2.00000
   18    -12.29579    2.00000
   19    -11.85985    2.00000
   20    -11.63518    2.00000
   21    -11.25098    2.00000
   22    -11.09758    2.00000
   23    -10.57750    2.00000
   24    -10.26708    2.00000
   25     -9.98561    2.00000
   26     -9.81143    2.00000
   27     -9.63970    2.00000
   28     -8.92753    2.00000
   29     -8.74828    2.00000
   30     -8.61188    2.00000
   31     -8.42343    2.00000
   32     -8.27471    2.00000
   33     -7.93465    2.00000
   34     -7.80197    2.00000
   35     -7.47831    2.00000
   36     -7.27095    2.00000
   37     -7.18236    2.00000
   38     -6.76413    2.00000
   39     -6.56061    2.00000
   40     -6.41911    2.00000
   41     -6.29855    1.99999
   42     -6.20731    1.99998
   43     -5.57614    1.99021
   44     -5.49420    1.97793
   45     -5.32721    1.88810
   46     -5.16562    1.54054
   47     -5.09482    1.24578
   48     -5.02809    0.91745
   49     -4.88082    0.32542
   50     -4.75476    0.10443
   51     -4.51507    0.00998
   52     -4.09708    0.00015
   53     -3.94549    0.00003
   54     -3.61728    0.00000
   55     -3.57535    0.00000
   56     -3.49601    0.00000
   57     -3.24359    0.00000
   58     -2.97247    0.00000
   59     -2.67328    0.00000
[...]
   83      7.07684    0.00000
   84      7.12440    0.00000
   85      7.53770    0.00000
   86      7.67746    0.00000
   87      8.01279    0.00000
   88      8.16237    0.00000
   89      8.31702    0.00000
   90      8.34911    0.00000
   91      8.74915    0.00000
   92      8.78159    0.00000
   93      8.91706    0.00000
   94      8.96858    0.00000
   95      9.14945    0.00000
   96      9.21826    0.00000
   97      9.40673    0.00000

Forces in eV/Ang:
  0 C   -12.98981  -13.37659    7.59275
  1 C    12.77247  -12.28874  -15.72253
  2 C     8.34703   -5.44718  -13.37570
  3 C     3.18253   -1.32148   -0.70037
  4 C    -1.24848    0.23084   -1.61665
  5 C     5.20860   16.86906    1.31154
  6 C    -0.01911    1.42817   -2.15652
  7 C     0.45014   -1.32787    1.16642
  8 C   -10.40144   18.18940   -2.02623
  9 C     0.64762   -1.56784    2.45244
 10 C   -12.72204  -16.71541  -20.51528
 11 C    -6.11418   -1.17091    0.44195
 12 C     3.66027   -2.80399    2.45049
 13 C     1.04579   -0.79834    2.35556
 14 C    -6.85402  -13.39834   -1.29009
 15 C    10.22996    3.60548    5.86241
 16 C   -12.34491    6.41947   11.08806
 17 C    -0.60926    1.11369   -1.75074
 18 C    -8.97887  -12.79954   -3.73123
 19 C     1.48581    0.38812    0.22054
 20 C     7.85305   10.83354    5.65409
 21 C    14.84662   -4.30391  -14.25915
 22 C   -12.46062   10.74411   15.67794
 23 C    15.02628   17.49491   20.81634

System changes: positions

[...]

Density initialized from wave functions
  /        |       C C    C      C                |
 *         |     C            C  C                |
 |         |  C   C   C     C C  C                |
 |         .-C------C----C--C-C-------------------.
 |        /      C     C  C                      /
[...]
 *         |     C   C  C  C  C  C C              |
 |         |   C     C            C C             |
 |         .---C--C-----C--C----C-----------------.
 |        /                  C                   /
 |       /        C       C                     /
 |      /           C  C                       /

[...]

Density initialized from wave functions
  /        | C C C                                |
 *         |     C   C  C  C  C  C C              |
 |         |   C     C            C C             |
 |         .---C--C-----C--C----C-----------------.
 |        /                  C                   /
 |       /        C       C                     /
 |      /           C  C                       /

[...]

Density initialized from wave functions
  /        | C CC                                 |
 *         |     C   C C   C  C  C C              |
 |         |  C      C            C C             |
 |         .---C--C-----C--C----C-----------------.
 |        /                  C                   /
 |       /        C       C                     /
 |      /           C  C                       /

[...]

Density initialized from wave functions
  /        | C CC             C                   |
 *         |     C   C C   C     C C              |
 |         |  C                   C C             |
 |         .---C--C--C--C--C----C-----------------.
 |        /                  C                   /
 |       /        C       C                     /
 |      /           C  C                       /

[...]

Density initialized from wave functions
  /        |  CCC             C                   |
 *         |     C   C C   C     C C              |
 |         |  C                   C C             |
 |         .---C--C--C--C-C-----C-----------------.
 |        /                  C                   /
 |       /        C       C                     /
 |      /           C  C                       /

[...]

Density initialized from wave functions
  /        |  CCC             C                   |
 *         |     C     C   C     C C              |
 |         |  C      C              C             |
 |         .---C--C--C--C-C-----C-C---------------.
 |        /                  C                   /
 |       /        C       C                     /
 |      /           C  C                       /

[...]

Density initialized from wave functions
  /        |  CCC             C                   |
 *         |     C     C   C     C C              |
 |         |  C      C              C             |
 |         .---C-----C--C-C-----C-C---------------.
 |        /       C          C                   /
 |       /        C       C                     /
 |      /           C  C                       /

[...]

Density initialized from wave functions
  /        |  CC              C                   |
 *         |    CC     C   C     C C              |
 |         |  C     C               C             |
 |         .---C-----C--C-C-------C---------------.
 |        /       C          C  C                /
 |       /        C       C                     /
 |      /           C  C                       /

[...]

Density initialized from wave functions
  /        |  CC              C                   |
 *         |    CC     C   C     C C              |
 |         |  C     C               C             |
 |         .---C-----C--C-C-------C---------------.
 |        /       C          C  C                /
 |       /        C       C                     /
 |      /           C  C                       /

[...]

Density initialized from wave functions
  /        |  CC              C  C                |
 *         |    CC     C   C       C              |
 |         |  C     C               C             |
 |         .---C-----C--C-C-------C---------------.
 |        /       C          C  C                /
 |       /         C      C                     /
 |      /           C  C                       /

[...]

Density initialized from wave functions
  /        |  CC              C  C                |
 *         |    CC     C   C       C              |
 |         |  C     C               C             |
 |         .---C-----C--C-C-------C---------------.
 |        /       C          C  C                /
 |       /         C      C                     /
 |      /           C  C                       /

[...]

Density initialized from wave functions
  /        |  CC           C  C  C                |
 *         |    CC     C           C              |
 |         |  C     C               C             |
 |         .---C-----C--C-C-------C---------------.
 |        /       C          C  C                /
 |       /         C      C                     /
 |      /           C  C                       /

[...]

Density initialized from wave functions
  /        |   C          C   C  C                |
 *         |    CC     C           C              |
 |         |  C     C               C             |
 |         .---C-----C--C-C-------C---------------.
 |        /       C          C  C                /
 |       /         C      C                     /
 |      /           C  C                       /

[...]

Density initialized from wave functions
  /        |   C          C   C  C                |
 *         |    CC     C           C              |
 |         |  C     C               C             |
 |         .---C-----C--C-C-------C---------------.
 |        /       C          C  C                /
 |       /         C      C                     /
 |      /           C  C                       /

[...]

Density initialized from wave functions
  /        |   CC         C   C  C                |
 *         |    CC     C           C              |
 |         |  C     C               C             |
 |         .---C-----C--C-C-------C---------------.
 |        /       C         C   C                /
 |       /         C      C                     /
 |      /           C  C                       /

[...]

Density initialized from wave functions
  /        |   CC         C   C  C                |
 *         |     C     C           C              |
 |         |  C     C               C             |
 |         .---C-----C--C-C-------C---------------.
 |        /       C         C   C                /
 |       /         C      C                     /
 |      /           C  C                       /

[...]

Density initialized from wave functions
  /        |    C          C  C  C                |
 *         |     C     C           C              |
 |         |  C      C             C              |
 |         .---C-----C--C-C-------C---------------.
 |        /       C          C  C                /
 |       /        C       C                     /
 |      /           C  C                       /

[...]

Density initialized from wave functions
  /        |   CC         C   C  C                |
 *         |     C     C           C              |
 |         |  C     C              C              |
 |         .---C-----C--C-C-------C---------------.
 |        /       C          C  C                /
 |       /        C       C                     /
 |      /           C  C                       /

[...]

Density initialized from wave functions
  /        |    C         C   C  C                |
 *         |     C     C           C              |
 |         |  C     C              C              |
 |         .---C-----C--C-C-------C---------------.
 |        /       C          C  C                /
 |       /        C       C                     /
 |      /           C  C                       /

[...]

Density initialized from wave functions
  /        |    C         C   C  C                |
 *         |     C     C           C              |
 |         |  C      C             C              |
 |         .---C-----C--C---------C---------------.
 |        /       C       C  C  C                /
 |       /        C       C                     /
 |      /           C  C                       /

[...]

Density initialized from wave functions
  /        |    C         C   C  C                |
 *         |     C     C           C              |
 |         |  C      C             C              |
 |         .---C-----C--C---------C---------------.
 |        /       C       C  C  C                /
 |       /        C C     C                     /
 |      /              C                       /

[...]

Density initialized from wave functions
  /        |    C         C   C  C                |
 *         |     C     C           C              |
 |         |  C      C             C              |
 |         .---C-----C--C---------C---------------.
 |        /       C       C  C  C                /
 |       /        C C     C                     /
 |      /              C                       /

[...]

Density initialized from wave functions
  /        |    C         C   C  C                |
 *         |     C     C           C              |
 |         |  C      C             C              |
 |         .---C-----C--C---------C---------------.
 |        /       C       C  C  C                /
 |       /        C       C                     /
 |      /           C  C                       /

[...]

Density initialized from wave functions
  /        |    C         C   C  C                |
 *         |     C     C           C              |
 |         |  C  C   C             C              |
 |         .---C-----C--C---------C---------------.
 |        /       C       C  C  C                /
 |       /        C C     C                     /
 |      /              C                       /

[...]

Density initialized from wave functions
   /       |    C                                 |
  /        |    C         C   C  C                |
 *         |     C     C           C              |
 |         |  C  C  C               C             |
 |         .---C-----C--C---------C---------------.
 |        /       C       C  C  C                /
 |       /        C C     C                     /
 |      /              C                       /

[...]

Density initialized from wave functions
  /        |    C         C   C  C                |
 *         |     C     C           C              |
 |         |  C  C  C               C             |
 |         .---C-----C--C---------C---------------.
 |        /       C       C  C  C                /
 |       /        C C     C                     /
 |      /              C                       /

[...]

System changes: positions

Initializing position-dependent things.

Density initialized from wave functions
   /       |    C                                 |
  /        |    C         C   C  C                |
 *         |     C     C           C              |
 |         |  C  C  C               C             |
 |         .---C-----C--C---------C---------------.
 |        /       C       C  C  C                /
 |       /        C C     C                     /
 |      /              C                       /

Positions:
   0 C     10.056441    4.945694    4.619791
   1 C      9.520816    3.647699    4.424035
   2 C      6.059016    4.196681    4.682773
   3 C      7.976175    9.619483    5.572758
   4 C      4.505634    8.260299    5.251921
   5 C      6.904215    8.980043    5.435828
   6 C      4.160047    5.918758    5.014196
   7 C      3.023826   11.955746    5.024513
   8 C     11.593640    9.011697    5.452197
   9 C      7.804192    6.305257    4.965145
  10 C      4.054090    9.554636    5.242533
  11 C      9.270143    9.999101    5.652306
  12 C      7.040947    3.414764    4.491503
  13 C      3.702096    7.083326    5.155355
  14 C      5.949814    7.948779    5.267782
  15 C     12.162129    7.903492    5.201614
  16 C      5.482703    5.438984    4.919105
  17 C     11.954197    6.603708    4.906998
  18 C      8.349783    3.141796    4.391366
  19 C     10.520340    9.802169    5.624984
  20 C      8.941237    5.819386    4.811950
  21 C     11.350773    5.512892    4.693819
  22 C      6.426266    6.607469    5.075716
  23 C      3.563675   10.747788    5.172919

Unit cell:
           periodic     x           y           z      points  spacing
  1. axis:    yes   16.000000    0.000000    0.000000    80     0.2000
  2. axis:    yes    0.000000   16.000000    0.000000    80     0.2000
  3. axis:    yes    0.000000    0.000000   10.000000    48     0.2083

Effective grid spacing dv^(1/3) = 0.2027

                     log10-error:    total        iterations:
           time      wfs    density  energy       fermi  poisson
iter:   1  14:47:14          +inf  -181.252631    3      4
iter:   2  14:47:15         -3.01  -181.248490    3      1
iter:   3  14:47:15         -3.39  -181.247187    2      1
iter:   4  14:47:16         -3.53  -181.249725    2      1
iter:   5  14:47:16         -3.47  -181.244504    3      1
iter:   6  14:47:17         -3.13  -181.245937    2      1
iter:   7  14:47:17         -3.46  -181.250772    3      1
iter:   8  14:47:18         -3.23  -181.247666    2      1
iter:   9  14:47:18         -4.44  -181.247207    2      1

Converged after 9 iterations.

Dipole moment: (0.233609, -0.469920, 0.050935) |e|*Ang

Energy contributions relative to reference atoms: (reference = -24663.074771)

Kinetic:       +104.244006
Potential:     -115.873525
External:        +0.000000
XC:            -172.558681
Entropy (-ST):   -0.230618
Local:           +3.056302
Free energy:   -181.362516
Extrapolated:  -181.247207

Fermi level: -4.42187

 Band  Eigenvalues  Occupancy
    0    -22.24613    2.00000
    1    -21.07914    2.00000
    2    -20.68248    2.00000
    3    -20.43432    2.00000
    4    -20.02375    2.00000
    5    -19.86351    2.00000
    6    -19.44570    2.00000
    7    -19.16757    2.00000
    8    -18.77123    2.00000
    9    -18.17575    2.00000
   10    -17.63400    2.00000
   11    -17.43009    2.00000
   12    -17.10953    2.00000
   13    -16.13969    2.00000
   14    -15.71559    2.00000
   15    -15.53041    2.00000
   16    -14.96497    2.00000
   17    -14.19122    2.00000
   18    -13.83177    2.00000
   19    -13.36990    2.00000
   20    -12.98910    2.00000
   21    -12.46051    2.00000
   22    -12.28104    2.00000
   23    -12.14731    2.00000
   24    -11.14376    2.00000
   25    -10.93904    2.00000
   26    -10.23091    2.00000
   27     -9.37405    2.00000
   28     -9.12587    2.00000
   29     -9.10633    2.00000
   30     -8.75283    2.00000
   31     -8.45635    2.00000
   32     -8.33221    2.00000
   33     -8.19724    2.00000
   34     -8.12202    2.00000
   35     -8.06434    2.00000
   36     -7.39328    2.00000
   37     -7.15034    2.00000
   38     -7.03346    2.00000
   39     -6.77562    2.00000
   40     -6.61408    2.00000
   41     -6.33375    2.00000
   42     -6.19729    2.00000
   43     -5.72713    2.00000
   44     -5.63789    1.99999
   45     -5.23089    1.99939
   46     -5.16336    1.99880
   47     -4.55819    1.59256
   48     -4.24468    0.29062
   49     -4.14550    0.11864
   50     -3.15843    0.00001
   51     -2.88074    0.00000
   52     -2.72155    0.00000
   53     -2.48639    0.00000
   54     -1.63124    0.00000
   55     -1.20729    0.00000
   56     -1.08959    0.00000
   57     -0.92979    0.00000
   58     -0.61703    0.00000
   59     -0.50496    0.00000
[...]
   83      8.95259    0.00000
   84      9.00258    0.00000
   85      9.07543    0.00000
   86      9.24072    0.00000
   87      9.38039    0.00000
   88      9.51674    0.00000
   89      9.59216    0.00000
   90      9.69637    0.00000
   91      9.81231    0.00000
   92      9.93082    0.00000
   93     10.00258    0.00000
   94     10.16703    0.00000
   95     10.25773    0.00000
   96     10.26240    0.00000
   97     10.30089    0.00000

Forces in eV/Ang:
  0 C     0.02194   -0.01843    0.00505
  1 C    -0.01316   -0.00956   -0.03312
  2 C    -0.01571    0.01522    0.00274
  3 C    -0.02602   -0.04860   -0.00613
  4 C    -0.00922   -0.02350    0.01139
  5 C     0.04579   -0.00319   -0.01856
  6 C     0.02414   -0.00662   -0.01579
  7 C    -0.00530    0.05859    0.04105
  8 C     0.04706    0.00703   -0.01296
  9 C    -0.03887    0.03648    0.04051
 10 C    -0.04729   -0.00445    0.01781
 11 C    -0.04053   -0.02419    0.00652
 12 C     0.04478   -0.02178    0.04318
 13 C    -0.01576   -0.02167    0.01958
 14 C     0.00606   -0.01531   -0.00797
 15 C    -0.02893   -0.01270    0.00174
 16 C     0.00318   -0.01410   -0.03307
 17 C     0.00161   -0.00365   -0.00871
 18 C    -0.01559   -0.00284   -0.01725
 19 C     0.01916    0.00187   -0.01169
 20 C     0.00817    0.03211    0.01550
 21 C     0.03063   -0.00673    0.02849
 22 C    -0.01260    0.00509   -0.02183
 23 C    -0.01350   -0.01788   -0.01532