User:   esb@s65n24.grendel.cscaa.dk
Date:   Wed Nov  8 17:12:57 2017
Arch:   x86_64
Pid:    40034
Python: 2.7.13
gpaw:   /home/esb/DFT/gpaw_git/gpaw
_gpaw:  /home/esb/DFT/gpaw_git/build/bin.linux-x86_64-2.7/gpaw-python
ase:    /home/esb/DFT/ase_git/ase (version 3.15.0b1)
numpy:  /comm/swstack/core/python/2.7.13/lib/python2.7/site-packages/numpy (version 1.13.3)
scipy:  /comm/swstack/core/python/2.7.13/lib/python2.7/site-packages/scipy (version 0.19.1)
units:  Angstrom and eV
cores:  16
Extra parameters: {'blacs': True}

Input parameters:
  basis: dzp
  gpts: [80 80 48]
  kpts: [1 1 1]
  maxiter: 99
  mixer: {backend: pulay,
          beta: 0.05,
          method: separate,
          nmaxold: 5,
          weight: 75}
  mode: lcao
  nbands: -50
  occupations: {name: fermi-dirac,
                width: 0.1}
  poissonsolver: {eps: 1e-07,
                  name: fd,
                  nn: 3,
                  relax: GS}
  xc: PBE

System changes: positions, numbers, cell, pbc, initial_charges, initial_magmoms

Initialize ...

C-setup:
  name: Carbon
  id: 4aa54d4b901d75f77cc0ea3eec22967b
  Z: 6
  valence: 4
  core: 2
  charge: 0.0
  file: /home/esb/DFT/gpaw-setups-0.8.7929/C.PBE.gz
  cutoffs: 0.64(comp), 1.14(filt), 1.14(core), lmax=2
  valence states:
                energy  radius
    2s(2.00)   -13.751   0.635
    2p(2.00)    -5.284   0.635
    *s          13.461   0.635
    *p          21.927   0.635
    *d           0.000   0.635

  LCAO basis set for C:
    Name: dzp
    File: /home/esb/DFT/gpaw-setups-0.8.7929/C.dzp.basis.gz
    Number of radial functions: 5
    Number of spherical harmonics: 13
      l=0, rc=5.5469 Bohr: 2s-sz confined orbital
      l=1, rc=6.6719 Bohr: 2p-sz confined orbital
      l=0, rc=3.0312 Bohr: 2s-dz split-valence wave
      l=1, rc=3.7500 Bohr: 2p-dz split-valence wave
      l=2, rc=6.6719 Bohr: d-type Gaussian polarization

Reference energy: -24663.074771

Spin-paired calculation

Occupation numbers:
  Fermi-Dirac: width=0.1000 eV

Convergence criteria:
  Maximum total energy change: 0.0005 eV / electron
  Maximum integral of absolute density change: 0.0001 electrons
  Maximum integral of absolute eigenstate change: 4e-08 eV^2
  Maximum number of iterations: 99

Symmetries present (total): 1

  ( 1  0  0)
  ( 0  1  0)
  ( 0  0  1)

1 k-point (Gamma)
1 k-point in the irreducible part of the Brillouin zone
       k-points in crystal coordinates                weights
   0:     0.00000000    0.00000000    0.00000000          1/1

Wave functions: LCAO
  Diagonalizer: Serial LAPACK
  Atomic Correction: dense with blas
  Datatype: float
  Eigensolver: None

LCAO using direct dense diagonalizer

Densities:
  Coarse grid: 80*80*48 grid
  Fine grid: 160*160*96 grid
  Total Charge: 0.000000

Density mixing:
  Method: separate
  Backend: pulay
  Linear mixing parameter: 0.05
  Mixing with 5 old densities
  Damping of long wave oscillations: 75

Hamiltonian:
  XC and Coulomb potentials evaluated on a 160*160*96 grid
  Using the PBE Exchange-Correlation functional
  Interpolation: tri-quintic (5. degree polynomial)
  Poisson solver: Gauss-Seidel solver with 6 multi-grid levels
    Coarsest grid: 5 x 5 x 3 points
    Stencil: 6*3+1=19 point O(h^6) finite-difference Laplacian
    Max iterations: 1000
    Tolerance: 1.000000e-07

Total number of cores used: 16
Domain decomposition: 2 x 4 x 2

Number of atoms: 24
Number of atomic orbitals: 312
Number of bands in calculation: 98
Bands to converge: occupied states only
Number of valence electrons: 96

... initialized

Initializing position-dependent things.

Density initialized from atomic densities
  /        |     C  C  C C                        |
 *         |    C         C                       |
 |         |     C C  C  C  C  C  C               |
 |         .----C--C-----C------------------------.
 |        /         C   C        C               /
 |       /         C C  C   C  C                /

Positions:
   0 C      6.416642    5.116293    4.848747
   1 C      7.862051    5.373453    4.735827
   2 C     10.952966    4.740367    4.385995
   3 C      5.689543    6.346647    4.996583
   4 C      8.537420    4.075329    4.618014
   5 C      7.418139    3.133528    4.660842
   6 C      9.920320    4.012459    4.481606
   7 C      6.268980    3.692731    4.791019
   8 C     11.501752    5.963904    4.353978
   9 C      4.331492    6.621161    5.250309
  10 C      8.068162    6.783381    4.793334
  11 C      3.768232   11.167211    4.941976
  12 C      6.704463    7.641744    4.846146
  13 C     11.696070    7.853692    4.825233
  14 C      5.356259    7.954801    4.904032
  15 C     10.366456    8.193381    4.803702
  16 C      3.669239    9.889271    4.986511
  17 C      7.592231   10.028324    4.760504
  18 C      7.766382    8.661297    4.790218
  19 C      6.032913   12.054091    4.818448
  20 C      4.754116   12.072949    4.918193
  21 C      9.019146    7.923105    4.803826
  22 C      4.369973    8.753078    4.938765
  23 C      7.031688   11.163748    4.790239

Unit cell:
           periodic     x           y           z      points  spacing
  1. axis:    yes   16.000000    0.000000    0.000000    80     0.2000
  2. axis:    yes    0.000000   16.000000    0.000000    80     0.2000
  3. axis:    yes    0.000000    0.000000   10.000000    48     0.2083

Effective grid spacing dv^(1/3) = 0.2027

                     log10-error:    total        iterations:
           time      wfs    density  energy       fermi  poisson
iter:   1  17:12:59          +inf  -176.111700    2      6
iter:   2  17:12:59         -0.91  -175.072964    4      3
iter:   3  17:13:00         -0.94  -173.296753    34     3
iter:   4  17:13:00         -1.05  -172.368419    32     3
iter:   5  17:13:01         -1.17  -171.847504    34     3
iter:   6  17:13:02         -1.39  -171.814080    30     3
iter:   7  17:13:02         -1.63  -171.776323    2      2
iter:   8  17:13:03         -1.70  -171.745571    3      3
iter:   9  17:13:03         -1.90  -171.725225    4      2
iter:  10  17:13:04         -2.09  -171.712556    4      2
iter:  11  17:13:04         -2.29  -171.705078    3      2
iter:  12  17:13:04         -2.52  -171.700987    3      2
iter:  13  17:13:05         -2.70  -171.697682    3      2
iter:  14  17:13:05         -2.94  -171.698370    2      1
iter:  15  17:13:06         -3.06  -171.697846    2      1
iter:  16  17:13:06         -3.17  -171.698662    3      1
iter:  17  17:13:07         -3.33  -171.701137    2      1
iter:  18  17:13:07         -3.56  -171.700129    2      1
iter:  19  17:13:08         -3.79  -171.698845    2      1
iter:  20  17:13:08         -3.86  -171.698525    2      1
iter:  21  17:13:09         -3.97  -171.698944    2      1
iter:  22  17:13:09         -4.15  -171.698291    2      1

Converged after 22 iterations.

Dipole moment: (-0.807821, 0.747386, -0.041986) |e|*Ang

Energy contributions relative to reference atoms: (reference = -24663.074771)

Kinetic:       +102.553780
Potential:     -106.610417
External:        +0.000000
XC:            -170.477114
Entropy (-ST):   -0.365541
Local:           +3.018230
Free energy:   -171.881061
Extrapolated:  -171.698291

Fermi level: -3.98565

 Band  Eigenvalues  Occupancy
    0    -24.30663    2.00000
    1    -22.51063    2.00000
    2    -22.08547    2.00000
    3    -21.36624    2.00000
    4    -20.35258    2.00000
    5    -20.10861    2.00000
    6    -19.78754    2.00000
    7    -18.81454    2.00000
    8    -18.69195    2.00000
    9    -18.49691    2.00000
   10    -17.78499    2.00000
   11    -17.49152    2.00000
   12    -16.93131    2.00000
   13    -16.42640    2.00000
   14    -15.73963    2.00000
   15    -15.23930    2.00000
   16    -14.87059    2.00000
   17    -14.71060    2.00000
   18    -13.70602    2.00000
   19    -13.45644    2.00000
   20    -12.99293    2.00000
   21    -12.43894    2.00000
   22    -11.88404    2.00000
   23    -11.32038    2.00000
   24    -11.07124    2.00000
   25    -10.15772    2.00000
   26     -9.86606    2.00000
   27     -9.84011    2.00000
   28     -9.77672    2.00000
   29     -9.62124    2.00000
   30     -9.40631    2.00000
   31     -9.18840    2.00000
   32     -8.62711    2.00000
   33     -8.37101    2.00000
   34     -8.09458    2.00000
   35     -7.77174    2.00000
   36     -7.54361    2.00000
   37     -7.30192    2.00000
   38     -7.14777    2.00000
   39     -6.69773    2.00000
   40     -6.25886    2.00000
   41     -6.10416    2.00000
   42     -6.01234    2.00000
   43     -5.86621    2.00000
   44     -5.60885    2.00000
   45     -5.27694    2.00000
   46     -4.43099    1.97699
   47     -4.01307    1.13629
   48     -3.91458    0.65889
   49     -3.74583    0.16663
   50     -3.60871    0.04509
   51     -3.46190    0.01057
   52     -3.39114    0.00522
   53     -3.10876    0.00031
   54     -2.62191    0.00000
   55     -2.30791    0.00000
   56     -1.77466    0.00000
   57     -1.69348    0.00000
   58     -0.73082    0.00000
   59     -0.55672    0.00000
[...]
   83      8.51809    0.00000
   84      8.70412    0.00000
   85      8.86619    0.00000
   86      9.17226    0.00000
   87      9.21987    0.00000
   88      9.28902    0.00000
   89      9.36251    0.00000
   90      9.46401    0.00000
   91      9.57470    0.00000
   92      9.69411    0.00000
   93      9.74375    0.00000
   94      9.96371    0.00000
   95      9.98987    0.00000
   96     10.11788    0.00000
   97     10.37205    0.00000

Forces in eV/Ang:
  0 C     1.03283    0.10707   -0.27081
  1 C    -0.35170    1.55829    0.09706
  2 C     2.66908    4.24341    0.32309
  3 C    -4.86705   -3.14286    0.97395
  4 C     1.50728   -0.49179   -0.24458
  5 C     0.69325   -0.42306   -0.07317
  6 C    -3.68089   -1.26969    0.36120
  7 C    -1.41241    0.64596    0.22460
  8 C     0.50382    1.28937   -0.28305
  9 C     0.96435   -0.11645   -0.36953
 10 C     1.54339   -2.74252    0.42224
 11 C     0.66629    0.91801   -0.15799
 12 C     3.70844    2.12446   -0.21858
 13 C    -2.62458   -2.28383   -0.07807
 14 C     3.15584   -2.28902   -0.31997
 15 C     2.54313   -2.08614   -0.37514
 16 C     0.24375   -1.85903    0.20879
 17 C    -0.41983    0.21055   -0.03158
 18 C     1.44226    3.45228   -0.29925
 19 C     0.34140    0.06127   -0.03748
 20 C    -0.64832   -0.21488    0.07408
 21 C    -2.99769   -1.04603   -0.03463
 22 C    -3.67352    3.04470    0.09996
 23 C    -0.30400    0.23435    0.03305

System changes: positions

[...]

Density initialized from wave functions
  /        |     C  C  C C                        |
 *         |    C         C                       |
 |         |     C C  C  C  C  C  C               |
 |         .----C--C-----C------------------------.
 |        /         C   C        C               /
 |       /         C C  C   C  C                /

[...]

Density initialized from wave functions
  /        |     C  C  C C                        |
 *         |    C         C                       |
 |         |     C C  C  C  C  C  C               |
 |         .----C--C-----C------------------------.
 |        /         C   C        C               /
[...]

[...]

Density initialized from wave functions
  /        |     C  C  C C                        |
 *         |    C         C                       |
 |         |     C C   C  C C  C                  |
 |         .----C-C------C--------C---------------.
 |        /         C  C         C               /
 |       /         C C  C   C  C                /

[...]

Density initialized from wave functions
  /        |     C  C  C C                        |
 *         |    C         C                       |
 |         |     C C   C  C C  C                  |
 |         .----CC-------C-------C----------------.
 |        /         C  C         C               /
 |       /         C C  C   C  C                /

[...]

Density initialized from wave functions
  /        |     C  C  C C                        |
 *         |    C         C                       |
 |         |     C C   C  C C  C                  |
 |         .----CC-------C-------C----------------.
 |        /         C  C         C               /
 |       /         C C  C   C  C                /

[...]

Density initialized from wave functions
  /        |     C  C  C C                        |
 *         |    C         C                       |
 |         |      CC   C  C C  C                  |
 |         .----CC-------C-------C----------------.
 |        /         C  C         C               /
 |       /         C C  C   C  C                /

[...]

Density initialized from wave functions
  /        |     C  C  C C                        |
 *         |    C         C                       |
 |         |      CC   C  C C  C                  |
 |         .----CC-------C-------C----------------.
 |        /         C  C          C              /
 |       /         C  C  C  C  C                /

[...]

Density initialized from wave functions
  /        |     C  C  C C                        |
 *         |    C         C                       |
 |         |      CC  C   C C  C                  |
 |         .----CC-------C------C-----------------.
 |        /         C  C          C              /
 |       /         C  C  C  C  C                /

[...]

Density initialized from wave functions
  /        |     C  C   CC                        |
 *         |    C         C                       |
 |         |      CC  C   C C  C                  |
 |         .----CC-------C------C-----------------.
 |        /         C  C          C              /
 |       /         C  C  C  C  C                /

[...]

Density initialized from wave functions
  /        |     C  C   CC                        |
 *         |    C C       C                       |
 |         |       C  C   C C  C                  |
 |         .----CC------C-------C-----------------.
 |        /         C  C          C              /
 |       /         C  C  C  C  C                /

[...]

Density initialized from wave functions
  /        |     C  C   CC                        |
 *         |    C C       C                       |
 |         |       C  C   C C  C                  |
 |         .----CC------C-------C-----------------.
 |        /         C  C          C              /
 |       /         C  C  C  C  C                /

[...]

Density initialized from wave functions
   /       |            C                         |
  /        |     C  C    C                        |
 *         |     CC       C                       |
 |         |       C  C   C C  C                  |
 |         .----CC------C-------C-----------------.
 |        /         C  C          C              /
 |       /         C  C  C  C  C                /

[...]

Density initialized from wave functions
   /       |            C                         |
  /        |     C  C    C                        |
 *         |     CC       C                       |
 |         |       C  C   C C  C                  |
 |         .----CC------C-------C-----------------.
 |        /        C   C          C              /
 |       /         C  C  C  C  C                /

[...]

Density initialized from wave functions
   /       |            C                         |
  /        |     C  C    C                        |
 *         |     CC       C                       |
 |         |       C  C   CC   C                  |
 |         .-----C------C-------C-----------------.
 |        /        C   C          C              /
 |       /         C  C  C  C  C                /

[...]

Density initialized from wave functions
   /       |            C                         |
  /        |     C  C    C                        |
 *         |     CC       C                       |
 |         |       C  C  C C   C                  |
 |         .-----C------C-------C-----------------.
 |        /        C   C          C              /
 |       /         C  C  C  C  C                /

[...]

Density initialized from wave functions
   /       |            C                         |
  /        |     C  C    C                        |
 *         |     CC       C                       |
 |         |       C  C  C C                      |
 |         .-----C------C------CC-----------------.
 |        /        C   C          C              /
 |       /         C  C  C  C  C                /

[...]

Density initialized from wave functions
   /       |            C                         |
  /        |     C  C    C                        |
 *         |     CC       C                       |
 |         |       C  C  C C                      |
 |         .-----C------C------CC-----------------.
 |        /        C   C          C              /
 |       /         C  C  C  C  C                /

[...]

Density initialized from wave functions
  /        |     C  C   CC                        |
 *         |     CC       C                       |
 |         |       C  C  C C                      |
 |         .-----C------C------CC-----------------.
 |        /        C   C       C  C              /
 |       /         C     C  C                   /
 |      /             C                        /

[...]

Density initialized from wave functions
  /        |     C  C   CC                        |
 *         |     CC       C                       |
 |         |       C  C  C C                      |
 |         .-----C------C------CC-----------------.
 |        /        C   C       C  C              /
 |       /         C     C  C                   /
 |      /             C                        /

[...]

Density initialized from wave functions
  /        |     C  C   CC                        |
 *         |     CC       C                       |
 |         |       C  C  C C                      |
 |         .-----C------C------C-C----------------.
 |        /        C   C       C  C              /
 |       /         C     C  C                   /
 |      /             C                        /

[...]

Density initialized from wave functions
  /        |     C  C   CC                        |
 *         |     CC       C                       |
 |         |       C  C  C C                      |
 |         .-----C------C------C-C----------------.
 |        /      C C   C       C  C              /
 |       /         C     C  C                   /
 |      /             C                        /

[...]

Density initialized from wave functions
  /        |     C  C   CC                        |
 *         |     CC       C                       |
 |         |       C  C  C C   C                  |
 |         .-----C------C--------C----------------.
 |        /      C C   C       C  C              /
 |       /         C     C  C                   /
 |      /             C                        /

[...]

Density initialized from wave functions
  /        |     C  C   CC                        |
 *         |     CC       C                       |
 |         |       C  C  C C   C                  |
 |         .-----C------C-------C-----------------.
 |        /      C C   C       C  C              /
 |       /         C     C  C                   /
 |      /             C                        /

[...]

Density initialized from wave functions
  /        |     C   C  CC                        |
 *         |     CC       C                       |
 |         |       C  C  C C   C                  |
 |         .-----C------C--------C----------------.
 |        /      C C   C       C  C              /
 |       /         C     C  C                   /
 |      /             C                        /

[...]

Density initialized from wave functions
  /        |     C   C  CC                        |
 *         |     C        C                       |
 |         |       C  C  C C   C                  |
 |         .-----C------C--------C----------------.
 |        /      C C   C       C  C              /
 |       /         C     C  C                   /
 |      /             C                        /

[...]

Density initialized from wave functions
  /        |     C   C  CC                        |
 *         |     C        C                       |
 |         |       C  C  C C   C                  |
 |         .-----C------C--------C----------------.
 |        /      C C   C       C  C              /
 |       /         C     C  C                   /
 |      /             C                        /

[...]

Density initialized from wave functions
  /        |     C   C  CC                        |
 *         |     C        C                       |
 |         |       C  C  C C   C                  |
 |         .-----C------C-------C-----------------.
 |        /      C C   C       C  C              /
 |       /         C     C  C                   /
 |      /             C                        /

[...]

Density initialized from wave functions
  /        |      C  C  CC                        |
 *         |     C        C                       |
 |         |      C   C  C C   C                  |
 |         .-----C------C-------C-----------------.
 |        /      C C   C       C  C              /
 |       /         C     C  C                   /
 |      /             C                        /

[...]

Density initialized from wave functions
   /       |            C                         |
  /        |      C  C   C                        |
 *         |     C        C                       |
 |         |      C   C  C C   C                  |
 |         .-----C------C-------C-----------------.
 |        /      C C   C       C  C              /
 |       /         C     C  C                   /
 |      /             C                        /

[...]

System changes: positions

Initializing position-dependent things.

Density initialized from wave functions
   /       |            C                         |
  /        |      C  C   C                        |
 *         |     C        C                       |
 |         |      C   C  C C   C                  |
 |         .-----C------C-------C-----------------.
 |        /      C C   C       C  C              /
 |       /         C     C  C                   /
 |      /             C                        /

Positions:
   0 C      6.274730    4.533318    4.862656
   1 C      7.567119    5.330725    4.779731
   2 C     11.052407    5.231061    4.462846
   3 C      5.116442    5.281668    4.997692
   4 C      8.668653    4.274082    4.628508
   5 C      7.906437    3.027591    4.639161
   6 C     10.005737    4.489879    4.508034
   7 C      6.640152    3.162008    4.770322
   8 C     12.041217    6.180850    4.463145
   9 C      4.732581    6.472788    5.059918
  10 C      7.625917    6.738184    4.833321
  11 C      3.868716   11.542594    4.966501
  12 C      6.612039    7.816023    4.912455
  13 C     11.075207    7.158035    4.579437
  14 C      5.165539    7.814661    5.019131
  15 C     10.068601    7.950586    4.695056
  16 C      4.040120   10.184405    5.011006
  17 C      7.656935   10.241733    4.775335
  18 C      7.654213    8.858196    4.828001
  19 C      6.312542   12.498341    4.745992
  20 C      5.041381   12.134258    4.838565
  21 C      8.701647    7.859182    4.774697
  22 C      4.376271    8.969702    5.047763
  23 C      7.079111   11.370885    4.744714

Unit cell:
           periodic     x           y           z      points  spacing
  1. axis:    yes   16.000000    0.000000    0.000000    80     0.2000
  2. axis:    yes    0.000000   16.000000    0.000000    80     0.2000
  3. axis:    yes    0.000000    0.000000   10.000000    48     0.2083

Effective grid spacing dv^(1/3) = 0.2027

                     log10-error:    total        iterations:
           time      wfs    density  energy       fermi  poisson
iter:   1  17:21:57          +inf  -182.363781    2      4
iter:   2  17:21:57         -3.08  -182.363758    2      1
iter:   3  17:21:58         -3.17  -182.363708    2      1
iter:   4  17:21:58         -3.35  -182.363741    2      1
iter:   5  17:21:59         -3.55  -182.363508    2      1
iter:   6  17:21:59         -3.88  -182.364078    2      1
iter:   7  17:22:00         -4.01  -182.364443    2      1

Converged after 7 iterations.

Dipole moment: (-0.523112, -0.339231, 0.041591) |e|*Ang

Energy contributions relative to reference atoms: (reference = -24663.074771)

Kinetic:       +110.362924
Potential:     -120.081976
External:        +0.000000
XC:            -175.559363
Entropy (-ST):   -0.181345
Local:           +3.004644
Free energy:   -182.455116
Extrapolated:  -182.364443

Fermi level: -4.58123

 Band  Eigenvalues  Occupancy
    0    -22.87794    2.00000
    1    -22.18600    2.00000
    2    -21.25499    2.00000
    3    -21.10160    2.00000
    4    -20.92366    2.00000
    5    -19.88249    2.00000
    6    -19.60423    2.00000
    7    -19.23250    2.00000
    8    -18.60589    2.00000
    9    -18.46834    2.00000
   10    -18.22118    2.00000
   11    -17.41258    2.00000
   12    -16.75206    2.00000
   13    -16.27332    2.00000
   14    -15.91242    2.00000
   15    -15.05913    2.00000
   16    -14.31463    2.00000
   17    -13.83704    2.00000
   18    -13.60436    2.00000
   19    -13.28714    2.00000
   20    -12.91606    2.00000
   21    -11.98626    2.00000
   22    -11.63561    2.00000
   23    -11.33596    2.00000
   24    -11.10908    2.00000
   25    -10.65127    2.00000
   26    -10.34639    2.00000
   27    -10.09630    2.00000
   28     -9.84961    2.00000
   29     -9.78219    2.00000
   30     -9.36270    2.00000
   31     -9.15392    2.00000
   32     -9.12781    2.00000
   33     -8.77241    2.00000
   34     -8.70490    2.00000
   35     -8.01080    2.00000
   36     -7.68494    2.00000
   37     -7.38956    2.00000
   38     -7.08144    2.00000
   39     -6.96626    2.00000
   40     -6.42599    2.00000
   41     -6.15484    2.00000
   42     -5.97268    2.00000
   43     -5.92793    2.00000
   44     -5.83392    1.99999
   45     -5.52001    1.99983
   46     -4.96577    1.95814
   47     -4.77806    1.75485
   48     -4.39911    0.27858
   49     -4.03289    0.00828
   50     -3.71036    0.00033
   51     -2.80018    0.00000
   52     -2.68856    0.00000
   53     -2.45486    0.00000
   54     -1.68362    0.00000
   55     -1.45467    0.00000
   56     -0.93587    0.00000
   57     -0.29947    0.00000
   58     -0.14836    0.00000
   59      0.00356    0.00000
[...]
   83      8.52884    0.00000
   84      8.69187    0.00000
   85      8.73685    0.00000
   86      8.89068    0.00000
   87      9.06448    0.00000
   88      9.14290    0.00000
   89      9.30591    0.00000
   90      9.45039    0.00000
   91      9.47889    0.00000
   92      9.59731    0.00000
   93      9.95134    0.00000
   94      9.96362    0.00000
   95     10.08154    0.00000
   96     10.24680    0.00000
   97     10.29806    0.00000

Forces in eV/Ang:
  0 C     0.00695   -0.00135   -0.00391
  1 C     0.00716    0.00408    0.02694
  2 C     0.02007   -0.00263    0.01033
  3 C     0.01380    0.00195    0.00833
  4 C     0.04823   -0.02553   -0.01385
  5 C    -0.02149    0.02732    0.02307
  6 C    -0.00325   -0.03543    0.01307
  7 C     0.00648   -0.00651   -0.00007
  8 C    -0.00825   -0.00928   -0.02161
  9 C    -0.00718   -0.03477   -0.04635
 10 C     0.05844   -0.01662   -0.01397
 11 C     0.02722   -0.00234   -0.01644
 12 C     0.04637    0.02854    0.00947
 13 C    -0.01534   -0.00251    0.03037
 14 C     0.00365   -0.02476   -0.01163
 15 C    -0.00364   -0.01356   -0.01223
 16 C     0.02494   -0.02222    0.02775
 17 C    -0.09204   -0.01271    0.00888
 18 C     0.00332    0.01504   -0.01607
 19 C    -0.01972    0.02007    0.01470
 20 C    -0.02076    0.04525   -0.00102
 21 C    -0.05611   -0.01897    0.00542
 22 C    -0.03235    0.01077    0.00578
 23 C     0.01431   -0.01586    0.02159