User:   esb@s65n12.grendel.cscaa.dk
Date:   Thu Nov  9 11:23:14 2017
Arch:   x86_64
Pid:    20845
Python: 2.7.13
gpaw:   /home/esb/DFT/gpaw_git/gpaw
_gpaw:  /home/esb/DFT/gpaw_git/build/bin.linux-x86_64-2.7/gpaw-python
ase:    /home/esb/DFT/ase_git/ase (version 3.15.0b1)
numpy:  /comm/swstack/core/python/2.7.13/lib/python2.7/site-packages/numpy (version 1.13.3)
scipy:  /comm/swstack/core/python/2.7.13/lib/python2.7/site-packages/scipy (version 0.19.1)
units:  Angstrom and eV
cores:  16
Extra parameters: {'blacs': True}

Input parameters:
  basis: dzp
  gpts: [80 80 48]
  kpts: [1 1 1]
  maxiter: 99
  mixer: {backend: pulay,
          beta: 0.05,
          method: separate,
          nmaxold: 5,
          weight: 75}
  mode: lcao
  nbands: -50
  occupations: {name: fermi-dirac,
                width: 0.1}
  poissonsolver: {eps: 1e-07,
                  name: fd,
                  nn: 3,
                  relax: GS}
  xc: PBE

System changes: positions, numbers, cell, pbc, initial_charges, initial_magmoms

Initialize ...

C-setup:
  name: Carbon
  id: 4aa54d4b901d75f77cc0ea3eec22967b
  Z: 6
  valence: 4
  core: 2
  charge: 0.0
  file: /home/esb/DFT/gpaw-setups-0.8.7929/C.PBE.gz
  cutoffs: 0.64(comp), 1.14(filt), 1.14(core), lmax=2
  valence states:
                energy  radius
    2s(2.00)   -13.751   0.635
    2p(2.00)    -5.284   0.635
    *s          13.461   0.635
    *p          21.927   0.635
    *d           0.000   0.635

  LCAO basis set for C:
    Name: dzp
    File: /home/esb/DFT/gpaw-setups-0.8.7929/C.dzp.basis.gz
    Number of radial functions: 5
    Number of spherical harmonics: 13
      l=0, rc=5.5469 Bohr: 2s-sz confined orbital
      l=1, rc=6.6719 Bohr: 2p-sz confined orbital
      l=0, rc=3.0312 Bohr: 2s-dz split-valence wave
      l=1, rc=3.7500 Bohr: 2p-dz split-valence wave
      l=2, rc=6.6719 Bohr: d-type Gaussian polarization

Reference energy: -24663.074771

Spin-paired calculation

Occupation numbers:
  Fermi-Dirac: width=0.1000 eV

Convergence criteria:
  Maximum total energy change: 0.0005 eV / electron
  Maximum integral of absolute density change: 0.0001 electrons
  Maximum integral of absolute eigenstate change: 4e-08 eV^2
  Maximum number of iterations: 99

Symmetries present (total): 1

  ( 1  0  0)
  ( 0  1  0)
  ( 0  0  1)

1 k-point (Gamma)
1 k-point in the irreducible part of the Brillouin zone
       k-points in crystal coordinates                weights
   0:     0.00000000    0.00000000    0.00000000          1/1

Wave functions: LCAO
  Diagonalizer: Serial LAPACK
  Atomic Correction: dense with blas
  Datatype: float
  Eigensolver: None

LCAO using direct dense diagonalizer

Densities:
  Coarse grid: 80*80*48 grid
  Fine grid: 160*160*96 grid
  Total Charge: 0.000000

Density mixing:
  Method: separate
  Backend: pulay
  Linear mixing parameter: 0.05
  Mixing with 5 old densities
  Damping of long wave oscillations: 75

Hamiltonian:
  XC and Coulomb potentials evaluated on a 160*160*96 grid
  Using the PBE Exchange-Correlation functional
  Interpolation: tri-quintic (5. degree polynomial)
  Poisson solver: Gauss-Seidel solver with 6 multi-grid levels
    Coarsest grid: 5 x 5 x 3 points
    Stencil: 6*3+1=19 point O(h^6) finite-difference Laplacian
    Max iterations: 1000
    Tolerance: 1.000000e-07

Total number of cores used: 16
Domain decomposition: 2 x 4 x 2

Number of atoms: 24
Number of atomic orbitals: 312
Number of bands in calculation: 98
Bands to converge: occupied states only
Number of valence electrons: 96

... initialized

Initializing position-dependent things.

Density initialized from atomic densities
   /       |       C                              |
  /        |           C  CC  C                   |
 *         |   CC   CC  C      C                  |
 |         |             C  C  C                  |
 |         .-C-C---C-C------C---------------------.
 |        /    C    C     C                      /
 |       /       C     C                        /

Positions:
   0 C      4.765502    9.527786    6.367555
   1 C      5.392185    8.824464    5.777172
   2 C      7.547506    9.927920    6.079185
   3 C      6.292227    9.906462    5.955954
   4 C      9.804456    8.588518    6.205694
   5 C      5.821230    6.144205    5.530180
   6 C      7.623718    7.619452    5.783774
   7 C      9.566873    6.171946    5.751354
   8 C      8.187501    6.278243    5.673598
   9 C      6.199631    7.574717    5.690599
  10 C     10.382163    7.408801    6.006993
  11 C      8.422937    8.818233    6.022144
  12 C      7.030295    5.348430    5.504043
  13 C      3.452536    6.449881    5.329125
  14 C      4.619165    4.113232    5.209542
  15 C      4.509466    5.510854    5.398143
  16 C      5.593066    3.310726    5.231442
  17 C      3.598071    7.694019    5.817577
  18 C      6.943887    3.679491    5.402635
  19 C      8.198734    3.050796    5.482088
  20 C      9.644548    4.963294    5.710608
  21 C      9.325852    3.600795    5.620624
  22 C     10.861554    5.678438    5.808082
  23 C      3.695002    9.171620    5.480076

Unit cell:
           periodic     x           y           z      points  spacing
  1. axis:    yes   16.000000    0.000000    0.000000    80     0.2000
  2. axis:    yes    0.000000   16.000000    0.000000    80     0.2000
  3. axis:    yes    0.000000    0.000000   10.000000    48     0.2083

Effective grid spacing dv^(1/3) = 0.2027

                     log10-error:    total        iterations:
           time      wfs    density  energy       fermi  poisson
iter:   1  11:23:16          +inf  -173.403757    2      6
iter:   2  11:23:16         -0.91  -172.410776    4      3
iter:   3  11:23:17         -0.95  -170.197912    33     3
iter:   4  11:23:18         -1.10  -169.453534    4      3
iter:   5  11:23:18         -1.24  -169.278019    33     3
iter:   6  11:23:19         -1.49  -169.141394    4      3
iter:   7  11:23:20         -1.71  -169.123640    3      2
iter:   8  11:23:20         -1.78  -169.088756    4      3
iter:   9  11:23:21         -2.05  -169.078042    3      2
iter:  10  11:23:22         -2.15  -169.077095    4      2
iter:  11  11:23:22         -2.46  -169.065438    3      2
iter:  12  11:23:23         -2.53  -169.060838    2      2
iter:  13  11:23:23         -2.68  -169.059365    2      2
iter:  14  11:23:24         -3.10  -169.058073    2      1
iter:  15  11:23:25         -3.16  -169.055852    3      1
iter:  16  11:23:25         -3.37  -169.067853    2      1
iter:  17  11:23:26         -3.52  -169.068403    2      1
iter:  18  11:23:26         -3.72  -169.062300    2      1
iter:  19  11:23:27         -3.86  -169.062339    2      1
iter:  20  11:23:28         -4.05  -169.063374    2      1

Converged after 20 iterations.

Dipole moment: (0.297701, -0.323918, 0.030555) |e|*Ang

Energy contributions relative to reference atoms: (reference = -24663.074771)

Kinetic:       +156.225835
Potential:     -143.476406
External:        +0.000000
XC:            -184.775916
Entropy (-ST):   -0.187364
Local:           +3.056793
Free energy:   -169.157056
Extrapolated:  -169.063374

Fermi level: -4.02229

 Band  Eigenvalues  Occupancy
    0    -26.81282    2.00000
    1    -25.66936    2.00000
    2    -22.19533    2.00000
    3    -21.49888    2.00000
    4    -20.77136    2.00000
    5    -20.39474    2.00000
    6    -20.21474    2.00000
    7    -19.54569    2.00000
    8    -18.91873    2.00000
    9    -18.57899    2.00000
   10    -17.76631    2.00000
   11    -17.37719    2.00000
   12    -16.72269    2.00000
   13    -16.41446    2.00000
   14    -15.97334    2.00000
   15    -14.56032    2.00000
   16    -14.41654    2.00000
   17    -14.16809    2.00000
   18    -13.42155    2.00000
   19    -12.76850    2.00000
   20    -12.50614    2.00000
   21    -12.38877    2.00000
   22    -12.31724    2.00000
   23    -11.90696    2.00000
   24    -11.54657    2.00000
   25    -11.08498    2.00000
   26    -10.43285    2.00000
   27    -10.22734    2.00000
   28    -10.07235    2.00000
   29     -9.77547    2.00000
   30     -9.58860    2.00000
   31     -9.23714    2.00000
   32     -8.88356    2.00000
   33     -8.60087    2.00000
   34     -8.51465    2.00000
   35     -7.94268    2.00000
   36     -7.77776    2.00000
   37     -7.32268    2.00000
   38     -7.17242    2.00000
   39     -6.80536    2.00000
   40     -6.47898    2.00000
   41     -6.39566    2.00000
   42     -6.12679    2.00000
   43     -5.71953    2.00000
   44     -5.28733    1.99999
   45     -5.09665    1.99996
   46     -5.00559    1.99989
   47     -4.20109    1.71339
   48     -3.78540    0.17115
   49     -3.73781    0.10991
   50     -3.43370    0.00554
   51     -3.07435    0.00015
   52     -2.84284    0.00002
   53     -2.40488    0.00000
   54     -2.29414    0.00000
   55     -1.77848    0.00000
   56     -1.43011    0.00000
   57     -0.83817    0.00000
   58     -0.75351    0.00000
   59     -0.32994    0.00000
[...]
   83      8.71350    0.00000
   84      8.80182    0.00000
   85      8.83827    0.00000
   86      9.02913    0.00000
   87      9.18346    0.00000
   88      9.34956    0.00000
   89      9.45020    0.00000
   90      9.52788    0.00000
   91      9.67779    0.00000
   92      9.81789    0.00000
   93      9.93046    0.00000
   94     10.06147    0.00000
   95     10.24628    0.00000
   96     10.37146    0.00000
   97     10.39506    0.00000

Forces in eV/Ang:
  0 C   -12.06048   20.17702   14.51966
  1 C    17.48818  -22.74602  -13.96232
  2 C     2.59082    0.35114    0.61648
  3 C    -3.43158    3.63209    0.55979
  4 C     1.49014   -0.88279   -0.45934
  5 C     1.64073   -0.79179   -0.07212
  6 C    -0.75318   -0.27017    0.33656
  7 C   -10.34409   14.57042   -0.36298
  8 C    -4.81332    3.00915   -0.08471
  9 C    -0.13798   -1.28616   -0.52072
 10 C    -0.31379   -3.29496   -0.40122
 11 C    -0.21765   -0.03290   -0.09248
 12 C    -0.11712   -1.90973    0.01047
 13 C     0.11439    2.76660    1.97518
 14 C    -0.54195    1.01402    0.04744
 15 C    -0.37071   -0.04888   -0.42501
 16 C     1.33315    0.15635    0.25500
 17 C    -2.14713   -0.08965   -3.61455
 18 C    -0.83399    2.48943   -0.21141
 19 C    -0.93656    0.04216    0.01263
 20 C     6.87344  -17.69857   -0.04276
 21 C     0.37185    2.30264    0.03045
 22 C     7.73795    1.74787    1.14774
 23 C    -2.60215   -3.27575    0.76171

System changes: positions

[...]

Density initialized from wave functions
   /       |       C      C                       |
  /        |           C   C  C                   |
 *         |   CC   CC  C      C                  |
 |         |             C  C  C                  |
 |         .-C-C---C-C------C---------------------.
 |        /    C    C     C                      /
 |       /       C     C                        /

[...]

Density initialized from wave functions
   /       |       C      C                       |
  /        |          C    C  C                   |
 *         |   CC   CC  C      C                  |
 |         |             C  C  C                  |
 |         .-C-C---C-C------C---------------------.
 |        /    C    C     C                      /
 |       /       C     C                        /

[...]

Density initialized from wave functions
   /       |       C      C                       |
  /        |          C    C  C                   |
 *         |  C C   CC  C      C                  |
 |         |             C  C  C                  |
 |         .-C-C---C-C------C---------------------.
 |        /    C    C     C                      /
 |       /       C     C                        /

[...]

Density initialized from wave functions
   /       |       C      C                       |
  /        |          C    C  C                   |
 *         |  C C   CC  C      C                  |
 |         |             C  C  C                  |
 |         .-C-C---C-C------C---------------------.
 |        /    C    C     C                      /
 |       /       C     C                        /

[...]

Density initialized from wave functions
   /       |       C      C                       |
  /        |          C    C  C                   |
 *         |  C C   CC  C      C                  |
 |         |             C  C  C                  |
 |         .-C-C---C-C------C---------------------.
 |        /    C    C  C  C                      /
 |       /       C                              /

[...]

Density initialized from wave functions
   /       |       C      C                       |
  /        |          C    C  C                   |
 *         |  C C   C   C      C                  |
 |         | C       C   C  C  C                  |
 |         .---C---C-C------C---------------------.
 |        /    C    C  C  C                      /
 |       /       C                              /

[...]

Density initialized from wave functions
   /       |       C      C                       |
  /        |          C    C  C                   |
 *         |  C C   C   C      C                  |
 |         | C       C   C  C  C                  |
 |         .---C---C-C------C---------------------.
 |        /    C    C  C  C                      /
 |       /       C                              /

[...]

Density initialized from wave functions
   /       |       C      C                       |
  /        |          C    C  C                   |
 *         |  C C   C   C      C                  |
 |         | C       C   C  C   C                 |
 |         .---C---C-C-------C--------------------.
 |        /    C    C  C  C                      /
 |       /       C                              /

[...]

Density initialized from wave functions
   /       |       C      C                       |
  /        |          C    C                      |
 *         |  C  C  C   C     C                   |
 |         | C       C  C   C   C                 |
 |         .---C---C-C-------C--------------------.
 |        /    C    C  C  C                      /
 |       /       C                              /

[...]

Density initialized from wave functions
   /       |       C      C                       |
  /        |     C    C    C                      |
 *         |  C     C   C     C                   |
 |         | C       C  C   C   C                 |
 |         .---C---C-C-------C--------------------.
 |        /    C    C  C  C                      /
 |       /       C                              /

[...]

Density initialized from wave functions
   /       |       C      C                       |
  /        |          C    C                      |
 *         |  C  C  C   C     C                   |
 |         | C       C  C   C   C                 |
 |         .---C---C-C-------C--------------------.
 |        /    C    C  C  C                      /
 |       /       C                              /

[...]

Density initialized from wave functions
   /       |       C     C                        |
  /        |          C    C                      |
 *         |  C  C  C   C     CC                  |
 |         | C       C  C   C   C                 |
 |         .---C---C-C-------C--------------------.
 |        /    C    C  C  C                      /
 |       /       C                              /

[...]

Density initialized from wave functions
   /       |       C     C                        |
  /        |          C    C  C                   |
 *         |  C  C  C   C      C                  |
 |         | C       C  C   C   C                 |
 |         .---C---C-C-------C--------------------.
 |        /    C    C  C  C                      /
 |       /       C                              /

[...]

System changes: positions

Initializing position-dependent things.

Density initialized from wave functions
   /       |       C     C                        |
  /        |          C    C                      |
 *         |  C  C  C   C     CC                  |
 |         | C       C  C   C   C                 |
 |         .---C---C-C-------C--------------------.
 |        /    C    C  C  C                      /
 |       /       C                              /

Positions:
   0 C      4.701446   10.032858    6.419206
   1 C      5.476498    8.663424    5.469577
   2 C      7.474550    9.855573    6.157935
   3 C      6.154021    9.880418    5.919194
   4 C      9.743989    8.378239    6.052891
   5 C      5.734965    6.061961    5.476717
   6 C      7.536920    7.523351    5.862838
   7 C      9.369287    6.023665    5.717151
   8 C      8.023810    6.192012    5.751022
   9 C      6.143599    7.460102    5.647753
  10 C     10.269665    7.170217    5.932189
  11 C      8.333084    8.728866    6.027784
  12 C      6.913151    5.270855    5.515602
  13 C      3.395840    6.555813    5.470555
  14 C      4.543724    4.118332    5.250547
  15 C      4.391481    5.522692    5.375846
  16 C      5.607596    3.415962    5.249252
  17 C      3.303562    7.801998    5.647414
  18 C      6.956709    3.831346    5.385978
  19 C      8.304040    3.323138    5.459763
  20 C     10.259485    4.900505    5.692558
  21 C      9.498199    3.715117    5.581164
  22 C     11.196176    5.913831    6.053422
  23 C      4.068121    8.990518    5.680862

Unit cell:
           periodic     x           y           z      points  spacing
  1. axis:    yes   16.000000    0.000000    0.000000    80     0.2000
  2. axis:    yes    0.000000   16.000000    0.000000    80     0.2000
  3. axis:    yes    0.000000    0.000000   10.000000    48     0.2083

Effective grid spacing dv^(1/3) = 0.2027

                     log10-error:    total        iterations:
           time      wfs    density  energy       fermi  poisson
iter:   1  11:29:33          +inf  -183.460538    2      4
iter:   2  11:29:34         -3.11  -183.460168    2      1
iter:   3  11:29:34         -3.26  -183.459950    2      1
iter:   4  11:29:35         -3.43  -183.459697    2      1
iter:   5  11:29:36         -3.66  -183.459865    2      1
iter:   6  11:29:36         -3.68  -183.460288    2      1
iter:   7  11:29:37         -3.43  -183.459875    2      1
iter:   8  11:29:38         -3.99  -183.460028    2      1
iter:   9  11:29:38         -4.21  -183.460112    2      1

Converged after 9 iterations.

Dipole moment: (-0.011392, -0.156868, -0.161110) |e|*Ang

Energy contributions relative to reference atoms: (reference = -24663.074771)

Kinetic:       +114.686724
Potential:     -120.092753
External:        +0.000000
XC:            -181.061888
Entropy (-ST):   -0.030267
Local:           +3.022938
Free energy:   -183.475246
Extrapolated:  -183.460112

Fermi level: -4.19948

 Band  Eigenvalues  Occupancy
    0    -23.51322    2.00000
    1    -23.22147    2.00000
    2    -22.31761    2.00000
    3    -21.39066    2.00000
    4    -20.43080    2.00000
    5    -20.13090    2.00000
    6    -19.48104    2.00000
    7    -19.38499    2.00000
    8    -18.27466    2.00000
    9    -18.01963    2.00000
   10    -17.79062    2.00000
   11    -17.15347    2.00000
   12    -16.20282    2.00000
   13    -15.86590    2.00000
   14    -15.68054    2.00000
   15    -14.53556    2.00000
   16    -14.15137    2.00000
   17    -13.65331    2.00000
   18    -13.31723    2.00000
   19    -13.00372    2.00000
   20    -12.05975    2.00000
   21    -11.91982    2.00000
   22    -11.74590    2.00000
   23    -11.35884    2.00000
   24    -11.22413    2.00000
   25    -10.82603    2.00000
   26    -10.55177    2.00000
   27    -10.47727    2.00000
   28    -10.33103    2.00000
   29    -10.25326    2.00000
   30     -9.74771    2.00000
   31     -9.53298    2.00000
   32     -9.19079    2.00000
   33     -8.89565    2.00000
   34     -8.76682    2.00000
   35     -8.25838    2.00000
   36     -7.76965    2.00000
   37     -7.07263    2.00000
   38     -6.97339    2.00000
   39     -6.66667    2.00000
   40     -6.49065    2.00000
   41     -6.26911    2.00000
   42     -6.11855    2.00000
   43     -5.82136    2.00000
   44     -5.24044    1.99994
   45     -4.97069    1.99911
   46     -4.78335    1.99419
   47     -4.66064    1.98032
   48     -3.76548    0.02574
   49     -3.40352    0.00070
   50     -2.88454    0.00000
   51     -2.83006    0.00000
   52     -2.43846    0.00000
   53     -2.34783    0.00000
   54     -1.99654    0.00000
   55     -1.90282    0.00000
   56     -1.58864    0.00000
   57     -0.18528    0.00000
   58      0.17901    0.00000
   59      0.61357    0.00000
[...]
   83      9.07622    0.00000
   84      9.13366    0.00000
   85      9.19640    0.00000
   86      9.42584    0.00000
   87      9.46415    0.00000
   88      9.62758    0.00000
   89      9.80066    0.00000
   90      9.83673    0.00000
   91     10.02325    0.00000
   92     10.07362    0.00000
   93     10.14727    0.00000
   94     10.33448    0.00000
   95     10.43193    0.00000
   96     10.46591    0.00000
   97     10.55949    0.00000

Forces in eV/Ang:
  0 C     0.01830   -0.04957   -0.00272
  1 C    -0.02184    0.02090    0.00000
  2 C     0.01330   -0.03595    0.00170
  3 C     0.02605    0.03100    0.00401
  4 C    -0.03057   -0.01165    0.03084
  5 C    -0.01733    0.00389   -0.01254
  6 C    -0.01350   -0.00010   -0.01321
  7 C     0.01436   -0.04987   -0.03588
  8 C     0.02893    0.00946   -0.01937
  9 C    -0.02861    0.01502   -0.00400
 10 C     0.01213   -0.01475   -0.00481
 11 C    -0.01127   -0.01735   -0.00872
 12 C    -0.00867    0.01538   -0.01362
 13 C    -0.01162   -0.01785   -0.02025
 14 C     0.01085    0.02534    0.00653
 15 C    -0.00231    0.00867   -0.02209
 16 C     0.00306   -0.01510    0.02878
 17 C    -0.04546   -0.01428    0.01477
 18 C     0.01086   -0.00324    0.00397
 19 C    -0.00423   -0.01822   -0.00167
 20 C     0.00540    0.06520   -0.01032
 21 C     0.00321    0.01782    0.01603
 22 C    -0.00442   -0.00335    0.03578
 23 C     0.00590   -0.02434   -0.00289