User:   esb@s65n84.grendel.cscaa.dk
Date:   Thu Nov  9 10:02:34 2017
Arch:   x86_64
Pid:    56149
Python: 2.7.13
gpaw:   /home/esb/DFT/gpaw_git/gpaw
_gpaw:  /home/esb/DFT/gpaw_git/build/bin.linux-x86_64-2.7/gpaw-python
ase:    /home/esb/DFT/ase_git/ase (version 3.15.0b1)
numpy:  /comm/swstack/core/python/2.7.13/lib/python2.7/site-packages/numpy (version 1.13.3)
scipy:  /comm/swstack/core/python/2.7.13/lib/python2.7/site-packages/scipy (version 0.19.1)
units:  Angstrom and eV
cores:  16
Extra parameters: {'blacs': True}

Input parameters:
  basis: dzp
  gpts: [80 80 48]
  kpts: [1 1 1]
  maxiter: 99
  mixer: {backend: pulay,
          beta: 0.05,
          method: separate,
          nmaxold: 5,
          weight: 75}
  mode: lcao
  nbands: -50
  occupations: {name: fermi-dirac,
                width: 0.1}
  poissonsolver: {eps: 1e-07,
                  name: fd,
                  nn: 3,
                  relax: GS}
  xc: PBE

System changes: positions, numbers, cell, pbc, initial_charges, initial_magmoms

Initialize ...

C-setup:
  name: Carbon
  id: 4aa54d4b901d75f77cc0ea3eec22967b
  Z: 6
  valence: 4
  core: 2
  charge: 0.0
  file: /home/esb/DFT/gpaw-setups-0.8.7929/C.PBE.gz
  cutoffs: 0.64(comp), 1.14(filt), 1.14(core), lmax=2
  valence states:
                energy  radius
    2s(2.00)   -13.751   0.635
    2p(2.00)    -5.284   0.635
    *s          13.461   0.635
    *p          21.927   0.635
    *d           0.000   0.635

  LCAO basis set for C:
    Name: dzp
    File: /home/esb/DFT/gpaw-setups-0.8.7929/C.dzp.basis.gz
    Number of radial functions: 5
    Number of spherical harmonics: 13
      l=0, rc=5.5469 Bohr: 2s-sz confined orbital
      l=1, rc=6.6719 Bohr: 2p-sz confined orbital
      l=0, rc=3.0312 Bohr: 2s-dz split-valence wave
      l=1, rc=3.7500 Bohr: 2p-dz split-valence wave
      l=2, rc=6.6719 Bohr: d-type Gaussian polarization

Reference energy: -24663.074771

Spin-paired calculation

Occupation numbers:
  Fermi-Dirac: width=0.1000 eV

Convergence criteria:
  Maximum total energy change: 0.0005 eV / electron
  Maximum integral of absolute density change: 0.0001 electrons
  Maximum integral of absolute eigenstate change: 4e-08 eV^2
  Maximum number of iterations: 99

Symmetries present (total): 1

  ( 1  0  0)
  ( 0  1  0)
  ( 0  0  1)

1 k-point (Gamma)
1 k-point in the irreducible part of the Brillouin zone
       k-points in crystal coordinates                weights
   0:     0.00000000    0.00000000    0.00000000          1/1

Wave functions: LCAO
  Diagonalizer: Serial LAPACK
  Atomic Correction: dense with blas
  Datatype: float
  Eigensolver: None

LCAO using direct dense diagonalizer

Densities:
  Coarse grid: 80*80*48 grid
  Fine grid: 160*160*96 grid
  Total Charge: 0.000000

Density mixing:
  Method: separate
  Backend: pulay
  Linear mixing parameter: 0.05
  Mixing with 5 old densities
  Damping of long wave oscillations: 75

Hamiltonian:
  XC and Coulomb potentials evaluated on a 160*160*96 grid
  Using the PBE Exchange-Correlation functional
  Interpolation: tri-quintic (5. degree polynomial)
  Poisson solver: Gauss-Seidel solver with 6 multi-grid levels
    Coarsest grid: 5 x 5 x 3 points
    Stencil: 6*3+1=19 point O(h^6) finite-difference Laplacian
    Max iterations: 1000
    Tolerance: 1.000000e-07

Total number of cores used: 16
Domain decomposition: 2 x 4 x 2

Number of atoms: 24
Number of atomic orbitals: 312
Number of bands in calculation: 98
Bands to converge: occupied states only
Number of valence electrons: 96

... initialized

Initializing position-dependent things.

Density initialized from atomic densities
  /        |      C  C                            |
 *         |     C   C C   C  C C                 |
 |         |          C     C   C                 |
 |         .-------C-----C------C-----------------.
 |        /         C   C      C  C              /
 |       /         C C  C   C                   /

Positions:
   0 C      5.041381   12.134258    4.838565
   1 C     11.052407    5.231061    4.462846
   2 C     10.005737    4.489879    4.508034
   3 C     12.041217    6.180850    4.463145
   4 C      3.868716   11.542594    4.966501
   5 C     11.075207    7.158035    4.579437
   6 C      4.040120   10.184405    5.011006
   7 C      4.376271    8.969702    5.047763
   8 C      6.416642    5.116293    4.848747
   9 C     10.411743    8.224185    4.590560
  10 C      8.209131    9.116301    4.894501
  11 C      9.176732   10.156395    4.837818
  12 C      7.862051    5.373453    4.735827
  13 C      5.219559   11.089190    5.180892
  14 C      8.973515    7.857468    4.765100
  15 C      5.689543    6.346647    4.996583
  16 C      8.537420    4.075329    4.618014
  17 C      7.418139    3.133528    4.660842
  18 C      5.837175    9.883487    5.147357
  19 C      6.268980    3.692731    4.791019
  20 C      6.791063    8.829986    5.011235
  21 C     10.354348    9.664102    4.630652
  22 C      6.678523    7.403346    4.941158
  23 C      8.068162    6.783381    4.793334

Unit cell:
           periodic     x           y           z      points  spacing
  1. axis:    yes   16.000000    0.000000    0.000000    80     0.2000
  2. axis:    yes    0.000000   16.000000    0.000000    80     0.2000
  3. axis:    yes    0.000000    0.000000   10.000000    48     0.2083

Effective grid spacing dv^(1/3) = 0.2027

                     log10-error:    total        iterations:
           time      wfs    density  energy       fermi  poisson
iter:   1  10:02:36          +inf  -173.347740    3      6
iter:   2  10:02:37         -0.88  -172.093919    4      3
iter:   3  10:02:37         -0.93  -170.393716    4      3
iter:   4  10:02:38         -1.02  -169.341914    34     3
iter:   5  10:02:38         -1.15  -168.995559    3      2
iter:   6  10:02:39         -1.19  -168.666913    35     3
iter:   7  10:02:39         -1.40  -168.645717    4      3
iter:   8  10:02:40         -1.52  -168.564869    3      3
iter:   9  10:02:41         -1.67  -168.541817    3      3
iter:  10  10:02:41         -1.81  -168.509558    3      2
iter:  11  10:02:42         -1.94  -168.495443    3      2
iter:  12  10:02:42         -1.99  -168.481523    3      2
iter:  13  10:02:43         -2.21  -168.462822    3      2
iter:  14  10:02:43         -2.47  -168.460780    3      2
iter:  15  10:02:44         -2.60  -168.458314    3      2
iter:  16  10:02:44         -2.78  -168.456227    3      2
iter:  17  10:02:45         -2.93  -168.456952    2      1
iter:  18  10:02:45         -3.01  -168.454796    2      2
iter:  19  10:02:46         -3.19  -168.455214    2      1
iter:  20  10:02:46         -3.28  -168.454564    3      1
iter:  21  10:02:47         -3.62  -168.453523    2      1
iter:  22  10:02:47         -3.70  -168.451068    2      1
iter:  23  10:02:48         -3.85  -168.453835    2      1
iter:  24  10:02:48         -4.01  -168.453896    2      1

Converged after 24 iterations.

Dipole moment: (0.223053, -0.149265, 0.037632) |e|*Ang

Energy contributions relative to reference atoms: (reference = -24663.074771)

Kinetic:       +165.990279
Potential:     -153.036031
External:        +0.000000
XC:            -184.241714
Entropy (-ST):   -0.402368
Local:           +3.034755
Free energy:   -168.655080
Extrapolated:  -168.453896

Fermi level: -4.57535

 Band  Eigenvalues  Occupancy
    0    -27.46909    2.00000
    1    -23.19350    2.00000
    2    -22.43809    2.00000
    3    -22.19526    2.00000
    4    -21.71803    2.00000
    5    -20.98120    2.00000
    6    -19.94567    2.00000
    7    -19.22814    2.00000
    8    -19.02192    2.00000
    9    -18.25437    2.00000
   10    -17.46952    2.00000
   11    -17.11480    2.00000
   12    -16.48056    2.00000
   13    -16.18820    2.00000
   14    -15.77563    2.00000
   15    -14.91155    2.00000
   16    -14.38381    2.00000
   17    -13.93831    2.00000
   18    -13.22561    2.00000
   19    -12.93983    2.00000
   20    -12.44165    2.00000
   21    -12.17270    2.00000
   22    -11.74198    2.00000
   23    -11.44240    2.00000
   24    -11.27080    2.00000
   25    -10.92841    2.00000
   26    -10.77957    2.00000
   27    -10.54136    2.00000
   28    -10.09332    2.00000
   29     -9.88307    2.00000
   30     -9.53221    2.00000
   31     -9.42112    2.00000
   32     -9.28092    2.00000
   33     -8.64005    2.00000
   34     -8.27622    2.00000
   35     -7.74174    2.00000
   36     -7.37107    2.00000
   37     -7.19659    2.00000
   38     -6.89555    2.00000
   39     -6.48657    2.00000
   40     -6.38655    2.00000
   41     -6.34587    2.00000
   42     -6.07043    2.00000
   43     -5.74025    1.99998
   44     -5.61820    1.99994
   45     -5.05843    1.98417
   46     -4.88356    1.91229
   47     -4.60228    1.13381
   48     -4.51054    0.68682
   49     -4.38335    0.25571
   50     -4.14031    0.02547
   51     -3.87443    0.00181
   52     -3.08259    0.00000
   53     -2.78341    0.00000
   54     -1.64369    0.00000
   55     -1.22090    0.00000
   56     -1.04503    0.00000
   57     -0.23527    0.00000
   58      0.20256    0.00000
   59      0.50935    0.00000
[...]
   83      8.53487    0.00000
   84      8.54168    0.00000
   85      8.75753    0.00000
   86      8.87732    0.00000
   87      8.96394    0.00000
   88      9.06297    0.00000
   89      9.20475    0.00000
   90      9.37554    0.00000
   91      9.68510    0.00000
   92      9.80725    0.00000
   93      9.87101    0.00000
   94      9.91694    0.00000
   95     10.23711    0.00000
   96     10.29108    0.00000
   97     10.39215    0.00000

Forces in eV/Ang:
  0 C     0.40456   28.06865   -7.70456
  1 C    -1.79175   -1.82032    0.06588
  2 C    -3.03306   -2.56752    0.15296
  3 C    -1.43083    1.81235    0.30513
  4 C    -8.04140   -0.95002   -0.22924
  5 C     7.85738   -5.13737   -0.73724
  6 C    -7.61420   -0.21287   -0.67032
  7 C     1.89720   -3.61680    0.52678
  8 C    -1.74462    0.37912    0.14635
  9 C    -4.46724    4.74066    0.42873
 10 C     0.62681   -0.55212    0.05786
 11 C    -0.63218    0.36715    0.01251
 12 C    -0.40463    0.40023   -0.00153
 13 C    13.09746  -19.49682    7.78543
 14 C    -1.62322   -0.18213    0.05488
 15 C     1.28353    1.48654   -0.16529
 16 C     3.86298    2.26707   -0.29111
 17 C     2.27470   -0.26632   -0.16437
 18 C    -1.28251   -5.84253    0.25058
 19 C    -0.35081    0.79172    0.09935
 20 C     0.99494    1.39417   -0.02072
 21 C     1.09882   -0.14855   -0.13018
 22 C    -1.52639   -0.74550    0.27957
 23 C     0.63378   -0.20376   -0.01363

System changes: positions

[...]

Density initialized from wave functions
  /        |      C  C                            |
 *         |     C   C C   C  C C                 |
 |         |          C     C   C                 |
 |         .-------C-----C------C-----------------.
 |        /         C   C      C  C              /
 |       /         C C  C   C                   /

[...]

Density initialized from wave functions
  /        |      C  C                            |
 *         |     C   C C   C  C C                 |
 |         |          C     C  C                  |
 |         .-------C-----C-------C----------------.
 |        /         C   C      C  C              /
 |       /         C C  C   C                   /

[...]

Density initialized from wave functions
  /        |      C  C                            |
 *         |     C   C C   C  C C                 |
 |         |          C     C  C                  |
 |         .-------C-----C-------C----------------.
 |        /         C  C       C  C              /
 |       /         C C   C  C                   /

[...]

Density initialized from wave functions
   /       |         C                            |
  /        |      C  C                            |
 *         |     C   C C   C  C C                 |
 |         |          C     C  C                  |
 |         .-------C-----C-------C----------------.
 |        /         C  C       C  C              /
 |       /         C C   C  C                   /

[...]

Density initialized from wave functions
   /       |         C                            |
  /        |      C  C                            |
 *         |    CC   C C   C  C C                 |
 |         |          C     C  C                  |
 |         .-------C-----C-------C----------------.
 |        /         C  C       C  C              /
 |       /         C C   C  C                   /

[...]

Density initialized from wave functions
   /       |         C                            |
  /        |      C  C                            |
 *         |    CC   C C   C  C C                 |
 |         |          C     C  C                  |
 |         .-------C-----C-------C----------------.
 |        /         C  C       C  C              /
 |       /         C C   C  C                   /

[...]

Density initialized from wave functions
   /       |         C                            |
  /        |      C  C                            |
 *         |    CC   C C   C  C C                 |
 |         |          C     C   C                 |
 |         .-------C-----C-------C----------------.
 |        /         C  C          C              /
 |       /         C C   C  C  C                /

[...]

Density initialized from wave functions
   /       |         C                            |
  /        |      C  C                            |
 *         |    CC   C C   C  C C                 |
 |         |          C     C   C                 |
 |         .-------C-----C-------C----------------.
 |        /         C   C         C              /
 |       /         C C   C  C  C                /

[...]

Density initialized from wave functions
   /       |         C                            |
  /        |      C  C                            |
 *         |    CC   C C   C  C C                 |
 |         |          C     C   C                 |
 |         .-------C-----C--------C---------------.
 |        /         C   C        C               /
 |       /         C C   C  C  C                /

[...]

Density initialized from wave functions
   /       |         C                            |
  /        |      C  C                            |
 *         |    CC   C C   C  C C                 |
 |         |          C     C   C                 |
 |         .-------C-----C--------C---------------.
 |        /         C   C        C               /
 |       /         C C   C  C  C                /

[...]

Density initialized from wave functions
   /       |         C                            |
  /        |      C   C                           |
 *         |   C C   C C   C  C C                 |
 |         |          C     C   C                 |
 |         .-------C-----C--------C---------------.
 |        /         C   C        C               /
 |       /         C C   C  C  C                /

[...]

Density initialized from wave functions
  /        |      C  CC                           |
 *         |   C C   C C   C  C C                 |
 |         |          C     C   C                 |
 |         .-------C-----C--------C---------------.
 |        /         C   C        C               /
 |       /         C C   C  C  C                /

[...]

Density initialized from wave functions
  /        |     C   CC                           |
 *         |   C C   C C   C  C C                 |
 |         |          C     C   C                 |
 |         .-------C-----C--------C---------------.
 |        /         C   C        C               /
 |       /         C C  C   C  C                /

[...]

Density initialized from wave functions
  /        |     C   CC                           |
 *         |   C C   C C   C  C C                 |
 |         |          C     C   C                 |
 |         .-------C-----C-------C----------------.
 |        /         C   C        C               /
 |       /         C C  C   C  C                /

[...]

Density initialized from wave functions
   /       |         C                            |
  /        |     C    C                           |
 *         |   C C   C C   C  C C                 |
 |         |          C     C   C                 |
 |         .-------C-----C-------C----------------.
 |        /         C   C        C               /
 |       /         C C  C   C  C                /

[...]

Density initialized from wave functions
   /       |        C                             |
  /        |     C    C                           |
 *         |   C  C  C C   C  C C                 |
 |         |          C     C   C                 |
 |         .-------C-----C-------C----------------.
 |        /         C   C        C               /
 |       /         C C   C  C  C                /

[...]

System changes: positions

Initializing position-dependent things.

Density initialized from wave functions
   /       |        C                             |
  /        |     C    C                           |
 *         |   C  C  C C   C  C C                 |
 |         |          C     C   C                 |
 |         .-------C-----C--------C---------------.
 |        /         C   C        C               /
 |       /         C C  C   C  C                /

Positions:
   0 C      4.789418   12.155677    4.969622
   1 C     11.007078    4.813845    4.439428
   2 C      9.967000    4.088899    4.499155
   3 C     11.561284    6.035617    4.445713
   4 C      3.762213   11.266792    4.993004
   5 C     11.468340    7.300294    4.510038
   6 C      3.177951   10.043524    5.031065
   7 C      4.367068    9.396350    5.042441
   8 C      6.416929    5.231016    4.877084
   9 C     10.512149    8.298012    4.656929
  10 C      8.271057    9.157745    4.909736
  11 C      9.221733   10.203435    4.849539
  12 C      7.922765    5.434938    4.783142
  13 C      5.691114   11.155229    4.992138
  14 C      9.068493    7.899375    4.804578
  15 C      5.754819    6.490704    4.984397
  16 C      8.580988    4.102766    4.627204
  17 C      7.477608    3.179327    4.647211
  18 C      5.742437    9.750564    5.031129
  19 C      6.359297    3.823033    4.781544
  20 C      6.870873    8.856728    4.997581
  21 C     10.418372    9.728137    4.700222
  22 C      6.769795    7.449944    4.972413
  23 C      8.187202    6.814180    4.839078

Unit cell:
           periodic     x           y           z      points  spacing
  1. axis:    yes   16.000000    0.000000    0.000000    80     0.2000
  2. axis:    yes    0.000000   16.000000    0.000000    80     0.2000
  3. axis:    yes    0.000000    0.000000   10.000000    48     0.2083

Effective grid spacing dv^(1/3) = 0.2027

                     log10-error:    total        iterations:
           time      wfs    density  energy       fermi  poisson
iter:   1  10:08:36          +inf  -179.283201    2      4
iter:   2  10:08:36         -2.42  -179.282376    2      1
iter:   3  10:08:37         -3.00  -179.283063    2      1
iter:   4  10:08:37         -3.10  -179.281901    2      1
iter:   5  10:08:38         -3.11  -179.287847    2      1
iter:   6  10:08:38         -2.83  -179.282529    2      1
iter:   7  10:08:39         -3.48  -179.280040    2      1
iter:   8  10:08:39         -2.74  -179.282029    2      1
iter:   9  10:08:40         -3.78  -179.282536    2      1
iter:  10  10:08:40         -3.48  -179.281193    2      1
iter:  11  10:08:41         -3.78  -179.281634    2      1
iter:  12  10:08:41         -3.98  -179.281160    2      1
iter:  13  10:08:42         -4.37  -179.280968    2      1

Converged after 13 iterations.

Dipole moment: (0.570328, -0.231088, -0.022309) |e|*Ang

Energy contributions relative to reference atoms: (reference = -24663.074771)

Kinetic:       +110.630806
Potential:     -117.346671
External:        +0.000000
XC:            -175.409942
Entropy (-ST):   -0.270759
Local:           +2.980219
Free energy:   -179.416348
Extrapolated:  -179.280968

Fermi level: -4.58966

 Band  Eigenvalues  Occupancy
    0    -23.00978    2.00000
    1    -22.76794    2.00000
    2    -22.19200    2.00000
    3    -21.18234    2.00000
    4    -20.39242    2.00000
    5    -20.01197    2.00000
    6    -19.41041    2.00000
    7    -19.32978    2.00000
    8    -18.85218    2.00000
    9    -18.35815    2.00000
   10    -17.49621    2.00000
   11    -17.02439    2.00000
   12    -16.24678    2.00000
   13    -15.88023    2.00000
   14    -14.83128    2.00000
   15    -14.45607    2.00000
   16    -14.05102    2.00000
   17    -13.95112    2.00000
   18    -12.97561    2.00000
   19    -12.94414    2.00000
   20    -12.72856    2.00000
   21    -12.58498    2.00000
   22    -11.68410    2.00000
   23    -11.10152    2.00000
   24    -10.91590    2.00000
   25    -10.57083    2.00000
   26    -10.46057    2.00000
   27     -9.96359    2.00000
   28     -9.86983    2.00000
   29     -9.62228    2.00000
   30     -9.42339    2.00000
   31     -9.09024    2.00000
   32     -9.04437    2.00000
   33     -8.62560    2.00000
   34     -8.30957    2.00000
   35     -8.11594    2.00000
   36     -7.66735    2.00000
   37     -7.21544    2.00000
   38     -6.57566    2.00000
   39     -6.45282    2.00000
   40     -6.33357    2.00000
   41     -6.30193    2.00000
   42     -6.06522    2.00000
   43     -5.99210    2.00000
   44     -5.87920    1.99999
   45     -5.17299    1.99416
   46     -5.02609    1.97487
   47     -4.67390    1.39795
   48     -4.51042    0.62332
   49     -4.02924    0.00734
   50     -3.87612    0.00159
   51     -3.80448    0.00078
   52     -3.04992    0.00000
   53     -2.53231    0.00000
   54     -2.14552    0.00000
   55     -1.15087    0.00000
   56     -1.10818    0.00000
   57     -1.06274    0.00000
   58     -0.64774    0.00000
   59     -0.47592    0.00000
[...]
   83      8.76611    0.00000
   84      8.90020    0.00000
   85      9.00242    0.00000
   86      9.06080    0.00000
   87      9.16072    0.00000
   88      9.38143    0.00000
   89      9.41713    0.00000
   90      9.66538    0.00000
   91      9.92911    0.00000
   92      9.97170    0.00000
   93     10.14542    0.00000
   94     10.18278    0.00000
   95     10.21100    0.00000
   96     10.41315    0.00000
   97     10.45196    0.00000

Forces in eV/Ang:
  0 C     0.02128   -0.04396   -0.00575
  1 C    -0.05240    0.04832    0.00953
  2 C    -0.00123   -0.06131   -0.00346
  3 C     0.00043   -0.01075   -0.01792
  4 C    -0.02114   -0.02512    0.02895
  5 C    -0.03629   -0.02910    0.01669
  6 C     0.02908   -0.06263   -0.00172
  7 C    -0.00772    0.04240    0.00363
  8 C     0.01517    0.02351   -0.00170
  9 C     0.03913    0.01012    0.00083
 10 C     0.03108    0.01640   -0.00106
 11 C     0.04059    0.03014   -0.02627
 12 C     0.02589    0.00961   -0.02754
 13 C    -0.02212   -0.00949    0.02074
 14 C     0.02270    0.03522   -0.01531
 15 C    -0.05464   -0.01501    0.00772
 16 C     0.03957   -0.03630    0.01220
 17 C    -0.02432    0.05399   -0.00139
 18 C    -0.01539   -0.04093    0.00119
 19 C    -0.05555    0.07601   -0.00307
 20 C    -0.00784   -0.01373   -0.02705
 21 C     0.03097   -0.00661    0.01967
 22 C    -0.02417   -0.00126   -0.01515
 23 C     0.01231    0.03082    0.01360