User:   esb@s65n31.grendel.cscaa.dk
Date:   Thu Nov  9 09:22:32 2017
Arch:   x86_64
Pid:    15353
Python: 2.7.13
gpaw:   /home/esb/DFT/gpaw_git/gpaw
_gpaw:  /home/esb/DFT/gpaw_git/build/bin.linux-x86_64-2.7/gpaw-python
ase:    /home/esb/DFT/ase_git/ase (version 3.15.0b1)
numpy:  /comm/swstack/core/python/2.7.13/lib/python2.7/site-packages/numpy (version 1.13.3)
scipy:  /comm/swstack/core/python/2.7.13/lib/python2.7/site-packages/scipy (version 0.19.1)
units:  Angstrom and eV
cores:  16
Extra parameters: {'blacs': True}

Input parameters:
  basis: dzp
  gpts: [80 80 48]
  kpts: [1 1 1]
  maxiter: 99
  mixer: {backend: pulay,
          beta: 0.05,
          method: separate,
          nmaxold: 5,
          weight: 75}
  mode: lcao
  nbands: -50
  occupations: {name: fermi-dirac,
                width: 0.1}
  poissonsolver: {eps: 1e-07,
                  name: fd,
                  nn: 3,
                  relax: GS}
  xc: PBE

System changes: positions, numbers, cell, pbc, initial_charges, initial_magmoms

Initialize ...

C-setup:
  name: Carbon
  id: 4aa54d4b901d75f77cc0ea3eec22967b
  Z: 6
  valence: 4
  core: 2
  charge: 0.0
  file: /home/esb/DFT/gpaw-setups-0.8.7929/C.PBE.gz
  cutoffs: 0.64(comp), 1.14(filt), 1.14(core), lmax=2
  valence states:
                energy  radius
    2s(2.00)   -13.751   0.635
    2p(2.00)    -5.284   0.635
    *s          13.461   0.635
    *p          21.927   0.635
    *d           0.000   0.635

  LCAO basis set for C:
    Name: dzp
    File: /home/esb/DFT/gpaw-setups-0.8.7929/C.dzp.basis.gz
    Number of radial functions: 5
    Number of spherical harmonics: 13
      l=0, rc=5.5469 Bohr: 2s-sz confined orbital
      l=1, rc=6.6719 Bohr: 2p-sz confined orbital
      l=0, rc=3.0312 Bohr: 2s-dz split-valence wave
      l=1, rc=3.7500 Bohr: 2p-dz split-valence wave
      l=2, rc=6.6719 Bohr: d-type Gaussian polarization

Reference energy: -24663.074771

Spin-paired calculation

Occupation numbers:
  Fermi-Dirac: width=0.1000 eV

Convergence criteria:
  Maximum total energy change: 0.0005 eV / electron
  Maximum integral of absolute density change: 0.0001 electrons
  Maximum integral of absolute eigenstate change: 4e-08 eV^2
  Maximum number of iterations: 99

Symmetries present (total): 1

  ( 1  0  0)
  ( 0  1  0)
  ( 0  0  1)

1 k-point (Gamma)
1 k-point in the irreducible part of the Brillouin zone
       k-points in crystal coordinates                weights
   0:     0.00000000    0.00000000    0.00000000          1/1

Wave functions: LCAO
  Diagonalizer: Serial LAPACK
  Atomic Correction: dense with blas
  Datatype: float
  Eigensolver: None

LCAO using direct dense diagonalizer

Densities:
  Coarse grid: 80*80*48 grid
  Fine grid: 160*160*96 grid
  Total Charge: 0.000000

Density mixing:
  Method: separate
  Backend: pulay
  Linear mixing parameter: 0.05
  Mixing with 5 old densities
  Damping of long wave oscillations: 75

Hamiltonian:
  XC and Coulomb potentials evaluated on a 160*160*96 grid
  Using the PBE Exchange-Correlation functional
  Interpolation: tri-quintic (5. degree polynomial)
  Poisson solver: Gauss-Seidel solver with 6 multi-grid levels
    Coarsest grid: 5 x 5 x 3 points
    Stencil: 6*3+1=19 point O(h^6) finite-difference Laplacian
    Max iterations: 1000
    Tolerance: 1.000000e-07

Total number of cores used: 16
Domain decomposition: 2 x 4 x 2

Number of atoms: 24
Number of atomic orbitals: 312
Number of bands in calculation: 98
Bands to converge: occupied states only
Number of valence electrons: 96

... initialized

Initializing position-dependent things.

Density initialized from atomic densities
  /        |            C                         |
 *         |    C   CC     C C                    |
 |         |  C         C  C     C                |
 |         .-C-C---C---C-C----C--C----------------.
 |        /    C C          C                    /
 |       /          C  C  C  C                  /

Positions:
   0 C      7.416336    7.588807    5.330246
   1 C     10.334750    4.483668    4.384499
   2 C      7.317255    6.156252    5.479013
   3 C      8.742426    8.055700    5.031690
   4 C      6.926071   10.479970    5.018803
   5 C     10.599348    9.365001    4.436524
   6 C      9.395154    3.594231    4.445904
   7 C      6.707423    3.863389    5.030805
   8 C     10.914834    8.132074    4.308480
   9 C      9.900048    7.178060    4.739915
  10 C      9.743938    5.767010    4.798098
  11 C      8.079911    3.958384    4.966523
  12 C      8.429532    5.376545    5.252974
  13 C      8.179097   10.388685    4.888688
  14 C      9.208450    9.466950    4.782842
  15 C      5.392185    8.824464    5.777172
  16 C      5.679253    3.437032    5.309392
  17 C      3.453317    7.613960    5.574594
  18 C      5.821230    6.144205    5.530180
  19 C      4.465677    5.535511    5.440128
  20 C      6.199631    7.574717    5.690599
  21 C      3.974626    8.810581    5.679516
  22 C      4.628810    4.129828    5.354420
  23 C      3.288245    6.325099    5.437312

Unit cell:
           periodic     x           y           z      points  spacing
  1. axis:    yes   16.000000    0.000000    0.000000    80     0.2000
  2. axis:    yes    0.000000   16.000000    0.000000    80     0.2000
  3. axis:    yes    0.000000    0.000000   10.000000    48     0.2083

Effective grid spacing dv^(1/3) = 0.2027

                     log10-error:    total        iterations:
           time      wfs    density  energy       fermi  poisson
iter:   1  09:22:34          +inf  -178.595000    2      6
iter:   2  09:22:35         -0.89  -177.466266    3      3
iter:   3  09:22:35         -0.93  -174.442960    35     3
iter:   4  09:22:36         -1.11  -173.824723    30     3
iter:   5  09:22:37         -1.22  -173.490366    34     4
iter:   6  09:22:37         -1.52  -173.416042    3      3
iter:   7  09:22:38         -1.68  -173.425457    3      3
iter:   8  09:22:39         -1.78  -173.402158    3      2
iter:   9  09:22:39         -1.85  -173.359654    3      3
iter:  10  09:22:40         -2.17  -173.348056    3      2
iter:  11  09:22:40         -2.39  -173.342669    3      2
iter:  12  09:22:41         -2.63  -173.355094    2      1
iter:  13  09:22:42         -2.71  -173.341926    3      2
iter:  14  09:22:42         -2.94  -173.343569    2      1
iter:  15  09:22:43         -3.03  -173.344324    2      1
iter:  16  09:22:43         -3.10  -173.331138    2      1
iter:  17  09:22:44         -3.26  -173.334133    2      1
iter:  18  09:22:44         -3.40  -173.337670    2      1
iter:  19  09:22:45         -3.64  -173.338253    2      1
iter:  20  09:22:46         -3.77  -173.338619    2      1
iter:  21  09:22:46         -3.91  -173.337672    2      1
iter:  22  09:22:47         -4.00  -173.336660    2      1
iter:  23  09:22:47         -4.15  -173.337109    2      1

Converged after 23 iterations.

Dipole moment: (0.007848, -0.507165, 0.181475) |e|*Ang

Energy contributions relative to reference atoms: (reference = -24663.074771)

Kinetic:       +145.882786
Potential:     -141.142479
External:        +0.000000
XC:            -180.905814
Entropy (-ST):   -0.375369
Local:           +3.016083
Free energy:   -173.524794
Extrapolated:  -173.337109

Fermi level: -4.40797

 Band  Eigenvalues  Occupancy
    0    -24.29042    2.00000
    1    -22.48412    2.00000
    2    -22.23325    2.00000
    3    -21.80579    2.00000
    4    -20.89468    2.00000
    5    -19.82977    2.00000
    6    -19.37533    2.00000
    7    -19.12755    2.00000
    8    -19.04601    2.00000
    9    -17.84440    2.00000
   10    -17.37938    2.00000
   11    -17.24162    2.00000
   12    -16.58041    2.00000
   13    -16.17604    2.00000
   14    -15.29323    2.00000
   15    -14.84913    2.00000
   16    -14.14337    2.00000
   17    -13.75382    2.00000
   18    -13.25082    2.00000
   19    -13.06211    2.00000
   20    -12.83898    2.00000
   21    -12.16028    2.00000
   22    -11.71828    2.00000
   23    -11.29323    2.00000
   24    -11.25872    2.00000
   25    -10.95415    2.00000
   26    -10.70978    2.00000
   27    -10.04524    2.00000
   28     -9.86936    2.00000
   29     -9.76870    2.00000
   30     -9.53926    2.00000
   31     -9.20004    2.00000
   32     -8.79777    2.00000
   33     -8.63507    2.00000
   34     -8.18122    2.00000
   35     -8.02129    2.00000
   36     -7.71929    2.00000
   37     -7.27233    2.00000
   38     -6.96966    2.00000
   39     -6.48578    2.00000
   40     -6.40987    2.00000
   41     -6.25136    2.00000
   42     -5.91738    2.00000
   43     -5.85715    2.00000
   44     -5.77734    2.00000
   45     -5.16008    1.99892
   46     -4.66110    1.85261
   47     -4.45679    1.23936
   48     -4.36341    0.78078
   49     -4.11849    0.10482
   50     -3.94806    0.01992
   51     -3.73491    0.00238
   52     -3.64435    0.00096
   53     -3.50669    0.00024
   54     -1.88840    0.00000
   55     -1.56640    0.00000
   56     -1.49058    0.00000
   57     -1.15086    0.00000
   58     -0.34272    0.00000
   59      0.24994    0.00000
[...]
   83      8.73705    0.00000
   84      9.11463    0.00000
   85      9.13853    0.00000
   86      9.25885    0.00000
   87      9.40559    0.00000
   88      9.52352    0.00000
   89      9.58314    0.00000
   90      9.69903    0.00000
   91      9.78172    0.00000
   92      9.96870    0.00000
   93     10.13438    0.00000
   94     10.22363    0.00000
   95     10.28706    0.00000
   96     10.50237    0.00000
   97     10.58169    0.00000

Forces in eV/Ang:
  0 C    11.19158   -1.51057   -1.38758
  1 C    -0.33659    0.44702    0.13342
  2 C     2.36976   -1.69974   -1.34696
  3 C    -0.88219    1.08730    0.05927
  4 C    -2.07082   -0.75282    0.89717
  5 C    -0.32060    0.16582    0.02847
  6 C    -0.27398   -0.41357   -0.40375
  7 C    17.69779    0.66717   -4.00019
  8 C    -0.23144   -0.97771    0.35134
  9 C     1.03519   -0.62535   -0.41788
 10 C     0.40404    0.40989   -0.06726
 11 C     0.65546    0.80542    0.06872
 12 C    -2.39293   -1.00039    0.42892
 13 C     0.15828    0.03368   -0.01482
 14 C    -0.33572   -0.37916    0.00857
 15 C    -3.44317   -0.60797   -0.65076
 16 C   -11.45174   -6.10757    3.13526
 17 C    -0.42411   -1.12669    0.21695
 18 C    -1.07796    2.61556    0.82489
 19 C     1.82941   -0.33403    0.46861
 20 C   -11.02346    5.51732    1.27890
 21 C     4.25542    1.49220    0.17878
 22 C    -5.13063    1.45452    0.36248
 23 C    -0.14367    0.70349   -0.05588

System changes: positions

[...]

Density initialized from wave functions
  /        |            C                         |
 *         |    C   CC     C C                    |
 |         |  C         C  C     C                |
 |         .-C-C---C---C-C----C--C----------------.
 |        /    C C          C                    /
 |       /          C  C  C  C                  /

[...]

Density initialized from wave functions
  /        |            C                         |
 *         |    C   CC     C C                    |
 |         |  C         C  C     C                |
 |         .-C-C---C---C-C----C--C----------------.
 |        /    C C          C                    /
 |       /          C  C  C  C                  /

[...]

Density initialized from wave functions
  /        |            C                         |
 *         |    C   CC     C C                    |
 |         |  C    C    C  C     C                |
 |         .-C-C-------C-C----C--C----------------.
 |        /    C C          C                    /
 |       /          C  C  C  C                  /

[...]

Density initialized from wave functions
  /        |            C                         |
 *         |    C   CC     C C                    |
 |         |  C    C    C  C     C                |
 |         .-C-C-------C-C----C--C----------------.
 |        /    C C          C                    /
 |       /          C  C  C  C                  /

[...]

Density initialized from wave functions
  /        |            C                         |
 *         |    C   CC     C C                    |
 |         | CC    C    C  C     C                |
 |         .----C------C-C----C--C----------------.
 |        /    C C          C                    /
 |       /          C  C  C  C                  /

[...]

Density initialized from wave functions
  /        |            C                         |
 *         |    C   CC     C C                    |
 |         | CC    C    C  C     C                |
 |         .----C------C-C----C--C----------------.
 |        /    C C          C                    /
 |       /          C  C     C                  /
 |      /                 C                    /

[...]

Density initialized from wave functions
  /        |            C                         |
 *         |  C C   CC     C C                    |
 |         | C     C    C  C     C                |
 |         .----C------C-C----C--C----------------.
 |        /    C C          C                    /
 |       /          C  C     C                  /
 |      /                 C                    /

[...]

Density initialized from wave functions
  /        |            C                         |
 *         |  C C   CC     C C                    |
 |         | C     C    C  C    C                 |
 |         .----C------C-C----C--C----------------.
 |        /    C C          C                    /
 |       /          C  C     C                  /
 |      /                  C                   /

[...]

Density initialized from wave functions
  /        |            C                         |
 *         |  C C   CC     C C                    |
 |         | C     C    C  C    C                 |
 |         .----C------C------C--C----------------.
 |        /    C C      C   C                    /
 |       /          C  C     C                  /
 |      /                  C                   /

[...]

Density initialized from wave functions
  /        |           C                          |
 *         |  C C   CC     C C                    |
 |         | C     C    C  C    C                 |
 |         .----C------C------C--C----------------.
 |        /    C        C   C                    /
 |       /       C  C  C     C                  /
 |      /                  C                   /

[...]

Density initialized from wave functions
  /        |           C                          |
 *         |   CC   CC    C  C                    |
 |         | C     C    C  C    C                 |
 |         .----C------C------C--C----------------.
 |        /    C        C   C                    /
 |       /       C  C  C     C                  /
 |      /                  C                   /

[...]

Density initialized from wave functions
  /        |           C                          |
 *         |   CC   CC    C  C                    |
 |         | C     C    C  C    C                 |
 |         .----C------C------C--C----------------.
 |        /    C        C   C                    /
 |       /       C  C  C     C                  /
 |      /                  C                   /

[...]

Density initialized from wave functions
  /        |           C                          |
 *         |   C C  CC    C  C                    |
 |         | C     C    C  C    C                 |
 |         .----C-----C-------C--C----------------.
 |        /    C        C   C                    /
 |       /       C  C  C     C                  /
 |      /                  C                   /

[...]

Density initialized from wave functions
  /        |           C                          |
 *         |   C C  CC    C  C                    |
 |         | C     C    C  C    C                 |
 |         .----C-----C-------C--C----------------.
 |        /    C        C   C                    /
 |       /       C  C  C     C                  /
 |      /                  C                   /

[...]

Density initialized from wave functions
  /        |           C                          |
 *         |   C C  CC    C  C                    |
 |         |  C    C    C  C    C                 |
 |         .----C-----C-------C--C----------------.
 |        /    C C      C   C                    /
 |       /          C  C     C                  /
 |      /                  C                   /

[...]

Density initialized from wave functions
  /        |           C                          |
 *         |   C C  CC    C  C                    |
 |         |  C    C    C  C    C                 |
 |         .----C-----C-------C--C----------------.
 |        /    C  C     C   C                    /
 |       /          C  C   C C                  /

[...]

Density initialized from wave functions
  /        |           C                          |
 *         |   C C  CC    C  C                    |
 |         | C     C    C  C    C                 |
 |         .----C-----C-------C-C-----------------.
 |        /    C  C     C   C                    /
 |       /          C  C   C C                  /

[...]

System changes: positions

Initializing position-dependent things.

Density initialized from wave functions
  /        |           C                          |
 *         |   C C  CC    C  C                    |
 |         | C     C    C  C    C                 |
 |         .----C-----C-------C-C-----------------.
 |        /    C  C     C   C                    /
 |       /          C  C   C C                  /

Positions:
   0 C      7.545008    7.469398    5.484831
   1 C     10.359173    4.563178    4.382357
   2 C      7.252239    6.043942    5.461289
   3 C      8.744317    8.020017    5.153980
   4 C      6.569842   10.046205    5.224577
   5 C     10.366398    9.405956    4.387809
   6 C      9.626277    3.499931    4.446701
   7 C      7.036266    3.069328    4.960335
   8 C     10.796407    8.178112    4.309688
   9 C      9.878865    7.165717    4.772173
  10 C      9.646979    5.747938    4.760416
  11 C      8.238096    3.703530    4.855152
  12 C      8.269004    5.191823    5.106994
  13 C      7.809452   10.175471    4.986225
  14 C      9.016181    9.454922    4.850008
  15 C      5.511718    9.104155    5.462811
  16 C      5.843413    3.635617    5.220171
  17 C      3.621566    7.860868    5.596709
  18 C      5.790969    6.395937    5.588713
  19 C      4.547479    5.694903    5.544622
  20 C      6.146601    7.817678    5.591381
  21 C      4.067361    9.110587    5.528720
  22 C      4.722877    4.250913    5.396976
  23 C      3.405582    6.559922    5.598811

Unit cell:
           periodic     x           y           z      points  spacing
  1. axis:    yes   16.000000    0.000000    0.000000    80     0.2000
  2. axis:    yes    0.000000   16.000000    0.000000    80     0.2000
  3. axis:    yes    0.000000    0.000000   10.000000    48     0.2083

Effective grid spacing dv^(1/3) = 0.2027

                     log10-error:    total        iterations:
           time      wfs    density  energy       fermi  poisson
iter:   1  09:28:52          +inf  -182.430471    3      4
iter:   2  09:28:52         -2.67  -182.419458    3      1
iter:   3  09:28:53         -3.14  -182.414453    2      1
iter:   4  09:28:53         -3.43  -182.416173    2      1
iter:   5  09:28:54         -3.34  -182.415538    2      1
iter:   6  09:28:55         -3.62  -182.412760    2      1
iter:   7  09:28:55         -3.45  -182.416660    2      1
iter:   8  09:28:56         -3.22  -182.414356    2      1
iter:   9  09:28:56         -3.69  -182.414728    2      1
iter:  10  09:28:57         -4.16  -182.415578    2      1

Converged after 10 iterations.

Dipole moment: (0.353603, 0.367651, 0.140273) |e|*Ang

Energy contributions relative to reference atoms: (reference = -24663.074771)

Kinetic:       +114.274994
Potential:     -121.219240
External:        +0.000000
XC:            -178.329739
Entropy (-ST):   -0.278805
Local:           +2.997809
Free energy:   -182.554980
Extrapolated:  -182.415578

Fermi level: -4.34928

 Band  Eigenvalues  Occupancy
    0    -23.59813    2.00000
    1    -22.42392    2.00000
    2    -21.99131    2.00000
    3    -21.14900    2.00000
    4    -20.89903    2.00000
    5    -20.10401    2.00000
    6    -19.43831    2.00000
    7    -19.16459    2.00000
    8    -18.85349    2.00000
    9    -18.20815    2.00000
   10    -17.68941    2.00000
   11    -17.17092    2.00000
   12    -16.62622    2.00000
   13    -16.32215    2.00000
   14    -15.18316    2.00000
   15    -14.75515    2.00000
   16    -14.22357    2.00000
   17    -13.93970    2.00000
   18    -13.39467    2.00000
   19    -13.05152    2.00000
   20    -12.93913    2.00000
   21    -12.27667    2.00000
   22    -11.46764    2.00000
   23    -11.27653    2.00000
   24    -11.18682    2.00000
   25    -11.14740    2.00000
   26    -11.07631    2.00000
   27    -10.63369    2.00000
   28    -10.01907    2.00000
   29     -9.88942    2.00000
   30     -9.69177    2.00000
   31     -9.31054    2.00000
   32     -8.94990    2.00000
   33     -8.77618    2.00000
   34     -8.67299    2.00000
   35     -8.14217    2.00000
   36     -7.22879    2.00000
   37     -7.14193    2.00000
   38     -7.08664    2.00000
   39     -6.88973    2.00000
   40     -6.80253    2.00000
   41     -6.53050    2.00000
   42     -6.29776    2.00000
   43     -6.17455    2.00000
   44     -5.91446    2.00000
   45     -4.99779    1.99695
   46     -4.78492    1.97468
   47     -4.47333    1.55130
   48     -4.17769    0.30481
   49     -4.06483    0.10994
   50     -4.00323    0.06091
   51     -3.57617    0.00088
   52     -3.52601    0.00053
   53     -2.27034    0.00000
   54     -2.13249    0.00000
   55     -1.50640    0.00000
   56     -1.39470    0.00000
   57     -0.70377    0.00000
   58     -0.43876    0.00000
   59      0.21107    0.00000
[...]
   83      8.83098    0.00000
   84      8.97609    0.00000
   85      9.07298    0.00000
   86      9.27348    0.00000
   87      9.33954    0.00000
   88      9.38308    0.00000
   89      9.54467    0.00000
   90      9.63592    0.00000
   91      9.83337    0.00000
   92     10.02384    0.00000
   93     10.09067    0.00000
   94     10.14082    0.00000
   95     10.26366    0.00000
   96     10.35848    0.00000
   97     10.41145    0.00000

Forces in eV/Ang:
  0 C     0.01276    0.03314   -0.00061
  1 C     0.02894   -0.02850   -0.00998
  2 C    -0.00436    0.05126   -0.00868
  3 C     0.00854    0.01419   -0.00717
  4 C     0.02551    0.00704   -0.01520
  5 C    -0.03554    0.02692   -0.03579
  6 C     0.00846   -0.00558    0.00618
  7 C    -0.01156    0.02161   -0.03207
  8 C    -0.01603   -0.00649   -0.02446
  9 C    -0.01373   -0.01637   -0.00265
 10 C    -0.00406   -0.02258   -0.00295
 11 C    -0.00312    0.00818   -0.01809
 12 C    -0.01903    0.03923   -0.01143
 13 C     0.01644   -0.00482    0.01231
 14 C    -0.01656   -0.01243    0.00406
 15 C    -0.00984   -0.04760    0.01655
 16 C    -0.00146   -0.02792   -0.00694
 17 C    -0.00207    0.00738   -0.03095
 18 C     0.00588    0.02660    0.01799
 19 C     0.02491   -0.01379    0.01883
 20 C     0.05201    0.01536    0.02940
 21 C    -0.01209   -0.00081   -0.03108
 22 C     0.04843    0.02887   -0.01013
 23 C     0.04876   -0.00414   -0.01184