User:   esb@s65n33.grendel.cscaa.dk
Date:   Thu Nov  9 11:02:54 2017
Arch:   x86_64
Pid:    75490
Python: 2.7.13
gpaw:   /home/esb/DFT/gpaw_git/gpaw
_gpaw:  /home/esb/DFT/gpaw_git/build/bin.linux-x86_64-2.7/gpaw-python
ase:    /home/esb/DFT/ase_git/ase (version 3.15.0b1)
numpy:  /comm/swstack/core/python/2.7.13/lib/python2.7/site-packages/numpy (version 1.13.3)
scipy:  /comm/swstack/core/python/2.7.13/lib/python2.7/site-packages/scipy (version 0.19.1)
units:  Angstrom and eV
cores:  16
Extra parameters: {'blacs': True}

Input parameters:
  basis: dzp
  gpts: [80 80 48]
  kpts: [1 1 1]
  maxiter: 99
  mixer: {backend: pulay,
          beta: 0.05,
          method: separate,
          nmaxold: 5,
          weight: 75}
  mode: lcao
  nbands: -50
  occupations: {name: fermi-dirac,
                width: 0.1}
  poissonsolver: {eps: 1e-07,
                  name: fd,
                  nn: 3,
                  relax: GS}
  xc: PBE

System changes: positions, numbers, cell, pbc, initial_charges, initial_magmoms

Initialize ...

C-setup:
  name: Carbon
  id: 4aa54d4b901d75f77cc0ea3eec22967b
  Z: 6
  valence: 4
  core: 2
  charge: 0.0
  file: /home/esb/DFT/gpaw-setups-0.8.7929/C.PBE.gz
  cutoffs: 0.64(comp), 1.14(filt), 1.14(core), lmax=2
  valence states:
                energy  radius
    2s(2.00)   -13.751   0.635
    2p(2.00)    -5.284   0.635
    *s          13.461   0.635
    *p          21.927   0.635
    *d           0.000   0.635

  LCAO basis set for C:
    Name: dzp
    File: /home/esb/DFT/gpaw-setups-0.8.7929/C.dzp.basis.gz
    Number of radial functions: 5
    Number of spherical harmonics: 13
      l=0, rc=5.5469 Bohr: 2s-sz confined orbital
      l=1, rc=6.6719 Bohr: 2p-sz confined orbital
      l=0, rc=3.0312 Bohr: 2s-dz split-valence wave
      l=1, rc=3.7500 Bohr: 2p-dz split-valence wave
      l=2, rc=6.6719 Bohr: d-type Gaussian polarization

Reference energy: -24663.074771

Spin-paired calculation

Occupation numbers:
  Fermi-Dirac: width=0.1000 eV

Convergence criteria:
  Maximum total energy change: 0.0005 eV / electron
  Maximum integral of absolute density change: 0.0001 electrons
  Maximum integral of absolute eigenstate change: 4e-08 eV^2
  Maximum number of iterations: 99

Symmetries present (total): 1

  ( 1  0  0)
  ( 0  1  0)
  ( 0  0  1)

1 k-point (Gamma)
1 k-point in the irreducible part of the Brillouin zone
       k-points in crystal coordinates                weights
   0:     0.00000000    0.00000000    0.00000000          1/1

Wave functions: LCAO
  Diagonalizer: Serial LAPACK
  Atomic Correction: dense with blas
  Datatype: float
  Eigensolver: None

LCAO using direct dense diagonalizer

Densities:
  Coarse grid: 80*80*48 grid
  Fine grid: 160*160*96 grid
  Total Charge: 0.000000

Density mixing:
  Method: separate
  Backend: pulay
  Linear mixing parameter: 0.05
  Mixing with 5 old densities
  Damping of long wave oscillations: 75

Hamiltonian:
  XC and Coulomb potentials evaluated on a 160*160*96 grid
  Using the PBE Exchange-Correlation functional
  Interpolation: tri-quintic (5. degree polynomial)
  Poisson solver: Gauss-Seidel solver with 6 multi-grid levels
    Coarsest grid: 5 x 5 x 3 points
    Stencil: 6*3+1=19 point O(h^6) finite-difference Laplacian
    Max iterations: 1000
    Tolerance: 1.000000e-07

Total number of cores used: 16
Domain decomposition: 2 x 4 x 2

Number of atoms: 24
Number of atomic orbitals: 312
Number of bands in calculation: 98
Bands to converge: occupied states only
Number of valence electrons: 96

... initialized

Initializing position-dependent things.

Density initialized from atomic densities
 *         | C C                                  |
 |         |      C  C C    C  C  C               |
 |         .--CC--C--C----C-----C-----------------.
 |        /   C       C      C                   /
 |       /      C     C   C                     /
 |      /          C   C                       /

Positions:
   0 C      8.506659    2.388800    4.957102
   1 C     11.696070    7.853692    4.825233
   2 C      9.563954    3.231182    5.000110
   3 C     10.366456    8.193381    4.803702
   4 C     10.182441    4.327776    4.981103
   5 C      9.019146    7.923105    4.803826
   6 C     11.085112    6.648478    4.874300
   7 C      8.772627    6.485049    4.860486
   8 C     10.027241    5.726528    4.910660
   9 C      7.144349    5.803821    4.487939
  10 C      6.741196    2.264913    5.007565
  11 C      4.608842    3.479230    5.519144
  12 C      7.742349    3.284970    4.556233
  13 C      5.475356    2.547808    5.380250
  14 C      7.606997    4.626565    4.444737
  15 C      4.277668    4.765506    5.438223
  16 C      6.475197    7.006545    4.592228
  17 C      5.062943    7.136226    4.972492
  18 C      4.278956    6.028984    5.283401
  19 C      4.733790    8.568184    4.941612
  20 C      5.904991    9.281721    4.540395
  21 C      3.472503    9.088549    5.173458
  22 C      6.997554    8.371475    4.410588
  23 C      2.310062    9.550679    5.322292

Unit cell:
           periodic     x           y           z      points  spacing
  1. axis:    yes   16.000000    0.000000    0.000000    80     0.2000
  2. axis:    yes    0.000000   16.000000    0.000000    80     0.2000
  3. axis:    yes    0.000000    0.000000   10.000000    48     0.2083

Effective grid spacing dv^(1/3) = 0.2027

                     log10-error:    total        iterations:
           time      wfs    density  energy       fermi  poisson
iter:   1  11:02:56          +inf  -177.783148    2      6
iter:   2  11:02:56         -0.89  -176.084294    3      3
iter:   3  11:02:57         -0.93  -174.530273    4      3
iter:   4  11:02:58         -1.00  -173.465062    35     3
iter:   5  11:02:58         -1.08  -173.170417    4      2
iter:   6  11:02:59         -1.13  -172.446153    35     4
iter:   7  11:02:59         -1.41  -172.536611    3      3
iter:   8  11:03:00         -1.52  -172.430838    3      3
iter:   9  11:03:00         -1.62  -172.402390    3      3
iter:  10  11:03:01         -1.76  -172.362430    4      3
iter:  11  11:03:01         -1.92  -172.333444    3      2
iter:  12  11:03:02         -2.04  -172.305487    3      2
iter:  13  11:03:02         -2.20  -172.298284    3      2
iter:  14  11:03:03         -2.34  -172.295097    3      2
iter:  15  11:03:03         -2.45  -172.294608    3      2
iter:  16  11:03:04         -2.57  -172.294586    3      2
iter:  17  11:03:05         -2.75  -172.294035    3      2
iter:  18  11:03:05         -2.93  -172.302643    2      1
iter:  19  11:03:06         -3.03  -172.311026    3      1
iter:  20  11:03:06         -3.23  -172.308757    3      1
iter:  21  11:03:06         -3.49  -172.295583    2      1
iter:  22  11:03:07         -3.60  -172.292827    2      1
iter:  23  11:03:07         -3.69  -172.290424    2      1
iter:  24  11:03:08         -3.97  -172.289976    2      1
iter:  25  11:03:08         -4.17  -172.290834    2      1

Converged after 25 iterations.

Dipole moment: (0.987728, -1.498521, -0.056340) |e|*Ang

Energy contributions relative to reference atoms: (reference = -24663.074771)

Kinetic:       +118.161154
Potential:     -119.947285
External:        +0.000000
XC:            -173.305123
Entropy (-ST):   -0.381641
Local:           +2.991240
Free energy:   -172.481654
Extrapolated:  -172.290834

Fermi level: -4.66178

 Band  Eigenvalues  Occupancy
    0    -24.19605    2.00000
    1    -23.35340    2.00000
    2    -22.35666    2.00000
    3    -21.23606    2.00000
    4    -20.93043    2.00000
    5    -20.35140    2.00000
    6    -19.86023    2.00000
    7    -19.27535    2.00000
    8    -18.94554    2.00000
    9    -18.57857    2.00000
   10    -17.86884    2.00000
   11    -17.55803    2.00000
   12    -16.88818    2.00000
   13    -16.42078    2.00000
   14    -15.86524    2.00000
   15    -15.09868    2.00000
   16    -14.93146    2.00000
   17    -14.45647    2.00000
   18    -13.89431    2.00000
   19    -13.50327    2.00000
   20    -12.99540    2.00000
   21    -12.32697    2.00000
   22    -11.56263    2.00000
   23    -11.36907    2.00000
   24    -11.24587    2.00000
   25    -10.79602    2.00000
   26    -10.47094    2.00000
   27    -10.33362    2.00000
   28    -10.12857    2.00000
   29     -9.72239    2.00000
   30     -9.54592    2.00000
   31     -9.21531    2.00000
   32     -9.00261    2.00000
   33     -8.54837    2.00000
   34     -8.34421    2.00000
   35     -8.13545    2.00000
   36     -7.79063    2.00000
   37     -7.52615    2.00000
   38     -6.89390    2.00000
   39     -6.60868    2.00000
   40     -6.47779    2.00000
   41     -6.34927    2.00000
   42     -5.83010    1.99998
   43     -5.51229    1.99960
   44     -5.33991    1.99773
   45     -5.06412    1.96484
   46     -4.88600    1.80795
   47     -4.70543    1.21483
   48     -4.65334    0.95783
   49     -4.30903    0.05708
   50     -3.65650    0.00009
   51     -3.63366    0.00007
   52     -3.05526    0.00000
   53     -2.83313    0.00000
   54     -2.42363    0.00000
   55     -1.91106    0.00000
   56     -1.47808    0.00000
   57     -1.04215    0.00000
   58     -0.69462    0.00000
   59     -0.46650    0.00000
[...]
   83      8.21371    0.00000
   84      8.53224    0.00000
   85      8.74973    0.00000
   86      8.99848    0.00000
   87      9.15776    0.00000
   88      9.24730    0.00000
   89      9.32117    0.00000
   90      9.40140    0.00000
   91      9.60098    0.00000
   92      9.66168    0.00000
   93      9.84291    0.00000
   94      9.90805    0.00000
   95      9.97796    0.00000
   96     10.09801    0.00000
   97     10.18773    0.00000

Forces in eV/Ang:
  0 C     4.01171   -7.35290    1.79728
  1 C     1.15684    0.56533   -0.13916
  2 C     4.65792    0.23660    1.84056
  3 C    -1.90492   -0.30900   -0.04099
  4 C    -0.09202   -0.66745    0.19460
  5 C    -2.95051   -1.23951   -0.78983
  6 C    -0.85519    0.15837    0.40864
  7 C     2.79958    1.42224   -0.60391
  8 C    -0.03482    0.52767   -0.00092
  9 C     2.48299    2.52111    0.63010
 10 C     1.06051    1.58366   -0.24960
 11 C    -0.75764    0.92003   -0.18719
 12 C   -10.58848    4.50052   -3.12086
 13 C     1.49927   -1.00426    0.43281
 14 C    -1.32237   -1.60650   -0.79777
 15 C    -0.06042   -1.10258    0.12094
 16 C    -1.53231    1.22060   -0.41333
 17 C    -0.48949   -1.03640    0.20001
 18 C     0.67747    0.97319   -0.35625
 19 C    -0.57815    0.51024   -0.15999
 20 C     3.45823   -1.23992   -0.42610
 21 C     2.25832   -0.99981   -0.18657
 22 C    -0.52936    0.40572    1.56994
 23 C    -2.40293    0.93844    0.33043

System changes: positions

[...]

Density initialized from wave functions
 *         | C C                                  |
 |         |      C  C C    C  C  C               |
 |         .--CC--C--C----C-----C-----------------.
 |        /   C       C      C                   /
 |       /      C     C   C                     /
 |      /          C   C                       /

[...]

Density initialized from wave functions
 *         | C C                                  |
 |         |      C  C C    C  C  C               |
[...]
 |      /          C  CC                       /

[...]

Density initialized from wave functions
 *         | C C                                  |
 |         |      C  C C    C  C  C               |
 |         .--CC--C--C-----C----C-----------------.
 |        /   C       C      C                   /
 |       /      C     C    C                    /
 |      /          C  CC                       /

[...]

Density initialized from wave functions
 *         | C C                                  |
 |         |      C  C C    C  C  C               |
 |         .---C--C--C-----C----C-----------------.
 |        /   C        C     C                   /
 |       /      C     C    C                    /
 |      /          C C C                       /

[...]

Density initialized from wave functions
 *         | C C                                  |
 |         |      C  C C    C  C  C               |
 |         .---C--C--C-----C----C-----------------.
 |        /   C        C    CC                   /
 |       /      C     C    C                    /
 |      /          C C C                       /

[...]

Density initialized from wave functions
 *         | C C                                  |
 |         |      C   CC    C  C  C               |
 |         .---C--C--C-----C----C-----------------.
 |        /   C        C    CC                   /
 |       /      C     C    C                    /
 |      /          C C C                       /

[...]

Density initialized from wave functions
 *         | C C                                  |
 |         |      C   C C  C   C  C               |
 |         .---C--C--C-----C----C-----------------.
 |        /   C        C    CC                   /
 |       /      C  C  C    C                    /
 |      /            C C                       /

[...]

Density initialized from wave functions
 *         | C C                                  |
 |         |      C   C C  C   C  C               |
 |         .---C--C--C-----C----C-----------------.
 |        /   C        C    CC                   /
 |       /      C  C  C    C                    /
 |      /            C C                       /

[...]

Density initialized from wave functions
 *         | C C                                  |
 |         |      C   C C  C   C  C               |
 |         .---C--C--C-----C----C-----------------.
 |        /   CC       C    CC                   /
 |       /      C  C C     C                    /
 |      /            C C                       /

[...]

Density initialized from wave functions
 *         | C C                                  |
 |         |      C   C C  C   C  C               |
 |         .---C--C--C-----C----C-----------------.
 |        /   CC       C    CC                   /
 |       /      C  C C    C                     /
 |      /            C C                       /

[...]

Density initialized from wave functions
 *         | C  C                                 |
 |         |      C   C C      C  C               |
 |         .---C--C--C----CC----C-----------------.
 |        /   CC       C    CC                   /
 |       /      C  C C    C                     /
 |      /            C C                       /

[...]

Density initialized from wave functions
 *         | C  C                                 |
 |         |      C   C C      C  C               |
 |         .----C-C--C----CC----C-----------------.
 |        /   CC       C    CC                   /
 |       /      C  C C    C                     /
 |      /            C C                       /

[...]

Density initialized from wave functions
 *         | C  C                                 |
 |         |      C   C C      C  C               |
 |         .----C-C--C----CC----C-----------------.
 |        /   CC       C    CC                   /
 |       /      C  C C    C                     /
 |      /            C C                       /

[...]

Density initialized from wave functions
 *         | C  C                                 |
 |         |      C   C C      C  C               |
 |         .----C-C--C----CC----C-----------------.
 |        /    C       C    CC                   /
 |       /      C  C C    C                     /
 |      /            C C                       /

[...]

Density initialized from wave functions
 *         | C  C                                 |
 |         |      C   C C      C  C               |
 |         .----C-C--C----CC----C-----------------.
 |        /    C       C    CC                   /
 |       /      C  C C C  C                     /
 |      /            C                         /

[...]

Density initialized from wave functions
 *         | C  C                                 |
 |         |       C  C C      C  C               |
 |         .----C-C--C----CC----C-----------------.
 |        /    C       C    CC                   /
 |       /      C  C C C  C                     /
 |      /            C                         /

[...]

Density initialized from wave functions
 *         | C  C                                 |
 |         |       C  C C  C   C  C               |
 |         .----C-C--C----C-----C-----------------.
 |        /    C       C    CC                   /
 |       /      C  C C C  C                     /
 |      /            C                         /

[...]

Density initialized from wave functions
 *         | C  C                                 |
 |         |      C   C C  C   C  C               |
 |         .----C-C--C----C-----C-----------------.
 |        /    C       C    CC                   /
 |       /      C  C C C  C                     /
 |      /            C                         /

[...]

Density initialized from wave functions
 *         | C  C                                 |
 |         |      C   C C      C  C               |
 |         .----C-C--C-----C----C-----------------.
 |        /    C       C  C CC                   /
 |       /      C  C C C                        /
 |      /            C                         /

[...]

Density initialized from wave functions
 *         | C  C                                 |
 |         |      C   C C      C  C               |
 |         .----C-C--C-----C----C-----------------.
 |        /    C       C  C CC                   /
 |       /      C  C C C                        /
 |      /            C                         /

[...]

Density initialized from wave functions
 *         | C  C     C                           |
 |         |      C     C      C  C               |
 |         .----C-C--C-----C----C-----------------.
 |        /    C       C  C CC                   /
 |       /      C  C C C                        /
 |      /            C                         /

[...]

Density initialized from wave functions
 *         | C  C     C                           |
 |         |      C     C     C   C               |
 |         .----C-C--C-----C----C-----------------.
 |        /    C       C  C CC                   /
 |       /      C  C C C                        /
 |      /            C                         /

[...]

Density initialized from wave functions
 *         | C  C     C                           |
 |         |      C     C     C   C               |
 |         .---CC-C--C-----C----C-----------------.
 |        /    C       C  C CC                   /
 |       /      C  C   C                        /
 |      /            C                         /

[...]

Density initialized from wave functions
 *         | C  C     C                           |
 |         |      C     C     C   C               |
 |         .---CC-C--C-----C----C-----------------.
 |        /    CC      C  C CC                   /
 |       /         C   C                        /
 |      /            C                         /

[...]

Density initialized from wave functions
 *         | C  C     C                           |
 |         |      C     C     C   C               |
 |         .---CC-C--C-----C----C-----------------.
 |        /    CC      C  C CC                   /
 |       /         C   C                        /
 |      /            C                         /

[...]

Density initialized from wave functions
 *         | C  C     C                           |
 |         |       C    C     C   C               |
 |         .---CC-C--C-----C----C-----------------.
 |        /    CC         C CC                   /
 |       /         C   C                        /
 |      /            C                         /

[...]

Density initialized from wave functions
 *         |  C C     C           C               |
 |         |       C    C     C                   |
 |         .---CC-C--C-----C----C-----------------.
 |        /    CC         C CC                   /
 |       /         C   C                        /
 |      /            C                         /

[...]

Density initialized from wave functions
 *         |  C C     C           C               |
 |         |       C    C     C                   |
 |         .---CC-C--------C----C-----------------.
 |        /    CC    C    C CC                   /
 |       /         C   C                        /
 |      /            C                         /

[...]

Density initialized from wave functions
 *         |  C C     C           C               |
 |         |       C    C     C                   |
 |         .---CC-C--C-----C----C-----------------.
 |        /    CC         C CC                   /
 |       /         C   C                        /
 |      /            C                         /

[...]

Density initialized from wave functions
 *         |  C C     C           C               |
 |         |       C          C C                 |
 |         .---CC-C-----C--C----------------------.
 |        /    CC    C    C CC                   /
 |       /         C   C                        /
 |      /            C                         /

[...]

Density initialized from wave functions
 *         |  C C     C           C               |
 |         |       C    C     C C                 |
 |         .---CC-C--------C----------------------.
 |        /    CC    C    C CC                   /
 |       /         C   C                        /
 |      /            C                         /

[...]

System changes: positions

Initializing position-dependent things.

Density initialized from wave functions
 *         |  C C     C           C               |
 |         |       C    C     C                   |
 |         .---CC-C--------C----C-----------------.
 |        /    CC    C    C CC                   /
 |       /         C   C                        /
 |      /            C                         /

Positions:
   0 C      8.238927    2.681138    5.147438
   1 C     11.288683    8.269488    5.435024
   2 C      9.369965    3.392548    5.400056
   3 C      9.935587    8.173074    4.975385
   4 C      9.938814    4.494134    5.106788
   5 C      8.650751    7.801694    4.443943
   6 C     10.749625    6.976921    5.116147
   7 C      8.748725    6.387522    4.150539
   8 C      9.982641    5.827523    4.694617
   9 C      7.398911    5.812813    3.921273
  10 C      6.894769    2.289736    5.121584
  11 C      4.840363    3.381497    5.807225
  12 C      7.224503    3.250699    4.080985
  13 C      5.704757    2.437325    5.873859
  14 C      7.060791    4.496603    3.738571
  15 C      4.435459    4.643852    5.603854
  16 C      6.518007    6.885464    4.271887
  17 C      5.225137    6.996447    4.847996
  18 C      4.532849    5.855293    5.222428
  19 C      5.060016    8.501681    5.106988
  20 C      6.377744    9.115915    5.025698
  21 C      3.837027    9.106478    5.247368
  22 C      7.257213    8.167308    4.507730
  23 C      2.684036    9.714677    5.290711

Unit cell:
           periodic     x           y           z      points  spacing
  1. axis:    yes   16.000000    0.000000    0.000000    80     0.2000
  2. axis:    yes    0.000000   16.000000    0.000000    80     0.2000
  3. axis:    yes    0.000000    0.000000   10.000000    48     0.2083

Effective grid spacing dv^(1/3) = 0.2027

                     log10-error:    total        iterations:
           time      wfs    density  energy       fermi  poisson
iter:   1  11:11:05          +inf  -179.669388    3      5
iter:   2  11:11:05         -2.63  -179.671688    3      1
iter:   3  11:11:06         -2.83  -179.672125    2      1
iter:   4  11:11:06         -2.92  -179.670922    2      1
iter:   5  11:11:07         -3.03  -179.670953    2      1
iter:   6  11:11:07         -3.22  -179.670272    3      2
iter:   7  11:11:08         -3.08  -179.672632    3      1
iter:   8  11:11:08         -3.64  -179.672871    2      1
iter:   9  11:11:09         -3.67  -179.671552    2      1
iter:  10  11:11:09         -3.62  -179.673249    2      1
iter:  11  11:11:10         -3.64  -179.672228    2      1
iter:  12  11:11:10         -3.92  -179.672013    2      1
iter:  13  11:11:11         -3.77  -179.672756    2      1
iter:  14  11:11:11         -4.21  -179.672579    2      1

Converged after 14 iterations.

Dipole moment: (0.739649, -1.704047, -0.245598) |e|*Ang

Energy contributions relative to reference atoms: (reference = -24663.074771)

Kinetic:       +107.428085
Potential:     -115.092171
External:        +0.000000
XC:            -174.852856
Entropy (-ST):   -0.274808
Local:           +2.981768
Free energy:   -179.809983
Extrapolated:  -179.672579

Fermi level: -4.55401

 Band  Eigenvalues  Occupancy
    0    -23.74085    2.00000
    1    -23.50665    2.00000
    2    -22.71536    2.00000
    3    -21.37869    2.00000
    4    -20.71332    2.00000
    5    -20.53173    2.00000
    6    -20.08027    2.00000
    7    -19.24100    2.00000
    8    -19.14298    2.00000
    9    -18.49545    2.00000
   10    -17.98620    2.00000
   11    -17.44882    2.00000
   12    -16.68141    2.00000
   13    -16.28498    2.00000
   14    -15.72073    2.00000
   15    -15.32940    2.00000
   16    -14.77161    2.00000
   17    -14.57139    2.00000
   18    -13.90600    2.00000
   19    -13.79805    2.00000
   20    -12.88256    2.00000
   21    -12.07666    2.00000
   22    -11.60544    2.00000
   23    -11.33270    2.00000
   24    -11.10037    2.00000
   25    -10.77819    2.00000
   26    -10.53442    2.00000
   27    -10.24214    2.00000
   28    -10.22413    2.00000
   29     -9.89731    2.00000
   30     -9.83900    2.00000
   31     -9.25806    2.00000
   32     -9.14667    2.00000
   33     -8.92311    2.00000
   34     -8.75617    2.00000
   35     -8.35807    2.00000
   36     -8.31717    2.00000
   37     -7.67888    2.00000
   38     -7.12991    2.00000
   39     -6.85940    2.00000
   40     -6.66109    2.00000
   41     -6.19926    2.00000
   42     -5.98197    2.00000
   43     -5.59090    1.99994
   44     -5.24338    1.99797
   45     -5.00545    1.97834
   46     -4.90874    1.94401
   47     -4.67632    1.54522
   48     -4.44592    0.50668
   49     -4.12278    0.02645
   50     -3.82623    0.00138
   51     -3.26449    0.00001
   52     -3.16176    0.00000
   53     -2.49835    0.00000
   54     -1.89268    0.00000
   55     -1.66623    0.00000
   56     -1.07122    0.00000
   57     -0.78961    0.00000
   58     -0.50919    0.00000
   59     -0.32055    0.00000
[...]
   83      8.49834    0.00000
   84      8.54619    0.00000
   85      8.84249    0.00000
   86      8.98658    0.00000
   87      9.11469    0.00000
   88      9.21440    0.00000
   89      9.37825    0.00000
   90      9.46426    0.00000
   91      9.56090    0.00000
   92      9.71561    0.00000
   93      9.85751    0.00000
   94      9.94998    0.00000
   95     10.02275    0.00000
   96     10.10977    0.00000
   97     10.22170    0.00000

Forces in eV/Ang:
  0 C    -0.00134   -0.00723    0.03428
  1 C    -0.00446   -0.03751    0.03540
  2 C    -0.02011   -0.02301    0.01137
  3 C     0.00398    0.00684    0.01556
  4 C     0.00159   -0.03465   -0.01459
  5 C    -0.00648    0.00118   -0.01365
  6 C    -0.04845   -0.00373    0.02406
  7 C    -0.00857   -0.00128   -0.00152
  8 C    -0.03306   -0.01890   -0.02323
  9 C     0.00552    0.01095   -0.01272
 10 C    -0.00115    0.02124    0.04009
 11 C     0.02527    0.02590    0.01203
 12 C    -0.02141    0.01459   -0.01107
 13 C    -0.01717   -0.01426    0.00481
 14 C     0.00975   -0.02280    0.04857
 15 C     0.01485    0.01129   -0.03068
 16 C     0.00441    0.02667   -0.02250
 17 C     0.02545    0.00969   -0.04832
 18 C     0.05632    0.01390   -0.03610
 19 C     0.01049    0.03365    0.00356
 20 C    -0.01024   -0.00303   -0.01545
 21 C    -0.01037   -0.03529    0.03079
 22 C     0.01887    0.00772   -0.00653
 23 C    -0.00564   -0.02576    0.02927