User:   esb@s65n82.grendel.cscaa.dk
Date:   Thu Nov  9 12:02:52 2017
Arch:   x86_64
Pid:    67528
Python: 2.7.13
gpaw:   /home/esb/DFT/gpaw_git/gpaw
_gpaw:  /home/esb/DFT/gpaw_git/build/bin.linux-x86_64-2.7/gpaw-python
ase:    /home/esb/DFT/ase_git/ase (version 3.15.0b1)
numpy:  /comm/swstack/core/python/2.7.13/lib/python2.7/site-packages/numpy (version 1.13.3)
scipy:  /comm/swstack/core/python/2.7.13/lib/python2.7/site-packages/scipy (version 0.19.1)
units:  Angstrom and eV
cores:  16
Extra parameters: {'blacs': True}

Input parameters:
  basis: dzp
  gpts: [80 80 48]
  kpts: [1 1 1]
  maxiter: 99
  mixer: {backend: pulay,
          beta: 0.05,
          method: separate,
          nmaxold: 5,
          weight: 75}
  mode: lcao
  nbands: -50
  occupations: {name: fermi-dirac,
                width: 0.1}
  poissonsolver: {eps: 1e-07,
                  name: fd,
                  nn: 3,
                  relax: GS}
  xc: PBE

System changes: positions, numbers, cell, pbc, initial_charges, initial_magmoms

Initialize ...

C-setup:
  name: Carbon
  id: 4aa54d4b901d75f77cc0ea3eec22967b
  Z: 6
  valence: 4
  core: 2
  charge: 0.0
  file: /home/esb/DFT/gpaw-setups-0.8.7929/C.PBE.gz
  cutoffs: 0.64(comp), 1.14(filt), 1.14(core), lmax=2
  valence states:
                energy  radius
    2s(2.00)   -13.751   0.635
    2p(2.00)    -5.284   0.635
    *s          13.461   0.635
    *p          21.927   0.635
    *d           0.000   0.635

  LCAO basis set for C:
    Name: dzp
    File: /home/esb/DFT/gpaw-setups-0.8.7929/C.dzp.basis.gz
    Number of radial functions: 5
    Number of spherical harmonics: 13
      l=0, rc=5.5469 Bohr: 2s-sz confined orbital
      l=1, rc=6.6719 Bohr: 2p-sz confined orbital
      l=0, rc=3.0312 Bohr: 2s-dz split-valence wave
      l=1, rc=3.7500 Bohr: 2p-dz split-valence wave
      l=2, rc=6.6719 Bohr: d-type Gaussian polarization

Reference energy: -24663.074771

Spin-paired calculation

Occupation numbers:
  Fermi-Dirac: width=0.1000 eV

Convergence criteria:
  Maximum total energy change: 0.0005 eV / electron
  Maximum integral of absolute density change: 0.0001 electrons
  Maximum integral of absolute eigenstate change: 4e-08 eV^2
  Maximum number of iterations: 99

Symmetries present (total): 1

  ( 1  0  0)
  ( 0  1  0)
  ( 0  0  1)

1 k-point (Gamma)
1 k-point in the irreducible part of the Brillouin zone
       k-points in crystal coordinates                weights
   0:     0.00000000    0.00000000    0.00000000          1/1

Wave functions: LCAO
  Diagonalizer: Serial LAPACK
  Atomic Correction: dense with blas
  Datatype: float
  Eigensolver: None

LCAO using direct dense diagonalizer

Densities:
  Coarse grid: 80*80*48 grid
  Fine grid: 160*160*96 grid
  Total Charge: 0.000000

Density mixing:
  Method: separate
  Backend: pulay
  Linear mixing parameter: 0.05
  Mixing with 5 old densities
  Damping of long wave oscillations: 75

Hamiltonian:
  XC and Coulomb potentials evaluated on a 160*160*96 grid
  Using the PBE Exchange-Correlation functional
  Interpolation: tri-quintic (5. degree polynomial)
  Poisson solver: Gauss-Seidel solver with 6 multi-grid levels
    Coarsest grid: 5 x 5 x 3 points
    Stencil: 6*3+1=19 point O(h^6) finite-difference Laplacian
    Max iterations: 1000
    Tolerance: 1.000000e-07

Total number of cores used: 16
Domain decomposition: 2 x 4 x 2

Number of atoms: 24
Number of atomic orbitals: 312
Number of bands in calculation: 98
Bands to converge: occupied states only
Number of valence electrons: 96

... initialized

Initializing position-dependent things.

Density initialized from atomic densities
 *         |     C  C  C  C  C                    |
 |         |         C   C  C    C                |
 |         .---------C--C-----CC------------------.
 |        /        C CC C  C                     /
 |       /      CCC                             /

Positions:
   0 C      7.813038    7.306786    5.140267
   1 C      8.917301    8.151583    4.950659
   2 C      6.569235    9.809763    5.185886
   3 C     11.048060    8.827978    4.617804
   4 C     10.284975    7.575192    4.804414
   5 C      7.743082   10.209563    4.987110
   6 C      9.020752    9.647616    4.845610
   7 C      5.655173    8.735896    5.357004
   8 C      6.342271    7.456986    5.312254
   9 C      4.231077    8.847378    5.537609
  10 C     10.502401    6.227793    4.872294
  11 C      9.419030    5.315235    5.066994
  12 C      8.104981    5.894490    5.177121
  13 C      8.661514    3.765395    5.692892
  14 C      7.260345    3.892734    5.306648
  15 C      6.941379    5.314865    5.231015
  16 C      6.160459    3.205060    4.767502
  17 C      4.879210    9.520964    2.150648
  18 C      4.395580    8.393926    2.488785
  19 C      6.055589   10.098330    2.481111
  20 C      4.491356    7.195101    3.206968
  21 C      4.772934    5.023213    3.949633
  22 C      5.697217    7.193218    4.154157
  23 C      5.790414    5.838085    4.604329

Unit cell:
           periodic     x           y           z      points  spacing
  1. axis:    yes   16.000000    0.000000    0.000000    80     0.2000
  2. axis:    yes    0.000000   16.000000    0.000000    80     0.2000
  3. axis:    yes    0.000000    0.000000   10.000000    48     0.2083

Effective grid spacing dv^(1/3) = 0.2027

                     log10-error:    total        iterations:
           time      wfs    density  energy       fermi  poisson
iter:   1  12:02:54          +inf  -166.189699    2      6
iter:   2  12:02:54         -0.87  -165.237991    4      3
iter:   3  12:02:55         -0.91  -163.785687    4      3
iter:   4  12:02:56         -1.00  -162.776365    4      4
iter:   5  12:02:56         -1.15  -162.417599    3      2
iter:   6  12:02:57         -1.23  -162.273966    3      3
iter:   7  12:02:57         -1.47  -162.178647    3      3
iter:   8  12:02:58         -1.60  -162.088220    3      3
iter:   9  12:02:59         -1.78  -162.055618    3      2
iter:  10  12:02:59         -1.90  -162.037984    3      3
iter:  11  12:03:00         -2.08  -162.033461    3      2
iter:  12  12:03:01         -2.18  -162.028466    3      2
iter:  13  12:03:01         -2.32  -162.025094    3      2
iter:  14  12:03:02         -2.47  -162.021110    3      2
iter:  15  12:03:02         -2.66  -162.031033    3      1
iter:  16  12:03:03         -2.73  -162.020995    3      2
iter:  17  12:03:03         -3.00  -162.025080    2      1
iter:  18  12:03:04         -3.10  -162.019463    2      2
iter:  19  12:03:05         -3.51  -162.015120    2      1
iter:  20  12:03:05         -3.61  -162.017456    2      1
iter:  21  12:03:06         -3.86  -162.019246    2      1
iter:  22  12:03:06         -3.99  -162.017526    2      1
iter:  23  12:03:07         -4.14  -162.018243    2      1

Converged after 23 iterations.

Dipole moment: (0.006859, 0.103467, 0.156751) |e|*Ang

Energy contributions relative to reference atoms: (reference = -24663.074771)

Kinetic:       +112.723740
Potential:     -115.721141
External:        +0.000000
XC:            -161.663286
Entropy (-ST):   -0.408956
Local:           +2.846922
Free energy:   -162.222721
Extrapolated:  -162.018243

Fermi level: -4.71978

 Band  Eigenvalues  Occupancy
    0    -24.75958    2.00000
    1    -22.81930    2.00000
    2    -21.96272    2.00000
    3    -20.92573    2.00000
    4    -20.77562    2.00000
    5    -20.23387    2.00000
    6    -19.97102    2.00000
    7    -19.00695    2.00000
    8    -18.32647    2.00000
    9    -17.95074    2.00000
   10    -17.63930    2.00000
   11    -17.19630    2.00000
   12    -16.45565    2.00000
   13    -15.64481    2.00000
   14    -15.19798    2.00000
   15    -15.01885    2.00000
   16    -14.71634    2.00000
   17    -14.26679    2.00000
   18    -13.81806    2.00000
   19    -12.79085    2.00000
   20    -12.40613    2.00000
   21    -11.90807    2.00000
   22    -11.75948    2.00000
   23    -11.30702    2.00000
   24    -11.06291    2.00000
   25    -10.69543    2.00000
   26    -10.22288    2.00000
   27     -9.64443    2.00000
   28     -9.14617    2.00000
   29     -9.00814    2.00000
   30     -8.79072    2.00000
   31     -8.69857    2.00000
   32     -8.39317    2.00000
   33     -8.28312    2.00000
   34     -7.65612    2.00000
   35     -7.50036    2.00000
   36     -7.44920    2.00000
   37     -7.22432    2.00000
   38     -7.14087    2.00000
   39     -6.86991    2.00000
   40     -6.64191    2.00000
   41     -6.49579    2.00000
   42     -6.09362    2.00000
   43     -5.76908    1.99994
   44     -5.41115    1.99801
   45     -5.33445    1.99573
   46     -5.02584    1.91047
   47     -4.76091    1.20282
   48     -4.59965    0.46251
   49     -4.57190    0.37121
   50     -4.35817    0.05237
   51     -4.14311    0.00624
   52     -3.91824    0.00066
   53     -3.60926    0.00003
   54     -3.29736    0.00000
   55     -3.22209    0.00000
   56     -2.46440    0.00000
   57     -2.32970    0.00000
   58     -2.02473    0.00000
   59     -1.77616    0.00000
[...]
   83      8.15099    0.00000
   84      8.24600    0.00000
   85      8.45135    0.00000
   86      8.71443    0.00000
   87      8.98959    0.00000
   88      9.10147    0.00000
   89      9.21050    0.00000
   90      9.30777    0.00000
   91      9.41930    0.00000
   92      9.51284    0.00000
   93      9.60730    0.00000
   94      9.69931    0.00000
   95      9.74910    0.00000
   96      9.93489    0.00000
   97      9.99402    0.00000

Forces in eV/Ang:
  0 C     1.93097   -0.11947    0.81869
  1 C    -0.37414    1.93699   -0.02768
  2 C    -2.60019   -0.29233    0.16157
  3 C    -1.79759   -0.67697    0.30245
  4 C     0.46262    3.25020   -0.26158
  5 C     3.37828   -0.55777   -0.14727
  6 C    -0.42672   -2.24642    0.14534
  7 C    -2.74124    4.60722    3.42357
  8 C     2.56110    5.08718    0.28553
  9 C     2.25249    0.53055   -0.20242
 10 C    -2.28545   -3.83338    0.87094
 11 C    -0.13950   -0.91979    1.13369
 12 C     3.46833    5.70723   -0.40058
 13 C     1.92340    1.07878   -1.59597
 14 C    -1.11636   -2.41121   -0.08204
 15 C    -3.17243   -4.67857   -0.38441
 16 C     1.25261    0.68414    0.55416
 17 C     2.15943    3.56311   -0.84693
 18 C     0.03765   -5.46848    2.89181
 19 C    -1.44914   -0.12847   -0.74198
 20 C     1.32840    2.33863    0.31978
 21 C     0.86975    1.14172    0.67752
 22 C    -4.10991   -4.80008   -5.30286
 23 C    -1.42360   -3.76447   -1.60604

System changes: positions

[...]

Density initialized from wave functions
 *         |     C  C  C  C  C                    |
 |         |         C   C  C  C C                |
 |         .---------C--C-----C-------------------.
 |        /        C CC C  C                     /
 |       /      CCC                             /

[...]

Density initialized from wave functions
 *         |     C  C  C  C  C                    |
 |         |         C   C  C  C C                |
 |         .---------C---C----C-------------------.
 |        /        C CC  C C                     /
 |       /      CCC                             /

[...]

Density initialized from wave functions
[...]
 |         |          C C   C C                   |
 |         .---------C--C-C---C-------------------.
 |        /     C C C                            /
 |       /      C  C  C  C                      /
 |      /       CC                             /

[...]

Density initialized from wave functions
  /        |               C CCC                  |
 *         |            C                         |
 |         |          C C   C C                   |
 |         .---------C--C-C---C-------------------.
 |        /     C C C                            /
 |       /      C  C  C  C                      /
 |      /       CC                             /

[...]

Density initialized from wave functions
   /       |                 C                    |
  /        |               C  C C                 |
 *         |            C                         |
 |         |          C C   C C                   |
 |         .---------C--C-C---C-------------------.
 |        /     C C C                            /
 |       /     CC  C  C  C                      /
 |      /       CC                             /

[...]

Density initialized from wave functions
   /       |                 C                    |
  /        |               C  C C                 |
 *         |            C                         |
 |         |          C C   C C                   |
 |         .---------C--C-C---C-------------------.
 |        /     C C C                            /
 |       /     CC  C  C  C                      /
 |      /      C C                             /

[...]

Density initialized from wave functions
  /        |               C CC C                 |
 *         |            C                         |
 |         |          C C   C C                   |
 |         .---------C--C-C---C-------------------.
 |        /     C C C                            /
 |       /     CC  C  C  C                      /
 |      /      C C                             /

[...]

Density initialized from wave functions
  /        |               C CC C                 |
 *         |            C                         |
 |         |          C C   C C                   |
 |         .---------C--C-C---C-------------------.
 |        /     C C C                            /
 |       /     CC  C  C  C                      /
 |      /      C C                             /

[...]

Density initialized from wave functions
   /       |                 C                    |
  /        |               C  C C                 |
 *         |            C                         |
 |         |          C C   C C                   |
 |         .---------C--C-C---C-------------------.
 |        /     C C C                            /
 |       /     CC  C  C  C                      /
 |      /      C C                             /

[...]

Density initialized from wave functions
   /       |                 C                    |
  /        |               C  C C                 |
 *         |            C                         |
 |         |          C C   C C                   |
 |         .---------C--C-C---C-------------------.
 |        /      CC C                            /
 |       /     CC  C  C  C                      /
 |      /      C C                             /

[...]

Density initialized from wave functions
   /       |                 C                    |
  /        |               C  C C                 |
 *         |            C                         |
 |         |          C C   C C                   |
 |         .----------C-C-C---C-------------------.
 |        /      CC C                            /
 |       /     CC  C  C  C                      /
 |      /      C C                             /

[...]

Density initialized from wave functions
   /       |                 C                    |
  /        |               C  C C                 |
 *         |            C     C                   |
 |         |          C C   C                     |
 |         .----------C-C-C---C-------------------.
 |        /      CC C                            /
 |       /     CC  C  C  C                      /
 |      /      C C                             /

[...]

Density initialized from wave functions
   /       |                 C                    |
  /        |               C  C C                 |
 *         |            C   C C                   |
 |         |          C C     C                   |
 |         .----------C-C-C-----------------------.
 |        /      CC C                            /
 |       /     CC  C  C  C                      /
 |      /     C  C                             /

[...]

Density initialized from wave functions
   /       |                  C                   |
  /        |               C  C C                 |
 *         |            C   C C                   |
 |         |          C C     C                   |
 |         .----------C-C-C-----------------------.
 |        /      CC C                            /
 |       /     CC  C  C  C                      /
 |      /     C  C                             /

[...]

Density initialized from wave functions
  /        |               C  C C                 |
 *         |            C   C C                   |
 |         |          C C    C                    |
 |         .----------C-C-C-----------------------.
 |        /      CC C                            /
 |       /     CC  C  C  C                      /
 |      /     C  C                             /

[...]

Density initialized from wave functions
  /        |               C  C C                 |
 *         |            C   C C                   |
 |         |          C C    C                    |
 |         .----------C-C-C-----------------------.
 |        /      CC C                            /
 |       /     CC  C  C  C                      /
 |      /     C  C                             /

[...]

Density initialized from wave functions
  /        |               C  C C                 |
 *         |            C   C C                   |
 |         |          C C    C                    |
 |         .----------C-C-C-----------------------.
 |        /      CC C                            /
 |       /      C  C  C  C                      /
 |      /     CC C                             /

[...]

Density initialized from wave functions
  /        |               C  C C                 |
 *         |            C   C C                   |
 |         |          C C    C                    |
 |         .----------C-C-C-----------------------.
 |        /      CC C    C                       /
 |       /      C  C  C                         /
 |      /     C  C                             /

[...]

Density initialized from wave functions
  /        |               C  C C                 |
 *         |            C   C C                   |
 |         |          C C    C                    |
 |         .----------C-C-C-----------------------.
 |        /      CC C    C                       /
 |       /     C   C  C                         /
 |      /     C  C                             /

[...]

Density initialized from wave functions
  /        |               C  C C                 |
 *         |            C   C C                   |
 |         |          C C    C                    |
 |         .----------C-C-C-----------------------.
 |        /      CCCC    C                       /
 |       /     C   C  C                         /
 |      /     C  C                             /

[...]

Density initialized from wave functions
  /        |               C  C C                 |
 *         |            C   C C                   |
 |         |          C C    C                    |
 |         .----------C-C-C-----------------------.
 |        /      CCCC    C                       /
 |       /     C   C  C                         /
 |      /     C  C                             /

[...]

Density initialized from wave functions
  /        |               C  C C                 |
 *         |            C   C C                   |
 |         |          C C    C                    |
 |         .----------C-C-C-----------------------.
 |        /      CCCC    C                       /
 |       /     C   C  C                         /
 |      /    CC  C                             /

[...]

Density initialized from wave functions
  /        |                C C C                 |
 *         |            C   C C                   |
 |         |           CC    C                    |
 |         .----------C-C-C-----------------------.
 |        /      CCCC    C                       /
 |       /     C   C  C                         /
 |      /    CC   C                            /

[...]

Density initialized from wave functions
  /        |                C C C                 |
 *         |            C   C C                   |
 |         |           CC    C                    |
 |         .----------C-C-C-----------------------.
 |        /      CCCC    C                       /
 |       /     C   C  C                         /
 |      /    CC   C                            /

[...]

Density initialized from wave functions
  /        |                C C C                 |
 *         |            C   C C                   |
 |         |           CC    C                    |
 |         .----------C-C-C-----------------------.
 |        /      C CC    C                       /
 |       /     C  CC  C                         /
 |      /    CC   C                            /

[...]

Density initialized from wave functions
  /        |                C C C                 |
 *         |             C  C C                   |
 |         |           CC    C                    |
 |         .----------C-C-C-----------------------.
 |        /      C CC    C                       /
 |       /     C  CC  C                         /
 |      /    CC   C                            /

[...]

Density initialized from wave functions
  /        |                C C C                 |
 *         |             C  C C                   |
 |         |           CC    C                    |
 |         .----------C-C-C-----------------------.
 |        /        CC    C                       /
 |       /     C CCC  C                         /
 |      /    CC   C                            /

[...]

System changes: positions

Initializing position-dependent things.

Density initialized from wave functions
  /        |                C C C                 |
 *         |             C  C C                   |
 |         |           CC    C                    |
 |         .----------C-C-C-----------------------.
 |        /        CC    C                       /
 |       /     C CCC  C                         /
 |      /    CC   C                            /

Positions:
   0 C      7.745067    7.208189    5.210516
   1 C      8.973922    7.892204    5.543584
   2 C      8.163665   10.833271    5.069590
   3 C     10.435381    8.389095    6.760756
   4 C     10.044168    7.068198    6.177230
   5 C      9.224611   10.514541    5.679809
   6 C      9.640316    9.185225    5.922544
   7 C      7.014740   10.353247    4.522732
   8 C      6.562457    7.792362    4.517419
   9 C      6.559449    9.191313    4.357247
  10 C     10.075363    5.737030    6.134980
  11 C      9.002438    4.963462    5.659936
  12 C      7.796826    5.763265    5.332331
  13 C      8.785401    3.595082    5.319236
  14 C      7.743936    3.090521    4.766774
  15 C      6.626444    5.093783    4.961542
  16 C      6.524851    3.688827    4.485361
  17 C      2.962339    8.959492    1.500035
  18 C      3.766979    8.281841    2.332103
  19 C      2.354566    9.709519    0.625717
  20 C      4.550012    7.643043    3.089336
  21 C      5.731789    4.306360    3.406432
  22 C      5.489339    7.003843    3.901048
  23 C      5.575124    5.594543    4.134405

Unit cell:
           periodic     x           y           z      points  spacing
  1. axis:    yes   16.000000    0.000000    0.000000    80     0.2000
  2. axis:    yes    0.000000   16.000000    0.000000    80     0.2000
  3. axis:    yes    0.000000    0.000000   10.000000    48     0.2083

Effective grid spacing dv^(1/3) = 0.2027

                     log10-error:    total        iterations:
           time      wfs    density  energy       fermi  poisson
iter:   1  12:31:25          +inf  -179.190960    3      5
iter:   2  12:31:25         -2.75  -179.190944    2      1
iter:   3  12:31:26         -2.84  -179.190272    2      1
iter:   4  12:31:26         -2.96  -179.190061    2      1
iter:   5  12:31:27         -3.06  -179.189292    3      1
iter:   6  12:31:28         -3.27  -179.190683    2      2
iter:   7  12:31:28         -3.53  -179.191394    2      1
iter:   8  12:31:29         -3.67  -179.191172    2      1
iter:   9  12:31:29         -3.82  -179.190905    2      1
iter:  10  12:31:30         -3.96  -179.191087    2      1
iter:  11  12:31:30         -4.09  -179.191292    2      1

Converged after 11 iterations.

Dipole moment: (1.085983, -0.602710, -3.615388) |e|*Ang

Energy contributions relative to reference atoms: (reference = -24663.074771)

Kinetic:       +111.351881
Potential:     -119.006813
External:        +0.000000
XC:            -174.399451
Entropy (-ST):   -0.324811
Local:           +3.025497
Free energy:   -179.353698
Extrapolated:  -179.191292

Fermi level: -4.78236

 Band  Eigenvalues  Occupancy
    0    -23.78622    2.00000
    1    -23.29332    2.00000
    2    -21.75419    2.00000
    3    -21.61917    2.00000
    4    -20.89692    2.00000
    5    -20.01076    2.00000
    6    -19.65595    2.00000
    7    -19.38210    2.00000
    8    -18.91437    2.00000
    9    -18.11670    2.00000
   10    -17.54486    2.00000
   11    -17.16660    2.00000
   12    -17.06690    2.00000
   13    -15.97387    2.00000
   14    -15.59752    2.00000
   15    -15.01458    2.00000
   16    -14.52713    2.00000
   17    -14.13398    2.00000
   18    -13.62444    2.00000
   19    -13.13651    2.00000
   20    -12.89793    2.00000
   21    -12.68334    2.00000
   22    -12.26338    2.00000
   23    -11.49172    2.00000
   24    -11.12137    2.00000
   25    -11.01068    2.00000
   26    -10.68635    2.00000
   27    -10.59971    2.00000
   28    -10.29337    2.00000
   29    -10.08628    2.00000
   30     -9.74122    2.00000
   31     -9.49069    2.00000
   32     -8.93942    2.00000
   33     -8.70234    2.00000
   34     -8.61980    2.00000
   35     -8.15872    2.00000
   36     -7.72866    2.00000
   37     -7.36817    2.00000
   38     -7.21799    2.00000
   39     -6.96837    2.00000
   40     -6.61749    2.00000
   41     -6.34791    2.00000
   42     -5.68875    1.99977
   43     -5.36671    1.99422
   44     -5.23711    1.97904
   45     -5.16117    1.95573
   46     -4.99230    1.78169
   47     -4.94236    1.66405
   48     -4.70209    0.61893
   49     -4.20743    0.00635
   50     -3.87364    0.00023
   51     -3.30205    0.00000
   52     -2.99229    0.00000
   53     -2.73932    0.00000
   54     -2.60302    0.00000
   55     -2.42916    0.00000
   56     -1.46353    0.00000
   57     -1.22449    0.00000
   58     -0.89601    0.00000
   59     -0.20638    0.00000
[...]
   83      8.56705    0.00000
   84      8.67844    0.00000
   85      8.80459    0.00000
   86      8.96506    0.00000
   87      9.03642    0.00000
   88      9.17221    0.00000
   89      9.28237    0.00000
   90      9.37048    0.00000
   91      9.52465    0.00000
   92      9.57541    0.00000
   93      9.81231    0.00000
   94      9.89477    0.00000
   95      9.97912    0.00000
   96      9.99879    0.00000
   97     10.18155    0.00000

Forces in eV/Ang:
  0 C     0.03718    0.00331   -0.04578
  1 C     0.01124   -0.00398    0.01845
  2 C    -0.04637    0.04065   -0.02553
  3 C    -0.02502    0.03153   -0.01850
  4 C     0.00686   -0.01283    0.02827
  5 C     0.04131    0.03196    0.02440
  6 C    -0.03252   -0.04867    0.03607
  7 C     0.03313    0.00275    0.00506
  8 C    -0.00215   -0.00666    0.02528
  9 C     0.00706   -0.01024    0.00133
 10 C    -0.00865   -0.01227   -0.02145
 11 C    -0.02355   -0.00234   -0.04241
 12 C    -0.01466    0.03100   -0.01741
 13 C     0.01793   -0.00336    0.02968
 14 C    -0.02639   -0.01839    0.01528
 15 C    -0.02559    0.00764    0.00624
 16 C     0.01599   -0.00377   -0.01751
 17 C     0.04396    0.04705   -0.02998
 18 C     0.02219    0.00871   -0.02359
 19 C    -0.05548   -0.07543    0.02821
 20 C     0.04252   -0.03802    0.01940
 21 C    -0.00446   -0.02567   -0.00203
 22 C    -0.01224    0.01150   -0.02444
 23 C    -0.04204   -0.01568    0.01921