User:   esb@s66n11.grendel.cscaa.dk
Date:   Thu Nov  9 10:02:35 2017
Arch:   x86_64
Pid:    29746
Python: 2.7.13
gpaw:   /home/esb/DFT/gpaw_git/gpaw
_gpaw:  /home/esb/DFT/gpaw_git/build/bin.linux-x86_64-2.7/gpaw-python
ase:    /home/esb/DFT/ase_git/ase (version 3.15.0b1)
numpy:  /comm/swstack/core/python/2.7.13/lib/python2.7/site-packages/numpy (version 1.13.3)
scipy:  /comm/swstack/core/python/2.7.13/lib/python2.7/site-packages/scipy (version 0.19.1)
units:  Angstrom and eV
cores:  16
Extra parameters: {'blacs': True}

Input parameters:
  basis: dzp
  gpts: [80 80 48]
  kpts: [1 1 1]
  maxiter: 99
  mixer: {backend: pulay,
          beta: 0.05,
          method: separate,
          nmaxold: 5,
          weight: 75}
  mode: lcao
  nbands: -50
  occupations: {name: fermi-dirac,
                width: 0.1}
  poissonsolver: {eps: 1e-07,
                  name: fd,
                  nn: 3,
                  relax: GS}
  xc: PBE

System changes: positions, numbers, cell, pbc, initial_charges, initial_magmoms

Initialize ...

C-setup:
  name: Carbon
  id: 4aa54d4b901d75f77cc0ea3eec22967b
  Z: 6
  valence: 4
  core: 2
  charge: 0.0
  file: /home/esb/DFT/gpaw-setups-0.8.7929/C.PBE.gz
  cutoffs: 0.64(comp), 1.14(filt), 1.14(core), lmax=2
  valence states:
                energy  radius
    2s(2.00)   -13.751   0.635
    2p(2.00)    -5.284   0.635
    *s          13.461   0.635
    *p          21.927   0.635
    *d           0.000   0.635

  LCAO basis set for C:
    Name: dzp
    File: /home/esb/DFT/gpaw-setups-0.8.7929/C.dzp.basis.gz
    Number of radial functions: 5
    Number of spherical harmonics: 13
      l=0, rc=5.5469 Bohr: 2s-sz confined orbital
      l=1, rc=6.6719 Bohr: 2p-sz confined orbital
      l=0, rc=3.0312 Bohr: 2s-dz split-valence wave
      l=1, rc=3.7500 Bohr: 2p-dz split-valence wave
      l=2, rc=6.6719 Bohr: d-type Gaussian polarization

Reference energy: -24663.074771

Spin-paired calculation

Occupation numbers:
  Fermi-Dirac: width=0.1000 eV

Convergence criteria:
  Maximum total energy change: 0.0005 eV / electron
  Maximum integral of absolute density change: 0.0001 electrons
  Maximum integral of absolute eigenstate change: 4e-08 eV^2
  Maximum number of iterations: 99

Symmetries present (total): 1

  ( 1  0  0)
  ( 0  1  0)
  ( 0  0  1)

1 k-point (Gamma)
1 k-point in the irreducible part of the Brillouin zone
       k-points in crystal coordinates                weights
   0:     0.00000000    0.00000000    0.00000000          1/1

Wave functions: LCAO
  Diagonalizer: Serial LAPACK
  Atomic Correction: dense with blas
  Datatype: float
  Eigensolver: None

LCAO using direct dense diagonalizer

Densities:
  Coarse grid: 80*80*48 grid
  Fine grid: 160*160*96 grid
  Total Charge: 0.000000

Density mixing:
  Method: separate
  Backend: pulay
  Linear mixing parameter: 0.05
  Mixing with 5 old densities
  Damping of long wave oscillations: 75

Hamiltonian:
  XC and Coulomb potentials evaluated on a 160*160*96 grid
  Using the PBE Exchange-Correlation functional
  Interpolation: tri-quintic (5. degree polynomial)
  Poisson solver: Gauss-Seidel solver with 6 multi-grid levels
    Coarsest grid: 5 x 5 x 3 points
    Stencil: 6*3+1=19 point O(h^6) finite-difference Laplacian
    Max iterations: 1000
    Tolerance: 1.000000e-07

Total number of cores used: 16
Domain decomposition: 2 x 4 x 2

Number of atoms: 24
Number of atomic orbitals: 312
Number of bands in calculation: 98
Bands to converge: occupied states only
Number of valence electrons: 96

... initialized

Initializing position-dependent things.

Density initialized from atomic densities
   /       |       C                              |
  /        |    C   C                             |
 *         |  C       C   CC   C C                |
 |         | C       C   C       C                |
 |         .---C---C-C---C-----C------------------.
 |        /    C     C    C                      /
 |       /       C     C                        /

Positions:
   0 C     10.890072    5.885202    5.273777
   1 C     11.276332    7.093656    5.330235
   2 C     11.103945    8.444450    5.285076
   3 C      9.864162    9.123213    5.221894
   4 C      7.542893    9.869872    5.235887
   5 C      6.137732    9.716225    5.199606
   6 C      7.927405    7.422194    5.153936
   7 C      8.440453    8.796738    5.204355
   8 C      5.201002   10.769288    5.312406
   9 C      4.293041   11.772508    5.456690
  10 C      3.655056   10.526712    5.205723
  11 C      9.367469    4.132462    5.116581
  12 C      5.713535    3.344428    5.326439
  13 C      3.478645    7.461403    5.782887
  14 C      5.816388    6.119330    5.454633
  15 C      8.349364    3.398632    5.171257
  16 C      4.483426    5.475644    5.523497
  17 C      8.198879    6.195252    5.294327
  18 C      6.237274    7.531132    5.555899
  19 C      7.023028    3.875364    5.245263
  20 C      3.962109    8.671975    5.906811
  21 C      4.691322    4.070902    5.432875
  22 C      3.243281    6.174632    5.664165
  23 C      7.020796    5.340016    5.298345

Unit cell:
           periodic     x           y           z      points  spacing
  1. axis:    yes   16.000000    0.000000    0.000000    80     0.2000
  2. axis:    yes    0.000000   16.000000    0.000000    80     0.2000
  3. axis:    yes    0.000000    0.000000   10.000000    48     0.2083

Effective grid spacing dv^(1/3) = 0.2027

                     log10-error:    total        iterations:
           time      wfs    density  energy       fermi  poisson
iter:   1  10:02:36          +inf  -171.229051    3      6
iter:   2  10:02:37         -0.92  -170.269441    3      3
iter:   3  10:02:38         -0.95  -169.683004    3      3
iter:   4  10:02:38         -0.99  -168.025876    34     3
iter:   5  10:02:39         -1.17  -167.538276    27     3
iter:   6  10:02:39         -1.38  -167.518849    4      3
iter:   7  10:02:40         -1.57  -167.494510    3      3
iter:   8  10:02:41         -1.74  -167.469693    3      2
iter:   9  10:02:41         -1.83  -167.443314    3      3
iter:  10  10:02:42         -2.05  -167.431861    3      2
iter:  11  10:02:42         -2.21  -167.422076    3      2
iter:  12  10:02:43         -2.37  -167.417694    3      2
iter:  13  10:02:44         -2.51  -167.415547    3      2
iter:  14  10:02:44         -2.67  -167.415126    3      2
iter:  15  10:02:45         -2.89  -167.427164    3      1
iter:  16  10:02:45         -3.00  -167.413807    3      2
iter:  17  10:02:46         -3.15  -167.414237    2      1
iter:  18  10:02:46         -3.24  -167.421307    2      1
iter:  19  10:02:47         -3.47  -167.407475    2      1
iter:  20  10:02:47         -3.67  -167.408969    2      1
iter:  21  10:02:48         -3.83  -167.410891    2      1
iter:  22  10:02:49         -4.06  -167.411490    2      1

Converged after 22 iterations.

Dipole moment: (0.065903, 0.122761, -0.045706) |e|*Ang

Energy contributions relative to reference atoms: (reference = -24663.074771)

Kinetic:        +84.977722
Potential:      -96.691202
External:        +0.000000
XC:            -158.372234
Entropy (-ST):   -0.383101
Local:           +2.865774
Free energy:   -167.603040
Extrapolated:  -167.411490

Fermi level: -4.71609

 Band  Eigenvalues  Occupancy
    0    -23.07238    2.00000
    1    -22.49680    2.00000
    2    -21.43059    2.00000
    3    -20.75930    2.00000
    4    -20.41701    2.00000
    5    -19.86839    2.00000
    6    -19.57320    2.00000
    7    -18.65348    2.00000
    8    -18.24617    2.00000
    9    -17.87081    2.00000
   10    -17.27708    2.00000
   11    -16.91036    2.00000
   12    -16.14332    2.00000
   13    -15.48193    2.00000
   14    -15.26480    2.00000
   15    -14.06373    2.00000
   16    -13.54887    2.00000
   17    -13.29645    2.00000
   18    -13.02213    2.00000
   19    -12.25177    2.00000
   20    -12.03774    2.00000
   21    -11.50181    2.00000
   22    -11.23040    2.00000
   23    -10.67221    2.00000
   24    -10.29168    2.00000
   25    -10.09379    2.00000
   26     -9.82930    2.00000
   27     -9.57736    2.00000
   28     -9.36226    2.00000
   29     -9.04048    2.00000
   30     -8.81574    2.00000
   31     -8.64857    2.00000
   32     -8.38363    2.00000
   33     -8.28191    2.00000
   34     -8.19154    2.00000
   35     -7.78220    2.00000
   36     -7.43943    2.00000
   37     -7.27892    2.00000
   38     -6.58675    2.00000
   39     -6.57298    2.00000
   40     -6.51019    2.00000
   41     -6.12607    2.00000
   42     -5.92253    1.99999
   43     -5.87535    1.99998
   44     -5.60909    1.99974
   45     -5.29806    1.99408
   46     -5.01090    1.90035
   47     -4.73978    1.11790
   48     -4.67855    0.81451
   49     -4.46564    0.15108
   50     -4.25542    0.01977
   51     -4.03524    0.00221
   52     -3.86489    0.00040
   53     -3.33919    0.00000
   54     -3.05254    0.00000
   55     -2.58993    0.00000
   56     -2.21449    0.00000
   57     -1.92742    0.00000
   58     -1.08406    0.00000
   59     -0.70724    0.00000
[...]
   83      8.65119    0.00000
   84      8.70763    0.00000
   85      8.92505    0.00000
   86      8.99818    0.00000
   87      9.05430    0.00000
   88      9.18207    0.00000
   89      9.37572    0.00000
   90      9.56700    0.00000
   91      9.62557    0.00000
   92      9.68352    0.00000
   93      9.93268    0.00000
   94     10.04327    0.00000
   95     10.13009    0.00000
   96     10.17888    0.00000
   97     10.20423    0.00000

Forces in eV/Ang:
  0 C    -0.88004   -2.64575   -0.09966
  1 C     0.69387    0.97030    0.08502
  2 C    -6.78235    2.69513   -0.36742
  3 C     4.30200   -4.10650    0.31685
  4 C    -4.45952   -0.54804   -0.26762
  5 C     3.78906    2.83172    0.74559
  6 C    -2.28230    6.25274    1.09053
  7 C     2.64743    1.05666   -0.36097
  8 C     1.91774   -2.57026   -0.49961
  9 C    -0.56554    0.56179   -0.29325
 10 C    -0.77674   -3.12964    1.75228
 11 C     2.99292    1.92945   -0.15383
 12 C     0.29826    0.01448   -0.08472
 13 C    -1.24456    1.76945   -0.54793
 14 C    -0.05251    1.89331    0.09713
 15 C    -0.44250   -0.85807    0.05620
 16 C    -1.09730   -0.75917    0.06070
 17 C     0.24971   -5.70448   -0.35065
 18 C     0.35512   -2.35553   -0.96120
 19 C     0.07351    0.81870    0.21022
 20 C    -0.02716    2.78784   -1.01054
 21 C    -0.18267    0.29646   -0.14631
 22 C     1.93170   -0.46752    0.25949
 23 C    -0.44038   -0.62452    0.49322

System changes: positions

[...]

Density initialized from wave functions
   /       |       C                              |
  /        |    C   C                             |
 *         |  C       C  C C   C C                |
 |         | C       C   C       C                |
 |         .---C---C-C---C-----C------------------.
 |        /    C     C    C                      /
 |       /       C     C                        /

[...]

Density initialized from wave functions
   /       |       C                              |
  /        |    C   C                             |
 *         |  C       C  C C   C C                |
[...]
 |         .---C---C-C---C-----C------------------.
 |        /    C     C     C                     /
 |       /       C      C                       /

[...]

Density initialized from wave functions
   /       |       C                              |
  /        |     C  C  C                          |
 *         |  C C        C C   C                  |
 |         | C       C   C       C                |
 |         .---C---C-C---C-----C------------------.
 |        /    C     C     C                     /
 |       /       C      C                       /

[...]

Density initialized from wave functions
   /       |      C                               |
  /        |     C  C  C                          |
 *         |  C C        C C   C                  |
 |         | C       C   C       C                |
 |         .---C---C-C---C-----C------------------.
 |        /    C     C     C                     /
 |       /       C      C                       /

[...]

Density initialized from wave functions
   /       |      C                               |
  /        |     C  C  C                          |
 *         |  C C        C C   C                  |
 |         | C       C   C      CC                |
 |         .---C---C-C---C-----C------------------.
 |        /    C     C     C                     /
 |       /       C      C                       /

[...]

Density initialized from wave functions
   /       |      C                               |
  /        |     C  C  C                          |
 *         |  CC         C C   C                  |
 |         | C       C   C      CC                |
 |         .---C---C-C---C-----C------------------.
 |        /    C     C     C                     /
 |       /       C      C                       /

[...]

Density initialized from wave functions
   /       |      C                               |
  /        |     C  C  C                          |
 *         |  CC         C C   C                  |
 |         | C       C   C      CC                |
 |         .---C---C-C---C----C-------------------.
 |        /    C     C     C                     /
 |       /       C      C                       /

[...]

Density initialized from wave functions
   /       |      C                               |
  /        |     C  C  C                          |
 *         |  CC         C C   C                  |
 |         |  C      C   C      CC                |
 |         .---C---C-C---C----C-------------------.
 |        /    C     C  C  C                     /
 |       /       C                              /

[...]

Density initialized from wave functions
   /       |      C                               |
  /        |     C  C  C                          |
 *         |  CC         C C   C                  |
 |         |  C      C   C      CC                |
 |         .---C---C-C---C----C-------------------.
 |        /    C     C  C  C                     /
 |       /       C                              /

[...]

Density initialized from wave functions
   /       |      C                               |
  /        |     C  C  C                          |
 *         |  CC         C C   C                  |
 |         |  C      C   C      C                 |
 |         .---C---C-C---C----C-------------------.
 |        /    C     C  C  C                     /
 |       /       C                              /

[...]

Density initialized from wave functions
   /       |      C                               |
  /        |     C  C  C                          |
 *         |  CC         C C   C                  |
 |         |  C      C   C      C                 |
 |         .---C---C-C---C----C-------------------.
 |        /    C     C  C  C                     /
 |       /       C                              /

[...]

Density initialized from wave functions
   /       |      C                               |
  /        |     C  C  C                          |
 *         |  CC         C C   C                  |
 |         |  C      C   C      C                 |
 |         .---C---C--C--C----C-------------------.
 |        /    C     C  C  C                     /
 |       /       C                              /

[...]

Density initialized from wave functions
   /       |      C                               |
  /        |     C  C  C                          |
 *         |  CC         C C   C                  |
 |         |  C      C   C      C                 |
 |         .---C---C--C--C----C-------------------.
 |        /    C     C  C  C                     /
 |       /       C                              /

[...]

Density initialized from wave functions
   /       |      C                               |
  /        |     C  C  C                          |
 *         |  CC         C C   C                  |
 |         |  C      C   C      C                 |
 |         .---C---C--C--C----C-------------------.
 |        /    C  C  C  C  C                     /

[...]

Density initialized from wave functions
   /       |      C                               |
  /        |     C  C  C                          |
 *         |  CC         C C   C                  |
 |         |  C      C   C      C                 |
 |         .---C---C--C--C----C-C-----------------.
 |        /    C  C  C  C  C                     /

[...]

Density initialized from wave functions
   /       |      C                               |
  /        |     C  C   C                         |
 *         |  CC         C C   C                  |
 |         |  C      C   C      C                 |
 |         .----C--C--C--C----C-C-----------------.
 |        /    C  C  C  C  C                     /

[...]

Density initialized from wave functions
   /       |      C                               |
  /        |     C   C  C                         |
 *         |  CC          CC   C                  |
 |         |  C      C   C      C                 |
 |         .----C--C--C--C----C-C-----------------.
 |        /    C  C  C  C  C                     /

[...]

Density initialized from wave functions
   /       |      C                               |
  /        |     C   C  C                         |
 *         |  CC          CC   C                  |
 |         |  C      C   C      C                 |
 |         .----C--C--C--C----C-C-----------------.
 |        /    C  C  C  C  C                     /

[...]

Density initialized from wave functions
   /       |      C                               |
  /        |     C   C  C                         |
 *         |  CC          CC   C                  |
 |         |  C      C   C      C                 |
 |         .----C--C--C--C----C--C----------------.
 |        /    C     C  C  C                     /
 |       /        C                             /

[...]

Density initialized from wave functions
   /       |      C                               |
  /        |    C    C  C                         |
 *         |  CC          CC   C                  |
 |         | C       C   C      C                 |
 |         .----C--C--C--C----C--C----------------.
 |        /    C     C  C  C                     /
 |       /       C                              /

[...]

Density initialized from wave functions
   /       |      C                               |
  /        |    C    C  C                         |
 *         |  C           CC   C                  |
 |         | C       C   C      C                 |
 |         .----C--C--C--C----C--C----------------.
 |        /    C     C  C  C                     /
 |       /       C                              /

[...]

Density initialized from wave functions
   /       |      C                               |
  /        |    C    C  C                         |
 *         |  C           CC   C                  |
 |         | C       C   C      C                 |
 |         .----C--C--C--C----C--C----------------.
 |        /    C     C  C  C                     /
 |       /       C                              /

[...]

Density initialized from wave functions
   /       |      C                               |
  /        |    C    C  C                         |
 *         |  C           CC   C                  |
 |         | C       C   C      C                 |
 |         .----C--C--C--C----C-C-----------------.
 |        /    C C   C  C  C                     /

[...]

Density initialized from wave functions
   /       |      C                               |
  /        |   C     C  C                         |
 *         |  C           CC   C                  |
 |         | C       C   C      C                 |
 |         .----C--C--C--C----C-C-----------------.
 |        /    C  C  C  C  C                     /

[...]

Density initialized from wave functions
  /        |   C  C  C  C                         |
 *         |  C           CC   C                  |
 |         | CC      C   C      C                 |
 |         .----C--C--C--C----C-C-----------------.
 |        /    C  C  C  C  C                     /

[...]

Density initialized from wave functions
  /        |   C  C  C  C                         |
 *         |  C           CC   C                  |
 |         | C       C   C      C                 |
 |         .----C--C--C--C----C-C-----------------.
 |        /    C  C  C  C  C                     /

[...]

Density initialized from wave functions
  /        |   C  C  C  C                         |
 *         |  C           CC   C                  |
 |         | C       C   C      C                 |
 |         .----C--C--C--C----C-C-----------------.
 |        /    C  C  C  C  C                     /

[...]

Density initialized from wave functions
  /        |   C  C  C  C C                       |
 *         |  C            C   C                  |
 |         | C       C   C      C                 |
 |         .----C--C--C--C----C-C-----------------.
 |        /    C  C  C  C  C                     /

[...]

Density initialized from wave functions
  /        |   C  C  C  C C                       |
 *         |  C            C   C                  |
 |         | C       C   C      C                 |
 |         .----C--C--C--C----C-C-----------------.
 |        /    C  C  C  C  C                     /

[...]

Density initialized from wave functions
  /        |   C  C  C  C C                       |
 *         | C             C   C                  |
 |         | C       C   C      C                 |
 |         .----C--C--C--C----C--C----------------.
 |        /    C  C  C  C  C                     /

[...]

System changes: positions

Initializing position-dependent things.

Density initialized from wave functions
  /        |   C  C  C  C C                       |
 *         | C             C   C                  |
 |         | C       C   C       C                |
 |         .----C--C--C--C----C--C----------------.
 |        /    C C   C  C  C                     /

Positions:
   0 C     10.617882    5.436876    5.189754
   1 C     11.276769    6.520440    5.168737
   2 C     10.922082    7.823306    5.173210
   3 C     10.003193    8.689628    5.189560
   4 C      7.855764   10.019034    5.269534
   5 C      6.821572   10.734129    5.310669
   6 C      7.841128    7.569422    5.266749
   7 C      8.597020    8.821074    5.232599
   8 C      5.532242   11.117621    5.380054
   9 C      4.300057   10.829750    5.467888
  10 C      3.281061    9.959600    5.555818
  11 C      9.279801    5.030768    5.236228
  12 C      5.886402    3.442330    5.431109
  13 C      2.910930    7.456615    5.627819
  14 C      5.845276    6.194392    5.393467
  15 C      8.579609    3.772877    5.288190
  16 C      4.563241    5.500083    5.497140
  17 C      8.254515    6.127211    5.252488
  18 C      6.421131    7.481066    5.340602
  19 C      7.207756    3.893018    5.346201
  20 C      2.779866    8.794726    5.616736
  21 C      4.796500    4.094312    5.493270
  22 C      3.406534    6.298784    5.599783
  23 C      7.056925    5.424422    5.322264

Unit cell:
           periodic     x           y           z      points  spacing
  1. axis:    yes   16.000000    0.000000    0.000000    80     0.2000
  2. axis:    yes    0.000000   16.000000    0.000000    80     0.2000
  3. axis:    yes    0.000000    0.000000   10.000000    48     0.2083

Effective grid spacing dv^(1/3) = 0.2027

                     log10-error:    total        iterations:
           time      wfs    density  energy       fermi  poisson
iter:   1  10:13:02          +inf  -182.558441    2      4
iter:   2  10:13:03         -2.97  -182.558159    2      1
iter:   3  10:13:03         -3.21  -182.558062    2      1
iter:   4  10:13:04         -3.32  -182.558605    2      1
iter:   5  10:13:04         -3.45  -182.559526    2      1
iter:   6  10:13:05         -3.06  -182.557638    2      1
iter:   7  10:13:06         -3.49  -182.558044    2      1
iter:   8  10:13:06         -3.23  -182.557721    2      1
iter:   9  10:13:07         -4.05  -182.557397    2      1

Converged after 9 iterations.

Dipole moment: (0.156089, 0.265077, -0.006987) |e|*Ang

Energy contributions relative to reference atoms: (reference = -24663.074771)

Kinetic:       +107.289778
Potential:     -116.653423
External:        +0.000000
XC:            -176.199786
Entropy (-ST):   -0.075830
Local:           +3.043949
Free energy:   -182.595312
Extrapolated:  -182.557397

Fermi level: -4.24697

 Band  Eigenvalues  Occupancy
    0    -22.55701    2.00000
    1    -21.14029    2.00000
    2    -20.92283    2.00000
    3    -20.48271    2.00000
    4    -20.32438    2.00000
    5    -20.02449    2.00000
    6    -19.48184    2.00000
    7    -19.15097    2.00000
    8    -18.32093    2.00000
    9    -18.11631    2.00000
   10    -17.45974    2.00000
   11    -16.97895    2.00000
   12    -16.30809    2.00000
   13    -16.02412    2.00000
   14    -15.70541    2.00000
   15    -15.11855    2.00000
   16    -14.12227    2.00000
   17    -14.01438    2.00000
   18    -13.64669    2.00000
   19    -13.11091    2.00000
   20    -12.74735    2.00000
   21    -12.34161    2.00000
   22    -11.85584    2.00000
   23    -11.64727    2.00000
   24    -11.10820    2.00000
   25    -10.57369    2.00000
   26    -10.15862    2.00000
   27     -9.33815    2.00000
   28     -9.30286    2.00000
   29     -9.20554    2.00000
   30     -9.14437    2.00000
   31     -9.01088    2.00000
   32     -8.67898    2.00000
   33     -8.43518    2.00000
   34     -8.30697    2.00000
   35     -8.04758    2.00000
   36     -7.93122    2.00000
   37     -7.30912    2.00000
   38     -7.09245    2.00000
   39     -6.69716    2.00000
   40     -6.19409    2.00000
   41     -5.90126    2.00000
   42     -5.73701    2.00000
   43     -5.50660    1.99999
   44     -5.23228    1.99989
   45     -5.05603    1.99939
   46     -4.89347    1.99689
   47     -4.56090    1.91697
   48     -3.92861    0.07957
   49     -3.68584    0.00729
   50     -2.92773    0.00000
   51     -2.88134    0.00000
   52     -2.79934    0.00000
   53     -2.41619    0.00000
   54     -1.79533    0.00000
   55     -1.73688    0.00000
   56     -0.95813    0.00000
   57     -0.88449    0.00000
   58     -0.17484    0.00000
   59      0.09634    0.00000
[...]
   83      9.14665    0.00000
   84      9.17921    0.00000
   85      9.36914    0.00000
   86      9.37989    0.00000
   87      9.49212    0.00000
   88      9.62638    0.00000
   89      9.77437    0.00000
   90      9.85252    0.00000
   91      9.86352    0.00000
   92     10.00281    0.00000
   93     10.24475    0.00000
   94     10.33103    0.00000
   95     10.41106    0.00000
   96     10.54097    0.00000
   97     10.55598    0.00000

Forces in eV/Ang:
  0 C     0.02937   -0.02112    0.01989
  1 C    -0.01028   -0.02044   -0.00378
  2 C     0.02777    0.00233   -0.01049
  3 C    -0.01895    0.01837    0.01312
  4 C     0.00208    0.00376   -0.05103
  5 C    -0.07414   -0.01965    0.01076
  6 C     0.02164   -0.02612    0.00958
  7 C    -0.01684   -0.00405    0.05250
  8 C    -0.03109    0.00468    0.02085
  9 C    -0.04670   -0.02129   -0.00187
 10 C     0.00668    0.00276    0.00712
 11 C     0.00478   -0.00479   -0.04556
 12 C     0.03055    0.00589   -0.00776
 13 C    -0.02754    0.02836   -0.01143
 14 C     0.00160   -0.05816   -0.01422
 15 C     0.00099   -0.02925    0.01166
 16 C     0.00653   -0.00078    0.01604
 17 C     0.01591   -0.00107   -0.01145
 18 C     0.03242   -0.04835   -0.01336
 19 C     0.02123    0.05333    0.01597
 20 C    -0.02307    0.06130    0.01674
 21 C    -0.02631   -0.01551    0.00900
 22 C    -0.00192    0.05321   -0.04150
 23 C     0.00598   -0.03190    0.02230