User:   esb@s65n12.grendel.cscaa.dk
Date:   Thu Nov  9 12:02:54 2017
Arch:   x86_64
Pid:    22303
Python: 2.7.13
gpaw:   /home/esb/DFT/gpaw_git/gpaw
_gpaw:  /home/esb/DFT/gpaw_git/build/bin.linux-x86_64-2.7/gpaw-python
ase:    /home/esb/DFT/ase_git/ase (version 3.15.0b1)
numpy:  /comm/swstack/core/python/2.7.13/lib/python2.7/site-packages/numpy (version 1.13.3)
scipy:  /comm/swstack/core/python/2.7.13/lib/python2.7/site-packages/scipy (version 0.19.1)
units:  Angstrom and eV
cores:  16
Extra parameters: {'blacs': True}

Input parameters:
  basis: dzp
  gpts: [80 80 48]
  kpts: [1 1 1]
  maxiter: 99
  mixer: {backend: pulay,
          beta: 0.05,
          method: separate,
          nmaxold: 5,
          weight: 75}
  mode: lcao
  nbands: -50
  occupations: {name: fermi-dirac,
                width: 0.1}
  poissonsolver: {eps: 1e-07,
                  name: fd,
                  nn: 3,
                  relax: GS}
  xc: PBE

System changes: positions, numbers, cell, pbc, initial_charges, initial_magmoms

Initialize ...

C-setup:
  name: Carbon
  id: 4aa54d4b901d75f77cc0ea3eec22967b
  Z: 6
  valence: 4
  core: 2
  charge: 0.0
  file: /home/esb/DFT/gpaw-setups-0.8.7929/C.PBE.gz
  cutoffs: 0.64(comp), 1.14(filt), 1.14(core), lmax=2
  valence states:
                energy  radius
    2s(2.00)   -13.751   0.635
    2p(2.00)    -5.284   0.635
    *s          13.461   0.635
    *p          21.927   0.635
    *d           0.000   0.635

  LCAO basis set for C:
    Name: dzp
    File: /home/esb/DFT/gpaw-setups-0.8.7929/C.dzp.basis.gz
    Number of radial functions: 5
    Number of spherical harmonics: 13
      l=0, rc=5.5469 Bohr: 2s-sz confined orbital
      l=1, rc=6.6719 Bohr: 2p-sz confined orbital
      l=0, rc=3.0312 Bohr: 2s-dz split-valence wave
      l=1, rc=3.7500 Bohr: 2p-dz split-valence wave
      l=2, rc=6.6719 Bohr: d-type Gaussian polarization

Reference energy: -24663.074771

Spin-paired calculation

Occupation numbers:
  Fermi-Dirac: width=0.1000 eV

Convergence criteria:
  Maximum total energy change: 0.0005 eV / electron
  Maximum integral of absolute density change: 0.0001 electrons
  Maximum integral of absolute eigenstate change: 4e-08 eV^2
  Maximum number of iterations: 99

Symmetries present (total): 1

  ( 1  0  0)
  ( 0  1  0)
  ( 0  0  1)

1 k-point (Gamma)
1 k-point in the irreducible part of the Brillouin zone
       k-points in crystal coordinates                weights
   0:     0.00000000    0.00000000    0.00000000          1/1

Wave functions: LCAO
  Diagonalizer: Serial LAPACK
  Atomic Correction: dense with blas
  Datatype: float
  Eigensolver: None

LCAO using direct dense diagonalizer

Densities:
  Coarse grid: 80*80*48 grid
  Fine grid: 160*160*96 grid
  Total Charge: 0.000000

Density mixing:
  Method: separate
  Backend: pulay
  Linear mixing parameter: 0.05
  Mixing with 5 old densities
  Damping of long wave oscillations: 75

Hamiltonian:
  XC and Coulomb potentials evaluated on a 160*160*96 grid
  Using the PBE Exchange-Correlation functional
  Interpolation: tri-quintic (5. degree polynomial)
  Poisson solver: Gauss-Seidel solver with 6 multi-grid levels
    Coarsest grid: 5 x 5 x 3 points
    Stencil: 6*3+1=19 point O(h^6) finite-difference Laplacian
    Max iterations: 1000
    Tolerance: 1.000000e-07

Total number of cores used: 16
Domain decomposition: 2 x 4 x 2

Number of atoms: 24
Number of atomic orbitals: 312
Number of bands in calculation: 98
Bands to converge: occupied states only
Number of valence electrons: 96

... initialized

Initializing position-dependent things.

Density initialized from atomic densities
   /       |   C      C        C                  |
  /        |   C  C     C                         |
 *         | CCC     C    C   C                   |
 |         |    C  C            C                 |
 |         .---------C---C-----C------------------.
 |        /   C                                  /
 |       /      C   C C                         /

Positions:
   0 C     10.692401    5.970584    4.880153
   1 C     10.811222    7.104521    5.404637
   2 C      9.844170    7.819532    6.118883
   3 C      9.799762    9.063655    6.756290
   4 C      3.906197    6.683597    7.870640
   5 C      3.775784    5.574255    7.298115
   6 C      5.226857    3.750034    4.871728
   7 C      7.828970    3.220959    4.710891
   8 C      6.624088    3.882990    4.994152
   9 C      4.350166    4.615233    5.185954
  10 C      6.970453    5.222670    5.556754
  11 C      4.450968    5.909206    5.726700
  12 C      5.927822    6.069831    5.971813
  13 C      8.311299    5.779283    5.572691
  14 C      5.991744   10.012670    6.296697
  15 C      7.153159    9.476422    6.310743
  16 C      4.696028    9.434889    6.265489
  17 C      7.430763    8.070011    6.240706
  18 C      4.943852    8.023854    6.489085
  19 C      6.190631    7.387407    6.401922
  20 C      8.536587    7.201613    5.862819
  21 C      3.264794    9.445646    5.936889
  22 C      3.834411    7.169325    6.051192
  23 C      2.914241    8.232495    5.679791

Unit cell:
           periodic     x           y           z      points  spacing
  1. axis:    yes   16.000000    0.000000    0.000000    80     0.2000
  2. axis:    yes    0.000000   16.000000    0.000000    80     0.2000
  3. axis:    yes    0.000000    0.000000   10.000000    48     0.2083

Effective grid spacing dv^(1/3) = 0.2027

                     log10-error:    total        iterations:
           time      wfs    density  energy       fermi  poisson
iter:   1  12:02:56          +inf  -174.677246    2      6
iter:   2  12:02:57         -0.87  -173.349046    3      3
iter:   3  12:02:58         -0.90  -171.155842    33     4
iter:   4  12:02:59         -1.03  -170.578294    3      2
iter:   5  12:02:59         -1.06  -170.027392    3      3
iter:   6  12:03:00         -1.12  -169.669946    31     4
iter:   7  12:03:01         -1.33  -169.383863    3      3
iter:   8  12:03:02         -1.44  -169.299953    4      3
iter:   9  12:03:03         -1.61  -169.200941    4      2
iter:  10  12:03:03         -1.76  -169.147343    4      2
iter:  11  12:03:04         -1.87  -169.130870    3      2
iter:  12  12:03:05         -1.93  -169.101174    4      3
iter:  13  12:03:06         -2.32  -169.098576    3      2
iter:  14  12:03:07         -2.44  -169.098973    3      2
iter:  15  12:03:07         -2.70  -169.113960    3      1
iter:  16  12:03:08         -2.82  -169.097382    3      2
iter:  17  12:03:09         -3.00  -169.098473    2      1
iter:  18  12:03:10         -3.05  -169.095708    3      1
iter:  19  12:03:10         -3.25  -169.078053    3      1
iter:  20  12:03:11         -3.46  -169.092573    2      1
iter:  21  12:03:12         -3.70  -169.095918    2      1
iter:  22  12:03:13         -3.83  -169.091795    2      1
iter:  23  12:03:13         -3.98  -169.093683    2      1
iter:  24  12:03:14         -4.11  -169.093889    2      1

Converged after 24 iterations.

Dipole moment: (-0.822547, 0.100840, -0.302531) |e|*Ang

Energy contributions relative to reference atoms: (reference = -24663.074771)

Kinetic:       +122.288734
Potential:     -123.056635
External:        +0.000000
XC:            -171.123455
Entropy (-ST):   -0.339754
Local:           +2.967344
Free energy:   -169.263766
Extrapolated:  -169.093889

Fermi level: -5.11402

 Band  Eigenvalues  Occupancy
    0    -24.56306    2.00000
    1    -22.62727    2.00000
    2    -22.32340    2.00000
    3    -21.46859    2.00000
    4    -20.99713    2.00000
    5    -20.33114    2.00000
    6    -19.59278    2.00000
    7    -19.03756    2.00000
    8    -18.77320    2.00000
    9    -17.85378    2.00000
   10    -17.67839    2.00000
   11    -17.44253    2.00000
   12    -17.00094    2.00000
   13    -15.67971    2.00000
   14    -15.43575    2.00000
   15    -14.75396    2.00000
   16    -14.54518    2.00000
   17    -14.04501    2.00000
   18    -13.46274    2.00000
   19    -13.11898    2.00000
   20    -12.54864    2.00000
   21    -12.05405    2.00000
   22    -11.89416    2.00000
   23    -11.76654    2.00000
   24    -11.49035    2.00000
   25    -11.16916    2.00000
   26    -10.54996    2.00000
   27    -10.24952    2.00000
   28    -10.03469    2.00000
   29     -9.85200    2.00000
   30     -9.09354    2.00000
   31     -8.78420    2.00000
   32     -8.48045    2.00000
   33     -7.78718    2.00000
   34     -7.59839    2.00000
   35     -7.48576    2.00000
   36     -7.34744    2.00000
   37     -7.03047    2.00000
   38     -6.78520    2.00000
   39     -6.67948    2.00000
   40     -6.60742    2.00000
   41     -6.42863    2.00000
   42     -6.14504    1.99993
   43     -6.00911    1.99974
   44     -5.66853    1.99222
   45     -5.43368    1.92141
   46     -5.34859    1.82518
   47     -5.23671    1.54656
   48     -5.05389    0.70809
   49     -4.53564    0.00614
   50     -4.31673    0.00069
   51     -4.00837    0.00003
   52     -3.93697    0.00002
   53     -3.24721    0.00000
   54     -3.06404    0.00000
   55     -2.65254    0.00000
   56     -2.44929    0.00000
   57     -1.66722    0.00000
   58     -1.14688    0.00000
   59     -1.10434    0.00000
[...]
   83      8.41624    0.00000
   84      8.48423    0.00000
   85      8.68262    0.00000
   86      8.84889    0.00000
   87      8.94506    0.00000
   88      9.06865    0.00000
   89      9.26095    0.00000
   90      9.37266    0.00000
   91      9.50441    0.00000
   92      9.56082    0.00000
   93      9.70488    0.00000
   94      9.83477    0.00000
   95      9.88557    0.00000
   96     10.03016    0.00000
   97     10.09063    0.00000

Forces in eV/Ang:
  0 C    -0.28890   -2.19653   -0.99918
  1 C     1.20230    0.65847    0.65651
  2 C    -0.57776    1.75484   -0.17784
  3 C     0.27910   -0.95405   -0.36758
  4 C    -0.13243    4.69256    2.28032
  5 C    -0.83291   -2.86913   -2.53545
  6 C    -1.68442    0.94446    0.38047
  7 C    -1.37712    0.75588    0.33033
  8 C     2.10394   -1.08844   -0.58165
  9 C     0.74450   -1.92188   -2.51138
 10 C     1.28268    0.76161   -0.20814
 11 C     0.68868   -3.18398    1.59734
 12 C     1.35947    0.38279   -0.37848
 13 C     0.02428    2.29717    0.36705
 14 C    -0.73644    0.37232    0.03144
 15 C     0.50680   -0.55280   -0.05279
 16 C     1.08221   -0.20279    0.53748
 17 C    -0.90728   -0.81014   -0.26080
 18 C     1.54600    1.25093    0.44378
 19 C    -0.04622   -0.03309   -0.41025
 20 C    -1.16044   -0.74414    1.18488
 21 C    -0.27008   -0.88945   -0.60869
 22 C    -1.84132    0.49350    1.55403
 23 C    -0.95649    1.13015   -0.25358

System changes: positions

[...]

Density initialized from wave functions
   /       |   C      C        C                  |
  /        |   C  C     C                         |
 *         | CCC     C    C   C                   |
 |         |    C  C            C                 |
 |         .---------C---C-----C------------------.
 |        /   C                                  /
 |       /      C   C C                         /

[...]

Density initialized from wave functions
   /       |   C      C        C                  |
[...]
 |         .----C-----C-----C--C------------------.
 |        /     C     C   C                      /
 |       /         C                            /

[...]

Density initialized from wave functions
    /      |    C                                 |
   /       | C     C  C C                         |
  /        |  C   C                               |
 *         |        C   C C      C                |
 |         | C     C     C    C                   |
 |         .-C--C-----C-----C--C------------------.
 |        /     C     C                          /
 |       /         C      C                     /

[...]

Density initialized from wave functions
    /      |    C                                 |
   /       | C     C  C C                         |
  /        |  C   C                               |
 *         |        C   C C      C                |
 |         |C      C     C    C                   |
 |         .-C--C-----C-----C--C------------------.
 |        /     C     C                          /
 |       /         C      C                     /

[...]

Density initialized from wave functions
   /       | C  C  C  C C                         |
  /        |  C   C                               |
 *         |        C   C C      C                |
 |         |C      C     C    C                   |
 |         .-C--C-----C-----C--C------------------.
 |        /     C     C   C                      /
 |       /         C                            /

[...]

Density initialized from wave functions
   /       | C  C  C  C C                         |
  /        |  C   C                               |
 *         |        C   C C      C                |
 |         |C      C     C    C                   |
 |         .-C--C-----C-----C--C------------------.
 |        /     C     C                          /
 |       /         C      C                     /

[...]

Density initialized from wave functions
   /       | C  C  C  C C                         |
  /        |  C   C                               |
 *         |        C   C C      C                |
 |         |C      C     C    C                   |
 |         .-C--C-----C-----C--C------------------.
 |        /     C     C                          /
 |       /         C      C                     /

[...]

Density initialized from wave functions
    /      |    C                                 |
   /       | C     C  C C                         |
  /        |  C   C                               |
 *         |        C   C C      C                |
 |         |C      C     C    C                   |
 |         .-C--C-----C-----C--C------------------.
 |        /     C     C                          /
 |       /         C      C                     /

[...]

Density initialized from wave functions
    /      |    C                                 |
   /       | C     C  C C                         |
  /        |  C   C     C                         |
 *         |        C     C      C                |
 |         |C      C     C    C                   |
 |         .-C--C-----C-----C--C------------------.
 |        /     C     C                          /
 |       /         C      C                     /

[...]

Density initialized from wave functions
    /      |    C                                 |
   /       | C     C  C C                         |
  /        |  C   C     C                         |
 *         |        C     C   C  C                |
 |         |C      C     C                        |
 |         .-C--C-----C-----C--C------------------.
 |        /     C     C                          /
 |       /         C      C                     /

[...]

Density initialized from wave functions
    /      |    C                                 |
   /       | C     C  C C                         |
  /        |  C   C     C                         |
 *         |        C     C   C  C                |
 |         |CC     C     C                        |
 |         .----C-----C-----C--C------------------.
 |        /     C     C                          /
 |       /         C      C                     /

[...]

Density initialized from wave functions
    /      |    C                                 |
   /       | C     C  C C                         |
  /        |  C   C     C                         |
 *         |        C     C   C  C                |
 |         |CC     C     C                        |
 |         .----C-----C-----C--C------------------.
 |        /     C     C                          /
 |       /         C      C                     /

[...]

Density initialized from wave functions
    /      |    C                                 |
   /       | C     C  C C                         |
  /        |  C   C     C                         |
 *         |        C     C   C                   |
 |         |CC     C     C       C                |
 |         .----C-----C-----C--C------------------.
 |        /     C     C   C                      /
 |       /         C                            /

[...]

Density initialized from wave functions
    /      |    C                                 |
   /       | C     C  C C                         |
  /        |  C   C     C                         |
 *         |        C     C   C                   |
 |         |CC     C     C       C                |
 |         .----C-----C-----C--C------------------.
 |        /     C     C   C                      /
 |       /         C                            /

[...]

Density initialized from wave functions
    /      |    C                                 |
   /       | C     C  C C                         |
  /        |      C     C                         |
 *         |  C     C      C  C                   |
 |         |CC     C     C       C                |
 |         .----C-----C-----C--C------------------.
 |        /     C     C   C                      /
 |       /         C                            /

[...]

Density initialized from wave functions
    /      |    C                                 |
   /       | C     C  C C                         |
  /        |      C     C                         |
 *         |  C     C     C   C                   |
 |         |CC     C     C       C                |
 |         .----C-----C-----C--C------------------.
 |        /     C     C                          /
 |       /         C      C                     /

[...]

Density initialized from wave functions
   /       | C  C  C  C C                         |
  /        |      C     C                         |
 *         |  C     C     C   C                   |
 |         |CC     C     C       C                |
 |         .----C-----C-----C--C------------------.
 |        /     C     C                          /
 |       /         C      C                     /

[...]

Density initialized from wave functions
   /       | C C   C  C C                         |
  /        |      C     C                         |
 *         |  C     C     C   C                   |
 |         |CC     C     C       C                |
 |         .----C-----C-----C--C------------------.
 |        /     C     C                          /
 |       /         C      C                     /

[...]

Density initialized from wave functions
   /       | C C   C  C C                         |
  /        |  C   C     C                         |
 *         |        C     C   C                   |
 |         |CC     C     C       C                |
 |         .----C-----C-----C--C------------------.
 |        /     C     C                          /
 |       /         C      C                     /

[...]

Density initialized from wave functions
   /       | C C   C  C C                         |
  /        |  C   C     C                         |
 *         |        C     C   C                   |
 |         |C      C     C       C                |
 |         .-C--C-----C-----C--C------------------.
 |        /     C     C                          /
 |       /         C      C                     /

[...]

Density initialized from wave functions
   /       | C C   C  C C                         |
  /        |  C   C     C                         |
 *         |        C     C   C                   |
 |         | C     C     C       C                |
 |         .-C--C-----C-----C--C------------------.
 |        /     C     C                          /
 |       /         C      C                     /

[...]

Density initialized from wave functions
   /       | C C   C  C C                         |
  /        |  C   C     C                         |
 *         |        C     C   C                   |
 |         | C     C      C      C                |
 |         .-C--C-----C-----C--C------------------.
 |        /     C     C                          /
 |       /         C      C                     /

[...]

Density initialized from wave functions
   /       | C C  C   C C                         |
  /        |  C   C     C                         |
 *         |        C     C   C                   |
 |         |C      C      C      C                |
 |         .-C--C-----C-----C--C------------------.
 |        /     C     C                          /
 |       /         C      C                     /

[...]

Density initialized from wave functions
   /       | C C   C  C C                         |
  /        |  C   C     C                         |
 *         |        C     C   C                   |
 |         |CC     C      C      C                |
 |         .----C-----C-----C--C------------------.
 |        /     C      C                         /
 |       /         C      C                     /

[...]

Density initialized from wave functions
   /       | C C   C  C C                         |
  /        |  C   C     C                         |
 *         |        C      C  C                   |
 |         |C      C      C      C                |
 |         .-C--C-----C-----C--C------------------.
 |        /     C      C  C                      /
 |       /         C                            /

[...]

Density initialized from wave functions
   /       | C  C  C  C C                         |
  /        |      C     C                         |
 *         |  C     C      C  C                   |
 |         |C      C      C      C                |
 |         .-C--C-----C-----C--C------------------.
 |        /     C      C  C                      /
 |       /         C                            /

[...]

System changes: positions

Initializing position-dependent things.

Density initialized from wave functions
   /       | C  C  C  C C                         |
  /        |  C   C     C                         |
 *         |        C      C  C                   |
 |         |C       C     C      C                |
 |         .-C--C-----C-----C--C------------------.
 |        /     C      C  C                      /
 |       /         C                            /

Positions:
   0 C      9.639653    5.511066    5.195834
   1 C     10.692922    6.398414    5.234611
   2 C      9.862872    8.072056    5.689631
   3 C     11.116758    7.687314    5.460484
   4 C      2.989494    6.717855    5.964816
   5 C      3.641228    5.661413    5.727661
   6 C      6.554839    3.458656    5.108506
   7 C      9.143265    4.168795    4.944249
   8 C      7.761714    4.198549    5.128472
   9 C      5.354562    3.805057    5.288363
  10 C      7.292135    5.591886    5.479208
  11 C      4.887694    5.115416    5.568924
  12 C      6.017061    6.133527    5.694723
  13 C      8.476309    6.343347    5.530487
  14 C      6.009895   10.373385    6.617402
  15 C      7.062134    9.705073    6.402224
  16 C      4.727982    9.844111    6.573090
  17 C      7.240996    8.361346    6.078337
  18 C      4.733181    8.388732    6.258036
  19 C      5.930663    7.603240    6.012659
  20 C      8.503941    7.716762    5.808197
  21 C      3.340314   10.230961    6.713715
  22 C      3.247243    8.029137    6.240681
  23 C      2.552576    9.251915    6.529389

Unit cell:
           periodic     x           y           z      points  spacing
  1. axis:    yes   16.000000    0.000000    0.000000    80     0.2000
  2. axis:    yes    0.000000   16.000000    0.000000    80     0.2000
  3. axis:    yes    0.000000    0.000000   10.000000    48     0.2083

Effective grid spacing dv^(1/3) = 0.2027

                     log10-error:    total        iterations:
           time      wfs    density  energy       fermi  poisson
iter:   1  12:41:12          +inf  -183.841459    2      5
iter:   2  12:41:13         -2.83  -183.838724    2      1
iter:   3  12:41:13         -3.10  -183.837853    2      1
iter:   4  12:41:14         -3.21  -183.837717    2      1
iter:   5  12:41:15         -3.33  -183.835687    2      1
iter:   6  12:41:15         -2.99  -183.838147    2      1
iter:   7  12:41:16         -3.38  -183.839997    2      1
iter:   8  12:41:17         -3.11  -183.838062    2      1
iter:   9  12:41:17         -4.10  -183.838029    2      1

Converged after 9 iterations.

Dipole moment: (0.008632, 0.293017, 0.067979) |e|*Ang

Energy contributions relative to reference atoms: (reference = -24663.074771)

Kinetic:       +114.937233
Potential:     -121.974645
External:        +0.000000
XC:            -179.785039
Entropy (-ST):   -0.091866
Local:           +3.030354
Free energy:   -183.883962
Extrapolated:  -183.838029

Fermi level: -4.22529

 Band  Eigenvalues  Occupancy
    0    -23.21973    2.00000
    1    -22.27298    2.00000
    2    -21.84545    2.00000
    3    -21.09645    2.00000
    4    -20.83182    2.00000
    5    -20.07559    2.00000
    6    -19.56486    2.00000
    7    -19.04520    2.00000
    8    -18.65733    2.00000
    9    -18.00432    2.00000
   10    -17.53743    2.00000
   11    -17.22151    2.00000
   12    -16.38469    2.00000
   13    -15.73002    2.00000
   14    -15.19707    2.00000
   15    -14.96828    2.00000
   16    -14.37152    2.00000
   17    -13.43268    2.00000
   18    -13.02955    2.00000
   19    -12.98449    2.00000
   20    -12.36163    2.00000
   21    -12.20664    2.00000
   22    -12.00006    2.00000
   23    -11.47363    2.00000
   24    -10.91038    2.00000
   25    -10.69333    2.00000
   26    -10.49095    2.00000
   27    -10.32072    2.00000
   28    -10.08366    2.00000
   29     -9.93279    2.00000
   30     -9.63582    2.00000
   31     -9.43810    2.00000
   32     -9.20743    2.00000
   33     -8.79409    2.00000
   34     -8.34540    2.00000
   35     -8.11158    2.00000
   36     -7.67613    2.00000
   37     -7.08064    2.00000
   38     -7.03473    2.00000
   39     -6.59211    2.00000
   40     -6.42148    2.00000
   41     -6.39613    2.00000
   42     -6.16189    2.00000
   43     -6.06850    2.00000
   44     -5.66001    2.00000
   45     -5.25143    1.99993
   46     -4.65526    1.97322
   47     -4.54899    1.92441
   48     -3.91565    0.08651
   49     -3.73358    0.01453
   50     -3.49752    0.00138
   51     -3.04081    0.00001
   52     -2.56289    0.00000
   53     -2.24227    0.00000
   54     -2.19181    0.00000
   55     -2.07623    0.00000
   56     -1.81695    0.00000
   57     -0.99761    0.00000
   58     -0.32603    0.00000
   59      0.84854    0.00000
[...]
   83      9.01203    0.00000
   84      9.21306    0.00000
   85      9.22289    0.00000
   86      9.37076    0.00000
   87      9.40714    0.00000
   88      9.48613    0.00000
   89      9.67688    0.00000
   90      9.79018    0.00000
   91      9.90221    0.00000
   92     10.00182    0.00000
   93     10.09805    0.00000
   94     10.16800    0.00000
   95     10.27005    0.00000
   96     10.48264    0.00000
   97     10.63565    0.00000

Forces in eV/Ang:
  0 C    -0.06428   -0.03209   -0.01582
  1 C    -0.08109   -0.00201    0.00489
  2 C    -0.04280   -0.03805    0.00716
  3 C    -0.04481   -0.02833    0.01142
  4 C     0.01302    0.04010    0.05013
  5 C     0.01255   -0.06071    0.00508
  6 C     0.05558    0.03533   -0.05509
  7 C     0.07372   -0.05828    0.01797
  8 C     0.06467    0.03202   -0.00894
  9 C     0.00136    0.01112   -0.01365
 10 C    -0.03429   -0.00005    0.04014
 11 C    -0.03589    0.02044    0.00273
 12 C    -0.01623    0.03822    0.04500
 13 C    -0.01484    0.05214   -0.00723
 14 C     0.03581   -0.04773   -0.02223
 15 C     0.00499   -0.06014   -0.02144
 16 C     0.02772    0.01185    0.01723
 17 C     0.02077   -0.00299   -0.02455
 18 C     0.02404    0.06032   -0.02714
 19 C     0.02730    0.00866   -0.00982
 20 C     0.04916   -0.06316   -0.00355
 21 C    -0.08449   -0.04220    0.00844
 22 C     0.01645    0.02101   -0.01985
 23 C    -0.05756   -0.00691   -0.00605