User:   esb@s65n84.grendel.cscaa.dk
Date:   Thu Nov  9 10:12:34 2017
Arch:   x86_64
Pid:    56427
Python: 2.7.13
gpaw:   /home/esb/DFT/gpaw_git/gpaw
_gpaw:  /home/esb/DFT/gpaw_git/build/bin.linux-x86_64-2.7/gpaw-python
ase:    /home/esb/DFT/ase_git/ase (version 3.15.0b1)
numpy:  /comm/swstack/core/python/2.7.13/lib/python2.7/site-packages/numpy (version 1.13.3)
scipy:  /comm/swstack/core/python/2.7.13/lib/python2.7/site-packages/scipy (version 0.19.1)
units:  Angstrom and eV
cores:  16
Extra parameters: {'blacs': True}

Input parameters:
  basis: dzp
  gpts: [80 80 48]
  kpts: [1 1 1]
  maxiter: 99
  mixer: {backend: pulay,
          beta: 0.05,
          method: separate,
          nmaxold: 5,
          weight: 75}
  mode: lcao
  nbands: -50
  occupations: {name: fermi-dirac,
                width: 0.1}
  poissonsolver: {eps: 1e-07,
                  name: fd,
                  nn: 3,
                  relax: GS}
  xc: PBE

System changes: positions, numbers, cell, pbc, initial_charges, initial_magmoms

Initialize ...

C-setup:
  name: Carbon
  id: 4aa54d4b901d75f77cc0ea3eec22967b
  Z: 6
  valence: 4
  core: 2
  charge: 0.0
  file: /home/esb/DFT/gpaw-setups-0.8.7929/C.PBE.gz
  cutoffs: 0.64(comp), 1.14(filt), 1.14(core), lmax=2
  valence states:
                energy  radius
    2s(2.00)   -13.751   0.635
    2p(2.00)    -5.284   0.635
    *s          13.461   0.635
    *p          21.927   0.635
    *d           0.000   0.635

  LCAO basis set for C:
    Name: dzp
    File: /home/esb/DFT/gpaw-setups-0.8.7929/C.dzp.basis.gz
    Number of radial functions: 5
    Number of spherical harmonics: 13
      l=0, rc=5.5469 Bohr: 2s-sz confined orbital
      l=1, rc=6.6719 Bohr: 2p-sz confined orbital
      l=0, rc=3.0312 Bohr: 2s-dz split-valence wave
      l=1, rc=3.7500 Bohr: 2p-dz split-valence wave
      l=2, rc=6.6719 Bohr: d-type Gaussian polarization

Reference energy: -24663.074771

Spin-paired calculation

Occupation numbers:
  Fermi-Dirac: width=0.1000 eV

Convergence criteria:
  Maximum total energy change: 0.0005 eV / electron
  Maximum integral of absolute density change: 0.0001 electrons
  Maximum integral of absolute eigenstate change: 4e-08 eV^2
  Maximum number of iterations: 99

Symmetries present (total): 1

  ( 1  0  0)
  ( 0  1  0)
  ( 0  0  1)

1 k-point (Gamma)
1 k-point in the irreducible part of the Brillouin zone
       k-points in crystal coordinates                weights
   0:     0.00000000    0.00000000    0.00000000          1/1

Wave functions: LCAO
  Diagonalizer: Serial LAPACK
  Atomic Correction: dense with blas
  Datatype: float
  Eigensolver: None

LCAO using direct dense diagonalizer

Densities:
  Coarse grid: 80*80*48 grid
  Fine grid: 160*160*96 grid
  Total Charge: 0.000000

Density mixing:
  Method: separate
  Backend: pulay
  Linear mixing parameter: 0.05
  Mixing with 5 old densities
  Damping of long wave oscillations: 75

Hamiltonian:
  XC and Coulomb potentials evaluated on a 160*160*96 grid
  Using the PBE Exchange-Correlation functional
  Interpolation: tri-quintic (5. degree polynomial)
  Poisson solver: Gauss-Seidel solver with 6 multi-grid levels
    Coarsest grid: 5 x 5 x 3 points
    Stencil: 6*3+1=19 point O(h^6) finite-difference Laplacian
    Max iterations: 1000
    Tolerance: 1.000000e-07

Total number of cores used: 16
Domain decomposition: 2 x 4 x 2

Number of atoms: 24
Number of atomic orbitals: 312
Number of bands in calculation: 98
Bands to converge: occupied states only
Number of valence electrons: 96

... initialized

Initializing position-dependent things.

Density initialized from atomic densities
  /        |           C  C                       |
 *         |  C C   C      C  C  C                |
 |         | C       C   C        CC              |
 |         .---C---C-C---C--C--C------------------.
 |        /    C    C     C                      /
 |       /       C     C                        /

Positions:
   0 C     10.773867    6.150322    5.188351
   1 C     11.782285    6.925386    5.174675
   2 C     11.782326    8.162507    4.597059
   3 C     10.958559    9.162022    4.984830
   4 C      9.367469    4.132462    5.116581
   5 C      9.519101    5.543678    5.209460
   6 C      9.684321    9.179426    5.015138
   7 C      3.478645    7.461403    5.782887
   8 C      8.368230    8.896932    5.361862
   9 C      3.243281    6.174632    5.664165
  10 C      5.495636    8.689150    5.818119
  11 C      5.610078    3.318896    5.305737
  12 C      7.622854    9.807095    5.802140
  13 C      6.375922    9.789677    5.940044
  14 C      5.833599    6.079579    5.484298
  15 C      8.244528    3.229307    5.229574
  16 C      7.778894    7.476540    5.450777
  17 C      4.474201    5.498887    5.461761
  18 C      8.217251    6.019402    5.321390
  19 C      6.313855    7.469667    5.597377
  20 C      6.950910    3.769821    5.309245
  21 C      4.071908    8.709465    5.847802
  22 C      4.616837    4.088007    5.355297
  23 C      7.010492    5.237664    5.381104

Unit cell:
           periodic     x           y           z      points  spacing
  1. axis:    yes   16.000000    0.000000    0.000000    80     0.2000
  2. axis:    yes    0.000000   16.000000    0.000000    80     0.2000
  3. axis:    yes    0.000000    0.000000   10.000000    48     0.2083

Effective grid spacing dv^(1/3) = 0.2027

                     log10-error:    total        iterations:
           time      wfs    density  energy       fermi  poisson
iter:   1  10:12:36          +inf  -186.539187    2      6
iter:   2  10:12:36         -0.90  -185.707998    3      3
iter:   3  10:12:37         -0.93  -182.953797    36     4
iter:   4  10:12:38         -1.14  -182.592514    3      2
iter:   5  10:12:38         -1.20  -182.361397    30     4
iter:   6  10:12:39         -1.54  -182.342250    3      3
iter:   7  10:12:40         -1.61  -182.225523    3      3
iter:   8  10:12:40         -1.85  -182.217824    3      2
iter:   9  10:12:41         -1.93  -182.168357    3      3
iter:  10  10:12:42         -2.23  -182.163955    3      2
iter:  11  10:12:42         -2.40  -182.153507    3      2
iter:  12  10:12:43         -2.70  -182.148011    2      2
iter:  13  10:12:43         -2.78  -182.147627    2      2
iter:  14  10:12:44         -2.88  -182.144302    2      1
iter:  15  10:12:45         -2.95  -182.151127    2      1
iter:  16  10:12:45         -3.15  -182.167996    2      1
iter:  17  10:12:46         -3.36  -182.158561    2      1
iter:  18  10:12:46         -3.49  -182.150963    1      1
iter:  19  10:12:47         -3.60  -182.148781    2      1
iter:  20  10:12:48         -3.65  -182.147217    2      1
iter:  21  10:12:48         -3.75  -182.147105    2      1
iter:  22  10:12:49         -3.84  -182.144879    2      1
iter:  23  10:12:49         -4.04  -182.147763    2      1

Converged after 23 iterations.

Dipole moment: (0.781117, 0.171845, 0.000105) |e|*Ang

Energy contributions relative to reference atoms: (reference = -24663.074771)

Kinetic:       +112.417259
Potential:     -120.274044
External:        +0.000000
XC:            -177.246048
Entropy (-ST):   -0.096014
Local:           +3.003077
Free energy:   -182.195770
Extrapolated:  -182.147763

Fermi level: -4.17631

 Band  Eigenvalues  Occupancy
    0    -22.62263    2.00000
    1    -21.99479    2.00000
    2    -21.52244    2.00000
    3    -21.02368    2.00000
    4    -20.55491    2.00000
    5    -20.01946    2.00000
    6    -19.74004    2.00000
    7    -19.34204    2.00000
    8    -18.41276    2.00000
    9    -18.02117    2.00000
   10    -17.37620    2.00000
   11    -17.07016    2.00000
   12    -16.50055    2.00000
   13    -16.01196    2.00000
   14    -15.28717    2.00000
   15    -14.98481    2.00000
   16    -14.13376    2.00000
   17    -13.80001    2.00000
   18    -13.57152    2.00000
   19    -12.91344    2.00000
   20    -12.78240    2.00000
   21    -12.30423    2.00000
   22    -11.76488    2.00000
   23    -11.42334    2.00000
   24    -10.82280    2.00000
   25    -10.63169    2.00000
   26    -10.46570    2.00000
   27    -10.38615    2.00000
   28     -9.77971    2.00000
   29     -9.52122    2.00000
   30     -9.37684    2.00000
   31     -9.20067    2.00000
   32     -9.03267    2.00000
   33     -8.77858    2.00000
   34     -8.42799    2.00000
   35     -7.70720    2.00000
   36     -7.43160    2.00000
   37     -7.18694    2.00000
   38     -6.88127    2.00000
   39     -6.73587    2.00000
   40     -6.42409    2.00000
   41     -6.26069    2.00000
   42     -5.90220    2.00000
   43     -5.78539    2.00000
   44     -5.74272    2.00000
   45     -5.36000    1.99999
   46     -4.92449    1.99887
   47     -4.45191    1.88050
   48     -3.89077    0.10881
   49     -3.65759    0.01111
   50     -3.38047    0.00070
   51     -2.99129    0.00001
   52     -2.80298    0.00000
   53     -2.71607    0.00000
   54     -2.33767    0.00000
   55     -1.90860    0.00000
   56     -1.43065    0.00000
   57     -1.27864    0.00000
   58     -1.03180    0.00000
   59     -0.14192    0.00000
[...]
   83      8.91218    0.00000
   84      9.11349    0.00000
   85      9.33307    0.00000
   86      9.57830    0.00000
   87      9.62476    0.00000
   88      9.71095    0.00000
   89      9.78326    0.00000
   90      9.84132    0.00000
   91     10.02269    0.00000
   92     10.14395    0.00000
   93     10.16952    0.00000
   94     10.32713    0.00000
   95     10.35500    0.00000
   96     10.42791    0.00000
   97     10.52837    0.00000

Forces in eV/Ang:
  0 C     0.13592    0.27158   -0.05143
  1 C    -0.27319   -0.18250    0.05905
  2 C     0.16330    0.12393   -0.12869
  3 C    -0.14149   -0.01217    0.05577
  4 C    -5.87834   -5.76166    0.50448
  5 C     1.68583   -2.48548   -0.09883
  6 C     0.79343   -0.05997   -0.34707
  7 C     1.91022    2.79595   -0.03585
  8 C     6.26634   -7.97738   -2.35985
  9 C    -0.40260    1.12527   -0.07165
 10 C    -0.67334   -0.35224   -0.02677
 11 C    -0.04082   -0.13891   -0.02778
 12 C    -5.95948    6.46063    2.73118
 13 C    -0.52663    0.25455    0.19541
 14 C     0.08279   -0.18700   -0.00697
 15 C     6.72644    4.77885   -0.56619
 16 C    -1.24964    0.49893   -0.37102
 17 C     0.43643   -0.52273    0.43045
 18 C    -2.15487    3.90102    0.57782
 19 C     0.58358    0.11266   -0.05712
 20 C     0.46482    0.27028   -0.20314
 21 C    -1.59909   -2.80366    0.14386
 22 C     0.21331   -0.24890   -0.03860
 23 C    -0.50886    0.16261   -0.26949

System changes: positions

[...]

Density initialized from wave functions
  /        |           C  C                       |
 *         |  C C   C      C  C  C                |
 |         | C       C   C        CC              |
 |         .---C---C-C---C--C--C------------------.
 |        /    C    C     C                      /
 |       /       C     C                        /

[...]

Density initialized from wave functions
  /        |           C  C                       |
 *         |  C C   C      C  C   C               |
 |         | C       C   C        CC              |
 |         .---C---C-C---C--C--C------------------.
 |        /    C    C     C                      /
 |       /       C     C                        /

[...]

Density initialized from wave functions
  /        |           C  C                       |
 *         |  C C   C      C  C   C               |
 |         | C       C   C         C              |
 |         .---C---C-C---C--C--C--C---------------.
 |        /    C    C     C                      /
 |       /       C     C                        /

[...]

Density initialized from wave functions
  /        |           C  C                       |
 *         |  C C   C      C  C   C               |
 |         | C       C   C         C              |
 |         .---C---C-C---C--C--C--C---------------.
 |        /    C    C     C                      /
 |       /       C     C                        /

[...]

Density initialized from wave functions
  /        |    C      C  C                       |
 *         |  C     C      C  C   C               |
 |         | C       C   C         C              |
 |         .---C---C-C---C--C--C--C---------------.
 |        /    C    C     C                      /
 |       /       C     C                        /

[...]

System changes: positions

Initializing position-dependent things.

Density initialized from wave functions
  /        |    C     C   C                       |
 *         |  C     C      C  C   C               |
 |         | C       C   C         C              |
 |         .---C---C-C---C--C--C--C---------------.
 |        /    C    C     C                      /
 |       /       C     C                        /

Positions:
   0 C     10.773436    6.072755    5.164052
   1 C     11.776480    6.853192    5.135249
   2 C     11.787403    8.101785    4.590473
   3 C     10.999542    9.118224    5.003890
   4 C      9.348951    4.060864    5.163991
   5 C      9.517057    5.471075    5.231059
   6 C      9.724200    9.126007    5.052960
   7 C      3.506175    7.479639    5.764888
   8 C      8.412530    8.844317    5.409376
   9 C      3.249995    6.198727    5.635983
  10 C      5.425722    8.695282    5.835066
  11 C      5.679837    3.328207    5.290808
  12 C      7.533245    9.920533    5.737478
  13 C      6.300540    9.812346    5.929255
  14 C      5.823421    6.099265    5.477254
  15 C      8.318729    3.343461    5.187505
  16 C      7.732605    7.541198    5.440701
  17 C      4.478429    5.476684    5.515431
  18 C      8.207255    6.140498    5.326220
  19 C      6.267704    7.503890    5.588947
  20 C      6.998988    3.837679    5.256331
  21 C      4.009274    8.679016    5.911297
  22 C      4.670170    4.069844    5.411622
  23 C      7.016550    5.301341    5.331261

Unit cell:
           periodic     x           y           z      points  spacing
  1. axis:    yes   16.000000    0.000000    0.000000    80     0.2000
  2. axis:    yes    0.000000   16.000000    0.000000    80     0.2000
  3. axis:    yes    0.000000    0.000000   10.000000    48     0.2083

Effective grid spacing dv^(1/3) = 0.2027

                     log10-error:    total        iterations:
           time      wfs    density  energy       fermi  poisson
iter:   1  10:15:12          +inf  -184.550922    2      4
iter:   2  10:15:13         -3.25  -184.549874    2      1
iter:   3  10:15:13         -3.36  -184.548415    2      1
iter:   4  10:15:14         -3.55  -184.548259    1      1
iter:   5  10:15:15         -3.76  -184.547801    2      1
iter:   6  10:15:15         -3.74  -184.548042    2      1
iter:   7  10:15:16         -4.08  -184.548857    2      1

Converged after 7 iterations.

Dipole moment: (0.832171, -0.023256, -0.029420) |e|*Ang

Energy contributions relative to reference atoms: (reference = -24663.074771)

Kinetic:       +114.569183
Potential:     -123.371541
External:        +0.000000
XC:            -178.737286
Entropy (-ST):   -0.064141
Local:           +3.022857
Free energy:   -184.580928
Extrapolated:  -184.548857

Fermi level: -4.15545

 Band  Eigenvalues  Occupancy
    0    -22.56584    2.00000
    1    -21.67020    2.00000
    2    -21.46950    2.00000
    3    -20.95944    2.00000
    4    -20.47929    2.00000
    5    -20.17192    2.00000
    6    -19.58062    2.00000
    7    -19.44897    2.00000
    8    -18.33070    2.00000
    9    -18.22860    2.00000
   10    -17.52357    2.00000
   11    -17.22793    2.00000
   12    -16.52390    2.00000
   13    -15.96911    2.00000
   14    -15.51642    2.00000
   15    -14.99464    2.00000
   16    -14.02856    2.00000
   17    -13.71682    2.00000
   18    -13.30461    2.00000
   19    -12.92852    2.00000
   20    -12.70912    2.00000
   21    -12.10647    2.00000
   22    -11.81472    2.00000
   23    -11.73373    2.00000
   24    -10.76612    2.00000
   25    -10.67043    2.00000
   26    -10.41361    2.00000
   27    -10.40225    2.00000
   28     -9.60863    2.00000
   29     -9.49345    2.00000
   30     -9.38739    2.00000
   31     -9.21746    2.00000
   32     -9.08354    2.00000
   33     -8.72647    2.00000
   34     -8.42991    2.00000
   35     -7.89279    2.00000
   36     -7.31136    2.00000
   37     -7.23471    2.00000
   38     -6.90093    2.00000
   39     -6.81930    2.00000
   40     -6.53602    2.00000
   41     -6.32652    2.00000
   42     -6.25965    2.00000
   43     -6.04855    2.00000
   44     -5.74074    2.00000
   45     -5.48645    2.00000
   46     -4.98248    1.99949
   47     -4.48167    1.92621
   48     -3.82929    0.07382
   49     -3.30190    0.00039
   50     -3.12664    0.00007
   51     -2.96813    0.00001
   52     -2.75337    0.00000
   53     -2.69752    0.00000
   54     -2.34234    0.00000
   55     -1.79806    0.00000
   56     -1.44222    0.00000
   57     -0.96417    0.00000
   58     -0.91947    0.00000
   59      0.08794    0.00000
[...]
   83      8.98415    0.00000
   84      9.05327    0.00000
   85      9.31535    0.00000
   86      9.51075    0.00000
   87      9.56201    0.00000
   88      9.67796    0.00000
   89      9.77496    0.00000
   90      9.80438    0.00000
   91      9.90991    0.00000
   92     10.12092    0.00000
   93     10.16073    0.00000
   94     10.25943    0.00000
   95     10.36268    0.00000
   96     10.39812    0.00000
   97     10.50705    0.00000

Forces in eV/Ang:
  0 C    -0.01393   -0.01384   -0.00364
  1 C     0.00861   -0.02969   -0.03075
  2 C     0.02299   -0.00072   -0.00913
  3 C     0.01393   -0.04544   -0.00061
  4 C     0.04160    0.01621   -0.02600
  5 C     0.00531    0.04426   -0.01252
  6 C     0.03521    0.02399    0.03069
  7 C    -0.03201    0.01651    0.03613
  8 C    -0.01584   -0.03693   -0.00764
  9 C     0.02206   -0.02123    0.00777
 10 C    -0.00821    0.01885   -0.05143
 11 C    -0.00601   -0.01795    0.01753
 12 C     0.01707    0.05442   -0.00051
 13 C     0.01274    0.01849   -0.03088
 14 C    -0.00097    0.00119    0.02247
 15 C     0.02989    0.02325    0.02410
 16 C    -0.03717   -0.03904   -0.00632
 17 C     0.03584    0.00126   -0.01120
 18 C    -0.00377    0.02437   -0.00835
 19 C    -0.02597   -0.02774    0.00740
 20 C    -0.00158    0.05864    0.02141
 21 C    -0.02467   -0.04267   -0.01396
 22 C    -0.04648    0.02891   -0.05218
 23 C    -0.00323    0.02517    0.01385