User:   esb@s65n13.grendel.cscaa.dk
Date:   Thu Nov  9 09:19:02 2017
Arch:   x86_64
Pid:    3459
Python: 2.7.13
gpaw:   /home/esb/DFT/gpaw_git/gpaw
_gpaw:  /home/esb/DFT/gpaw_git/build/bin.linux-x86_64-2.7/gpaw-python
ase:    /home/esb/DFT/ase_git/ase (version 3.15.0b1)
numpy:  /comm/swstack/core/python/2.7.13/lib/python2.7/site-packages/numpy (version 1.13.3)
scipy:  /comm/swstack/core/python/2.7.13/lib/python2.7/site-packages/scipy (version 0.19.1)
units:  Angstrom and eV
cores:  16
Extra parameters: {'blacs': True}

Input parameters:
  basis: dzp
  gpts: [80 80 48]
  kpts: [1 1 1]
  maxiter: 99
  mixer: {backend: pulay,
          beta: 0.05,
          method: separate,
          nmaxold: 5,
          weight: 75}
  mode: lcao
  nbands: -50
  occupations: {name: fermi-dirac,
                width: 0.1}
  poissonsolver: {eps: 1e-07,
                  name: fd,
                  nn: 3,
                  relax: GS}
  xc: PBE

System changes: positions, numbers, cell, pbc, initial_charges, initial_magmoms

Initialize ...

C-setup:
  name: Carbon
  id: 4aa54d4b901d75f77cc0ea3eec22967b
  Z: 6
  valence: 4
  core: 2
  charge: 0.0
  file: /home/esb/DFT/gpaw-setups-0.8.7929/C.PBE.gz
  cutoffs: 0.64(comp), 1.14(filt), 1.14(core), lmax=2
  valence states:
                energy  radius
    2s(2.00)   -13.751   0.635
    2p(2.00)    -5.284   0.635
    *s          13.461   0.635
    *p          21.927   0.635
    *d           0.000   0.635

  LCAO basis set for C:
    Name: dzp
    File: /home/esb/DFT/gpaw-setups-0.8.7929/C.dzp.basis.gz
    Number of radial functions: 5
    Number of spherical harmonics: 13
      l=0, rc=5.5469 Bohr: 2s-sz confined orbital
      l=1, rc=6.6719 Bohr: 2p-sz confined orbital
      l=0, rc=3.0312 Bohr: 2s-dz split-valence wave
      l=1, rc=3.7500 Bohr: 2p-dz split-valence wave
      l=2, rc=6.6719 Bohr: d-type Gaussian polarization

Reference energy: -24663.074771

Spin-paired calculation

Occupation numbers:
  Fermi-Dirac: width=0.1000 eV

Convergence criteria:
  Maximum total energy change: 0.0005 eV / electron
  Maximum integral of absolute density change: 0.0001 electrons
  Maximum integral of absolute eigenstate change: 4e-08 eV^2
  Maximum number of iterations: 99

Symmetries present (total): 1

  ( 1  0  0)
  ( 0  1  0)
  ( 0  0  1)

1 k-point (Gamma)
1 k-point in the irreducible part of the Brillouin zone
       k-points in crystal coordinates                weights
   0:     0.00000000    0.00000000    0.00000000          1/1

Wave functions: LCAO
  Diagonalizer: Serial LAPACK
  Atomic Correction: dense with blas
  Datatype: float
  Eigensolver: None

LCAO using direct dense diagonalizer

Densities:
  Coarse grid: 80*80*48 grid
  Fine grid: 160*160*96 grid
  Total Charge: 0.000000

Density mixing:
  Method: separate
  Backend: pulay
  Linear mixing parameter: 0.05
  Mixing with 5 old densities
  Damping of long wave oscillations: 75

Hamiltonian:
  XC and Coulomb potentials evaluated on a 160*160*96 grid
  Using the PBE Exchange-Correlation functional
  Interpolation: tri-quintic (5. degree polynomial)
  Poisson solver: Gauss-Seidel solver with 6 multi-grid levels
    Coarsest grid: 5 x 5 x 3 points
    Stencil: 6*3+1=19 point O(h^6) finite-difference Laplacian
    Max iterations: 1000
    Tolerance: 1.000000e-07

Total number of cores used: 16
Domain decomposition: 2 x 4 x 2

Number of atoms: 24
Number of atomic orbitals: 312
Number of bands in calculation: 98
Bands to converge: occupied states only
Number of valence electrons: 96

... initialized

Initializing position-dependent things.

Density initialized from atomic densities
    /      |             C  C                     |
   /       |           C                          |
  /        |    C  C    C      C                  |
 *         |        C     C     C  CC             |
 |         |  C    C     C    C    C              |
 |         .-C-C------C---------------------------.
 |        /          C C                         /
 |       /     C C                              /

Positions:
   0 C     12.013299    7.072452    5.490225
   1 C     12.066827    8.376397    5.345101
   2 C     10.352994    9.884706    4.753230
   3 C      9.632721    8.694423    4.292235
   4 C      9.381979   10.938170    4.822631
   5 C     11.678592    9.622013    5.209308
   6 C      3.430618    6.367236    5.224453
   7 C      4.721990    4.126056    4.903132
   8 C      4.538842    5.494375    5.231172
   9 C      5.740551    3.387568    4.956784
  10 C      3.535561    7.625926    5.527187
  11 C      3.944378    8.872441    5.859287
  12 C      7.036786    3.769117    5.384702
  13 C      5.881275    6.011394    5.643247
  14 C      7.108986    5.212934    5.743139
  15 C      8.274157    3.142138    5.558936
  16 C      5.317840    8.640212    6.091316
  17 C      6.038032    7.372145    5.963123
  18 C      8.558352    9.994768    7.241098
  19 C      7.309711   10.459733    7.004496
  20 C      8.479059    7.237264    6.527302
  21 C      8.383408    5.815244    6.177413
  22 C      6.676280    9.281223    6.551234
  23 C      7.279238    7.958209    6.384313

Unit cell:
           periodic     x           y           z      points  spacing
  1. axis:    yes   16.000000    0.000000    0.000000    80     0.2000
  2. axis:    yes    0.000000   16.000000    0.000000    80     0.2000
  3. axis:    yes    0.000000    0.000000   10.000000    48     0.2083

Effective grid spacing dv^(1/3) = 0.2027

                     log10-error:    total        iterations:
           time      wfs    density  energy       fermi  poisson
iter:   1  09:19:04          +inf  -171.302082    2      6
iter:   2  09:19:05         -0.85  -170.057400    2      3
iter:   3  09:19:05         -0.90  -168.122406    3      3
iter:   4  09:19:06         -1.01  -167.535601    4      3
iter:   5  09:19:07         -1.08  -166.806238    34     4
iter:   6  09:19:07         -1.33  -166.627850    3      3
iter:   7  09:19:08         -1.45  -166.571520    4      3
iter:   8  09:19:09         -1.66  -166.513665    3      2
iter:   9  09:19:09         -1.81  -166.508531    2      3
iter:  10  09:19:10         -1.96  -166.487658    3      2
iter:  11  09:19:11         -2.10  -166.473005    3      2
iter:  12  09:19:11         -2.35  -166.464748    2      2
iter:  13  09:19:12         -2.45  -166.464264    3      2
iter:  14  09:19:12         -2.63  -166.463991    3      2
iter:  15  09:19:13         -2.90  -166.473430    2      1
iter:  16  09:19:14         -3.00  -166.461108    2      2
iter:  17  09:19:14         -3.25  -166.455655    2      1
iter:  18  09:19:15         -3.36  -166.458925    2      1
iter:  19  09:19:15         -3.46  -166.457669    2      1
iter:  20  09:19:16         -3.52  -166.457267    2      1
iter:  21  09:19:17         -3.59  -166.461921    2      1
iter:  22  09:19:17         -3.78  -166.460042    2      1
iter:  23  09:19:18         -3.87  -166.458872    2      1
iter:  24  09:19:18         -4.12  -166.459742    2      1

Converged after 24 iterations.

Dipole moment: (-0.356752, -0.285978, -0.239639) |e|*Ang

Energy contributions relative to reference atoms: (reference = -24663.074771)

Kinetic:        +94.511425
Potential:     -106.791598
External:        +0.000000
XC:            -156.908253
Entropy (-ST):   -0.179373
Local:           +2.818369
Free energy:   -166.549428
Extrapolated:  -166.459742

Fermi level: -4.90826

 Band  Eigenvalues  Occupancy
    0    -23.32869    2.00000
    1    -22.29784    2.00000
    2    -21.43602    2.00000
    3    -21.22386    2.00000
    4    -20.25284    2.00000
    5    -20.16866    2.00000
    6    -19.44474    2.00000
    7    -19.10444    2.00000
    8    -18.61467    2.00000
    9    -18.32996    2.00000
   10    -16.92771    2.00000
   11    -16.82934    2.00000
   12    -16.47002    2.00000
   13    -15.39150    2.00000
   14    -14.81527    2.00000
   15    -14.64890    2.00000
   16    -14.05602    2.00000
   17    -13.44471    2.00000
   18    -13.16306    2.00000
   19    -12.97284    2.00000
   20    -12.54553    2.00000
   21    -11.97060    2.00000
   22    -11.11080    2.00000
   23    -10.96034    2.00000
   24    -10.58520    2.00000
   25    -10.29547    2.00000
   26     -9.92535    2.00000
   27     -9.88719    2.00000
   28     -9.40733    2.00000
   29     -9.09483    2.00000
   30     -8.43542    2.00000
   31     -8.07342    2.00000
   32     -7.98544    2.00000
   33     -7.82108    2.00000
   34     -7.56317    2.00000
   35     -7.44087    2.00000
   36     -7.34552    2.00000
   37     -7.01052    2.00000
   38     -6.88575    2.00000
   39     -6.76527    2.00000
   40     -6.62476    2.00000
   41     -6.37092    2.00000
   42     -6.22506    2.00000
   43     -6.07564    1.99998
   44     -5.54745    1.99666
   45     -5.43740    1.98998
   46     -5.30535    1.96298
   47     -5.13550    1.81313
   48     -4.67838    0.18244
   49     -4.51914    0.04003
   50     -4.40695    0.01321
   51     -4.15565    0.00108
   52     -4.07686    0.00049
   53     -3.78518    0.00003
   54     -3.49554    0.00000
   55     -3.10213    0.00000
   56     -2.65828    0.00000
   57     -2.54022    0.00000
   58     -1.94715    0.00000
   59     -1.70048    0.00000
[...]
   83      7.80677    0.00000
   84      8.18579    0.00000
   85      8.35006    0.00000
   86      8.36509    0.00000
   87      8.61915    0.00000
   88      8.73539    0.00000
   89      8.95622    0.00000
   90      8.98767    0.00000
   91      9.20708    0.00000
   92      9.34300    0.00000
   93      9.46950    0.00000
   94      9.49192    0.00000
   95      9.59326    0.00000
   96      9.66557    0.00000
   97      9.71467    0.00000

Forces in eV/Ang:
  0 C     0.42790   -0.62044    0.27200
  1 C     1.65491   -0.94256    0.74370
  2 C    -2.99809    2.17032   -0.35961
  3 C     0.51178    2.44000    0.55826
  4 C     0.64580   -2.35648   -0.22773
  5 C    -0.33521   -1.02448   -0.58623
  6 C     0.37846   -0.14150    0.00499
  7 C     0.11456   -0.52427   -0.07457
  8 C    -0.10592    0.18054    0.00131
  9 C    -0.60641    0.05973   -0.07342
 10 C    -0.36871    0.19553   -0.10184
 11 C     0.36242   -0.48686    0.01517
 12 C     1.82361   -0.58400    0.28190
 13 C    -0.32133    0.47360   -0.00838
 14 C     1.51977    0.49152    0.45069
 15 C    -0.91415    0.61642   -0.09663
 16 C     0.16294    0.67616    0.23894
 17 C     0.42395   -0.40506    0.09757
 18 C    -0.54040    2.05421    0.01691
 19 C     0.88962   -1.61293   -0.08016
 20 C    -1.15807   -5.27445   -1.86338
 21 C    -2.09806    4.61163    0.58035
 22 C    -0.28013    0.55823    0.15066
 23 C     0.80955   -0.53648    0.02828

System changes: positions

[...]

Density initialized from wave functions
    /      |             C  C                     |
   /       |           C                          |
  /        |    C  C    C      C                  |
 *         |        C     C     C  CC             |
 |         |  C    C     C    C    C              |
 |         .-C-C------C---------------------------.
 |        /          C C                         /
 |       /     C C                              /

[...]

[...]
   /       |                 C  C                 |
  /        |            C C        C              |
 *         |     C  C   C           C             |
 |         |   C        CC          C             |
 |         .-C-C---C-C----------------------------.
 |        /   C    C                             /
 |       /     C C                              /

[...]

Density initialized from wave functions
   /       |                 C  C                 |
  /        |            C C        C              |
 *         |     C  C   C           C             |
 |         |   C        CC          C             |
 |         .-C-C---C-C----------------------------.
 |        /   C    C                             /
 |       /     C C                              /

[...]

Density initialized from wave functions
   /       |                 C  C  C              |
  /        |            C C        C              |
 *         |     C  C   C           C             |
 |         |   C         C          C             |
 |         .-C-C---C-C--C-------------------------.
 |        /   C    C                             /
 |       /     C C                              /

[...]

Density initialized from wave functions
   /       |                 C  C  C              |
  /        |            C C        C              |
 *         |     C  C   C           C             |
 |         |   C    C    C          C             |
 |         .-C-C---C-C--C-------------------------.
 |        /   C    C                             /
 |       /     C C                              /

[...]

Density initialized from wave functions
   /       |                 C  C  C              |
  /        |            C C        C              |
 *         |     C  C   C           C             |
 |         |   C    C     C         C             |
 |         .-C-C---C-C--C-------------------------.
 |        /   C    C                             /
 |       /     C C                              /

[...]

Density initialized from wave functions
   /       |                 C  C  C              |
  /        |            C C        CC             |
 *         |     C  C   C            C            |
 |         |   C    C     C         C             |
 |         .-C-C---C-C--C-------------------------.
 |        /   C    C                             /
 |       /     C C                              /

[...]

Density initialized from wave functions
   /       |                 C  C  C              |
  /        |            C C        CC             |
 *         |     C  C   C            C            |
 |         |   C    C     C          C            |
 |         .-C-C---C-C--C-------------------------.
 |        /  C     C                             /
 |       /     C C                              /

[...]

Density initialized from wave functions
   /       |                 C  C  C              |
  /        |            C C        CC             |
 *         |     C  C   C            C            |
 |         |   C    C     C          C            |
 |         .-C-C--C--C--C-------------------------.
 |        /  C     C                             /
 |       /     C C                              /

[...]

Density initialized from wave functions
   /       |                 C  C  C              |
  /        |            C C        CC             |
 *         |     C  C   C            C            |
 |         |   C    C     C          C            |
 |         .-C-C--C-C---C-------------------------.
 |        /  C     C                             /
 |       /     C C                              /

[...]

Density initialized from wave functions
   /       |                 C  C  C              |
  /        |            C C        CC             |
 *         |     C  C   C            C            |
 |         | C C    C     C          C            |
 |         .---C--C-C---C-------------------------.
 |        /  C     C                             /
 |       /     C C                              /

[...]

Density initialized from wave functions
   /       |                 C  C  C              |
  /        |            C C        CC             |
 *         |     C  C   C            C            |
 |         | C C    C     C          C            |
 |         .---C--C-C---C-------------------------.
 |        /  C     C                             /
 |       /     C C                              /

[...]

Density initialized from wave functions
   /       |                 C  C  C              |
  /        |              C        C C            |
 *         |     C  C   C            C            |
 |         | C C    C     C          C            |
 |         .---C--C-C---C-------------------------.
 |        /  C     C                             /
 |       /     C C                              /

[...]

Density initialized from wave functions
   /       |                 C  C  C              |
  /        |              C        CC             |
 *         |     C  C   C            C            |
 |         | C C    C     C          C            |
 |         .---C--C-C---C-------------------------.
 |        /  C     C                             /
 |       /     C C                              /

[...]

Density initialized from wave functions
   /       |                 C  C  C              |
  /        |              C        CC             |
 *         |     C  C   C            C            |
 |         | C C    C    C           C            |
 |         .---C--C-C---C-------------------------.
 |        /  C     C                             /
 |       /     C C                              /

[...]

Density initialized from wave functions
   /       |                 C  C  C              |
  /        |              C        C C            |
 *         |     C  C   C            C            |
 |         | C C    C    C           C            |
 |         .---C--C-C---C-------------------------.
 |        /  C    C                              /
 |       /     C C                              /

[...]

Density initialized from wave functions
   /       |                 C  C  C              |
  /        |              C        C C            |
 *         |     C  C   C            C            |
 |         | C C    C   CC           C            |
 |         .---C--C-C---C-------------------------.
 |        /  C    C                              /
 |       /     C C                              /

[...]

Density initialized from wave functions
   /       |                 C  C  C              |
  /        |              C        C C            |
 *         |     C  C   C            C            |
 |         | C C    C   CC           C            |
 |         .---C--C-C---C-------------------------.
 |        /  C    C                              /
 |       /     C C                              /

[...]

Density initialized from wave functions
   /       |                 C  C  CC             |
  /        |              C          C            |
 *         |     C  C   C            C            |
 |         | C C    C   CC           C            |
 |         .---C--C-C---C-------------------------.
 |        /  C    C                              /
 |       /     C C                              /

[...]

Density initialized from wave functions
   /       |                 C  C  CC             |
  /        |              C          C            |
 *         |     C  C   C            C            |
 |         | C C    C   CC           C            |
 |         .---C--C-----C-------------------------.
 |        /  C    C C                            /
 |       /     C C                              /

[...]

Density initialized from wave functions
   /       |                    C  CC             |
  /        |              C  C       C            |
 *         |     C  C   C            C            |
 |         | C C    C   CC           C            |
 |         .---C--C-----C-------------------------.
 |        /  C    C C                            /
 |       /     C C                              /

[...]

Density initialized from wave functions
    /      |                       C              |
   /       |                    C   C             |
  /        |              C  C       C            |
 *         |     C  C   C            C            |
 |         | C C    C   CC           C            |
 |         .---C--C-----C-------------------------.
 |        /  CC   C C                            /
 |       /       C                              /

[...]

Density initialized from wave functions
    /      |                       C              |
   /       |                    C   C             |
  /        |              C  C       C            |
 *         |     C  C   C            C            |
 |         | C C    C   C             C           |
 |         .---C--C-----CC------------------------.
 |        /  CC   C C                            /
 |       /      C                               /

[...]

Density initialized from wave functions
    /      |                       C              |
   /       |                    C   C             |
  /        |              C  C       C            |
 *         |     C  C   C             C           |
 |         | C C    C   C             C           |
 |         .---C--C-----CC------------------------.
 |        /  CC   C C                            /
 |       /      C                               /

[...]

Density initialized from wave functions
    /      |                       C              |
   /       |                    C   C             |
  /        |              C  C       C            |
 *         |   C C  C   C             C           |
 |         | C      C   C              C          |
 |         .---C--C-----CC------------------------.
 |        /  CC   C C                            /
 |       /      C                               /

[...]

Density initialized from wave functions
    /      |                       C              |
   /       |                    C   C             |
  /        |              C  C       C            |
 *         |   C C  C   C             C           |
 |         | C      C   C              C          |
 |         .---C--C------C------------------------.
 |        /  CC   C C   C                        /
 |       /      C                               /

[...]

System changes: positions

Initializing position-dependent things.

Density initialized from wave functions
    /      |                       C              |
   /       |                    C   C             |
  /        |              C  C       C            |
 *         |   C C  C   C             C           |
 |         | C      C   C              C          |
 |         .---C--C------C------------------------.
 |        /  CC   C C   C                        /
 |       /      C                               /

Positions:
   0 C     13.390290    8.157625    5.021558
   1 C     12.785727    9.308245    5.253553
   2 C     11.257447   11.399429    5.647680
   3 C     10.538895   12.633431    5.863358
   4 C      9.743172   11.476613    5.685144
   5 C     12.100749   10.404670    5.464484
   6 C      3.405607    6.092851    5.825830
   7 C      4.051992    3.593928    5.873977
   8 C      4.279040    4.981456    5.774536
   9 C      4.802615    2.545724    5.932772
  10 C      3.773138    7.327846    5.780752
  11 C      4.498051    8.471674    5.718856
  12 C      6.298912    2.848964    5.778984
  13 C      5.737535    5.278391    5.614855
  14 C      6.766871    4.182581    5.605176
  15 C      5.875374    1.570767    5.978541
  16 C      5.807119    8.013350    5.565567
  17 C      6.229993    6.589274    5.507721
  18 C      8.756516   10.570898    5.577663
  19 C      7.979213    9.571891    5.507034
  20 C      8.452988    5.878006    5.390189
  21 C      8.077128    4.656896    5.465523
  22 C      7.250012    8.428908    5.461050
  23 C      7.619345    6.985291    5.401612

Unit cell:
           periodic     x           y           z      points  spacing
  1. axis:    yes   16.000000    0.000000    0.000000    80     0.2000
  2. axis:    yes    0.000000   16.000000    0.000000    80     0.2000
  3. axis:    yes    0.000000    0.000000   10.000000    48     0.2083

Effective grid spacing dv^(1/3) = 0.2027

                     log10-error:    total        iterations:
           time      wfs    density  energy       fermi  poisson
iter:   1  09:57:28          +inf  -178.881294    2      5
iter:   2  09:57:29         -2.80  -178.880571    2      1
iter:   3  09:57:29         -2.90  -178.880427    2      1
iter:   4  09:57:30         -3.12  -178.881225    2      1
iter:   5  09:57:31         -3.33  -178.880470    2      1
iter:   6  09:57:31         -3.53  -178.880403    2      1
iter:   7  09:57:32         -3.63  -178.880503    2      1
iter:   8  09:57:32         -3.83  -178.880552    2      1
iter:   9  09:57:33         -3.93  -178.880359    2      1
iter:  10  09:57:33         -4.10  -178.880474    2      1

Converged after 10 iterations.

Dipole moment: (-0.662581, -0.659432, 0.018716) |e|*Ang

Energy contributions relative to reference atoms: (reference = -24663.074771)

Kinetic:       +109.599298
Potential:     -118.641526
External:        +0.000000
XC:            -172.713555
Entropy (-ST):   -0.154319
Local:           +2.952468
Free energy:   -178.957633
Extrapolated:  -178.880474

Fermi level: -4.62110

 Band  Eigenvalues  Occupancy
    0    -23.72158    2.00000
    1    -23.05819    2.00000
    2    -22.83868    2.00000
    3    -21.47965    2.00000
    4    -21.11760    2.00000
    5    -19.98800    2.00000
    6    -19.71182    2.00000
    7    -19.54732    2.00000
    8    -19.04891    2.00000
    9    -18.51524    2.00000
   10    -18.06766    2.00000
   11    -17.49127    2.00000
   12    -16.97418    2.00000
   13    -16.40666    2.00000
   14    -15.92430    2.00000
   15    -15.20357    2.00000
   16    -14.85894    2.00000
   17    -14.01576    2.00000
   18    -13.52353    2.00000
   19    -13.13584    2.00000
   20    -12.53870    2.00000
   21    -11.77386    2.00000
   22    -11.01977    2.00000
   23    -10.92395    2.00000
   24    -10.84255    2.00000
   25    -10.57338    2.00000
   26    -10.28347    2.00000
   27    -10.22151    2.00000
   28    -10.01382    2.00000
   29     -9.99608    2.00000
   30     -9.89074    2.00000
   31     -9.68611    2.00000
   32     -9.07399    2.00000
   33     -8.77315    2.00000
   34     -8.12506    2.00000
   35     -7.68127    2.00000
   36     -7.61138    2.00000
   37     -7.36767    2.00000
   38     -7.21722    2.00000
   39     -7.17025    2.00000
   40     -7.08724    2.00000
   41     -6.42209    2.00000
   42     -6.26886    2.00000
   43     -5.83892    1.99999
   44     -5.45469    1.99952
   45     -5.39000    1.99908
   46     -5.32501    1.99825
   47     -4.81620    1.75112
   48     -4.42691    0.25087
   49     -3.87458    0.00114
   50     -3.43930    0.00001
   51     -3.28951    0.00000
   52     -3.21627    0.00000
   53     -2.96895    0.00000
   54     -2.37603    0.00000
   55     -1.47365    0.00000
   56     -1.31079    0.00000
   57     -0.76795    0.00000
   58     -0.70433    0.00000
   59      0.00970    0.00000
[...]
   83      8.34841    0.00000
   84      8.39232    0.00000
   85      8.74400    0.00000
   86      8.82417    0.00000
   87      8.82861    0.00000
   88      9.11204    0.00000
   89      9.13514    0.00000
   90      9.18840    0.00000
   91      9.27164    0.00000
   92      9.45795    0.00000
   93      9.48367    0.00000
   94      9.68747    0.00000
   95      9.82535    0.00000
   96      9.86505    0.00000
   97      9.98309    0.00000

Forces in eV/Ang:
  0 C     0.05552   -0.06281    0.00566
  1 C     0.01929    0.06551   -0.00531
  2 C    -0.05241    0.04222    0.00085
  3 C     0.00131   -0.06309   -0.02044
  4 C    -0.00022    0.01146    0.01065
  5 C     0.04747    0.02642   -0.02594
  6 C     0.00835    0.02209   -0.00009
  7 C    -0.02615    0.02499    0.00226
  8 C    -0.00040    0.01647    0.03472
  9 C    -0.01655   -0.00591    0.02682
 10 C     0.02595   -0.00553   -0.00116
 11 C    -0.08831   -0.01634   -0.00990
 12 C     0.00089   -0.06360   -0.01497
 13 C    -0.01031    0.02896   -0.01031
 14 C     0.04420    0.01247    0.01002
 15 C     0.02568   -0.00577   -0.02560
 16 C     0.00764   -0.03668   -0.02781
 17 C    -0.00464    0.03284    0.03559
 18 C     0.02389    0.00379    0.02118
 19 C     0.03123    0.03498    0.00068
 20 C     0.00965   -0.03134   -0.00613
 21 C    -0.02982    0.00289    0.01211
 22 C    -0.02659   -0.00354   -0.00832
 23 C    -0.02951   -0.02448    0.01513