User:   esb@s65n32.grendel.cscaa.dk
Date:   Wed Nov  8 17:12:57 2017
Arch:   x86_64
Pid:    14430
Python: 2.7.13
gpaw:   /home/esb/DFT/gpaw_git/gpaw
_gpaw:  /home/esb/DFT/gpaw_git/build/bin.linux-x86_64-2.7/gpaw-python
ase:    /home/esb/DFT/ase_git/ase (version 3.15.0b1)
numpy:  /comm/swstack/core/python/2.7.13/lib/python2.7/site-packages/numpy (version 1.13.3)
scipy:  /comm/swstack/core/python/2.7.13/lib/python2.7/site-packages/scipy (version 0.19.1)
units:  Angstrom and eV
cores:  16
Extra parameters: {'blacs': True}

Input parameters:
  basis: dzp
  gpts: [80 80 48]
  kpts: [1 1 1]
  maxiter: 99
  mixer: {backend: pulay,
          beta: 0.05,
          method: separate,
          nmaxold: 5,
          weight: 75}
  mode: lcao
  nbands: -50
  occupations: {name: fermi-dirac,
                width: 0.1}
  poissonsolver: {eps: 1e-07,
                  name: fd,
                  nn: 3,
                  relax: GS}
  xc: PBE

System changes: positions, numbers, cell, pbc, initial_charges, initial_magmoms

Initialize ...

C-setup:
  name: Carbon
  id: 4aa54d4b901d75f77cc0ea3eec22967b
  Z: 6
  valence: 4
  core: 2
  charge: 0.0
  file: /home/esb/DFT/gpaw-setups-0.8.7929/C.PBE.gz
  cutoffs: 0.64(comp), 1.14(filt), 1.14(core), lmax=2
  valence states:
                energy  radius
    2s(2.00)   -13.751   0.635
    2p(2.00)    -5.284   0.635
    *s          13.461   0.635
    *p          21.927   0.635
    *d           0.000   0.635

  LCAO basis set for C:
    Name: dzp
    File: /home/esb/DFT/gpaw-setups-0.8.7929/C.dzp.basis.gz
    Number of radial functions: 5
    Number of spherical harmonics: 13
      l=0, rc=5.5469 Bohr: 2s-sz confined orbital
      l=1, rc=6.6719 Bohr: 2p-sz confined orbital
      l=0, rc=3.0312 Bohr: 2s-dz split-valence wave
      l=1, rc=3.7500 Bohr: 2p-dz split-valence wave
      l=2, rc=6.6719 Bohr: d-type Gaussian polarization

Reference energy: -24663.074771

Spin-paired calculation

Occupation numbers:
  Fermi-Dirac: width=0.1000 eV

Convergence criteria:
  Maximum total energy change: 0.0005 eV / electron
  Maximum integral of absolute density change: 0.0001 electrons
  Maximum integral of absolute eigenstate change: 4e-08 eV^2
  Maximum number of iterations: 99

Symmetries present (total): 1

  ( 1  0  0)
  ( 0  1  0)
  ( 0  0  1)

1 k-point (Gamma)
1 k-point in the irreducible part of the Brillouin zone
       k-points in crystal coordinates                weights
   0:     0.00000000    0.00000000    0.00000000          1/1

Wave functions: LCAO
  Diagonalizer: Serial LAPACK
  Atomic Correction: dense with blas
  Datatype: float
  Eigensolver: None

LCAO using direct dense diagonalizer

Densities:
  Coarse grid: 80*80*48 grid
  Fine grid: 160*160*96 grid
  Total Charge: 0.000000

Density mixing:
  Method: separate
  Backend: pulay
  Linear mixing parameter: 0.05
  Mixing with 5 old densities
  Damping of long wave oscillations: 75

Hamiltonian:
  XC and Coulomb potentials evaluated on a 160*160*96 grid
  Using the PBE Exchange-Correlation functional
  Interpolation: tri-quintic (5. degree polynomial)
  Poisson solver: Gauss-Seidel solver with 6 multi-grid levels
    Coarsest grid: 5 x 5 x 3 points
    Stencil: 6*3+1=19 point O(h^6) finite-difference Laplacian
    Max iterations: 1000
    Tolerance: 1.000000e-07

Total number of cores used: 16
Domain decomposition: 2 x 4 x 2

Number of atoms: 24
Number of atomic orbitals: 312
Number of bands in calculation: 98
Bands to converge: occupied states only
Number of valence electrons: 96

... initialized

Initializing position-dependent things.

Density initialized from atomic densities
   /       |    C                                 |
  /        |              C   C   C               |
 *         |     CC    C          CC              |
 |         | C      C                             |
 |         .---------C--C-----------C-------------.
 |        /    C  C       C     C                /
 |       /        C       C C                   /
 |      /            C C                       /

Positions:
   0 C      9.917296    5.317931    3.947701
   1 C      9.520816    3.647699    4.424035
   2 C      6.059016    4.196681    4.682773
   3 C      7.976175    9.619483    5.572758
   4 C      4.809711    8.729801    5.330225
   5 C      6.904215    8.980043    5.435828
   6 C      4.414252    5.590613    4.264871
   7 C      3.023826   11.955746    5.024513
   8 C     11.593640    9.011697    5.452197
   9 C      7.804192    6.305257    4.965145
  10 C      4.199795    9.840125    5.049408
  11 C      9.270143    9.999101    5.652306
  12 C      7.229846    3.792248    4.080531
  13 C      2.940414    7.574916    4.954646
  14 C      5.949814    7.948779    5.267782
  15 C     11.567852    7.825569    5.810332
  16 C      5.482703    5.438984    4.919105
  17 C     12.443307    7.263271    4.580157
  18 C      8.349783    3.141796    4.391366
  19 C     11.099152    9.925749    5.689696
  20 C      8.941237    5.819386    4.811950
  21 C     11.350773    5.512892    4.693819
  22 C      6.426266    6.607469    5.075716
  23 C      3.645243   11.090149    4.538154

Unit cell:
           periodic     x           y           z      points  spacing
  1. axis:    yes   16.000000    0.000000    0.000000    80     0.2000
  2. axis:    yes    0.000000   16.000000    0.000000    80     0.2000
  3. axis:    yes    0.000000    0.000000   10.000000    48     0.2083

Effective grid spacing dv^(1/3) = 0.2027

                     log10-error:    total        iterations:
           time      wfs    density  energy       fermi  poisson
iter:   1  17:12:59          +inf  -161.681219    3      6
iter:   2  17:12:59         -0.83  -158.319689    4      3
iter:   3  17:13:00         -0.89  -155.485666    33     3
iter:   4  17:13:00         -0.90  -154.307529    3      2
iter:   5  17:13:01         -0.96  -153.329829    4      3
iter:   6  17:13:01         -1.04  -152.952432    4      3
iter:   7  17:13:02         -1.12  -152.715397    33     3
iter:   8  17:13:02         -1.18  -152.133306    4      3
iter:   9  17:13:03         -1.46  -152.126792    4      3
iter:  10  17:13:03         -1.58  -152.039591    3      3
iter:  11  17:13:04         -1.79  -152.024313    3      2
iter:  12  17:13:04         -1.87  -151.998434    3      2
iter:  13  17:13:05         -2.06  -151.979034    3      2
iter:  14  17:13:05         -2.16  -151.985464    2      2
iter:  15  17:13:06         -2.22  -151.979970    3      2
iter:  16  17:13:06         -2.41  -151.979567    3      2
iter:  17  17:13:07         -2.74  -151.973007    3      2
iter:  18  17:13:07         -2.85  -151.970548    2      2
iter:  19  17:13:08         -2.96  -151.982668    3      1
iter:  20  17:13:08         -3.19  -151.972029    2      1
iter:  21  17:13:08         -3.31  -151.971967    2      1
iter:  22  17:13:09         -3.38  -151.975573    2      1
iter:  23  17:13:09         -3.47  -151.967796    2      1
iter:  24  17:13:10         -3.64  -151.971350    2      1
iter:  25  17:13:10         -3.75  -151.965900    2      1
iter:  26  17:13:11         -4.06  -151.968466    2      1

Converged after 26 iterations.

Dipole moment: (0.631053, -0.448307, 0.125247) |e|*Ang

Energy contributions relative to reference atoms: (reference = -24663.074771)

Kinetic:       +120.362789
Potential:     -121.338227
External:        +0.000000
XC:            -153.660720
Entropy (-ST):   -0.445410
Local:           +2.890398
Free energy:   -152.191171
Extrapolated:  -151.968466

Fermi level: -4.87053

 Band  Eigenvalues  Occupancy
    0    -22.57074    2.00000
    1    -21.82493    2.00000
    2    -21.69661    2.00000
    3    -20.96641    2.00000
    4    -20.26142    2.00000
    5    -20.02119    2.00000
    6    -19.54126    2.00000
    7    -18.99901    2.00000
    8    -18.47027    2.00000
    9    -18.20213    2.00000
   10    -17.61859    2.00000
   11    -17.10449    2.00000
   12    -16.68733    2.00000
   13    -15.18655    2.00000
   14    -14.62487    2.00000
   15    -14.41494    2.00000
   16    -13.62991    2.00000
   17    -13.52270    2.00000
   18    -13.10148    2.00000
   19    -12.86603    2.00000
   20    -12.37150    2.00000
   21    -12.13191    2.00000
   22    -11.72693    2.00000
   23    -10.92649    2.00000
   24    -10.45555    2.00000
   25     -9.89229    2.00000
   26     -9.61331    2.00000
   27     -9.57456    2.00000
   28     -9.09541    2.00000
   29     -9.02849    2.00000
   30     -8.60787    2.00000
   31     -8.56791    2.00000
   32     -8.28461    2.00000
   33     -8.22500    2.00000
   34     -8.01511    2.00000
   35     -7.69052    2.00000
   36     -7.42743    2.00000
   37     -7.15019    2.00000
   38     -6.83249    2.00000
   39     -6.62778    2.00000
   40     -6.57690    2.00000
   41     -6.14949    1.99999
   42     -5.88703    1.99992
   43     -5.60495    1.99871
   44     -5.44745    1.99377
   45     -5.28919    1.97006
   46     -5.12935    1.86019
   47     -4.92351    1.25884
   48     -4.77367    0.55029
   49     -4.65600    0.20953
   50     -4.62298    0.15518
   51     -4.23374    0.00343
   52     -3.83563    0.00006
   53     -3.68854    0.00001
   54     -3.56406    0.00000
   55     -3.51362    0.00000
   56     -3.29570    0.00000
   57     -2.87812    0.00000
   58     -1.93095    0.00000
   59     -1.52052    0.00000
[...]
   83      7.49035    0.00000
   84      8.11468    0.00000
   85      8.32232    0.00000
   86      8.40586    0.00000
   87      8.66575    0.00000
   88      8.87253    0.00000
   89      9.07261    0.00000
   90      9.14946    0.00000
   91      9.30972    0.00000
   92      9.35623    0.00000
   93      9.56159    0.00000
   94      9.70207    0.00000
   95      9.77003    0.00000
   96      9.83277    0.00000
   97      9.95576    0.00000

Forces in eV/Ang:
  0 C     4.23048   -3.01909    4.91727
  1 C     1.19447    1.97949   -1.30888
  2 C     3.99540   -2.73781   -2.81144
  3 C     6.21096    2.46532    0.61013
  4 C    -4.53990   -0.92976   -0.85387
  5 C    -2.08535   -3.03008   -0.46156
  6 C    -7.18231    1.48602   -2.79021
  7 C    -7.00773   10.02295    4.86881
  8 C    11.22054  -16.53902   -5.86883
  9 C    -2.63047    0.93429    0.70952
 10 C    -1.66588    3.13432   -2.41260
 11 C     3.17209   -0.38304   -0.26903
 12 C    -6.21117    0.28663    3.13336
 13 C     2.63936    0.40808   -0.09991
 14 C     3.53858    1.63541    0.46071
 15 C     5.98587  -12.21450   -3.18883
 16 C     5.70661    1.92470    2.93465
 17 C    -4.29714   -2.55130    4.21094
 18 C     1.83284   -0.17829   -0.91803
 19 C   -21.29063   28.33798    5.28956
 20 C     0.23236    1.05162   -1.86467
 21 C    -1.50962    2.06382   -2.80435
 22 C     0.01018   -0.31672    0.94015
 23 C     8.39852  -13.86329   -2.39447

System changes: positions

[...]

Density initialized from wave functions
   /       |    C                                 |
  /        |              C   C   C               |
 *         |     CC    C          CC              |
 |         | C      C                             |
 |         .---------C--C-----------C-------------.
 |        /    C  C       C     C                /
 |       /        C       C  C                  /
 |      /            C C                       /

[...]

Density initialized from wave functions
   /       |    C                                 |
  /        |               C  C   C               |
 *         |     CC     C         CC              |
 |         | C       C                            |
 |         .---------C--C-----------C-------------.
 |        /    C  C       C     C                /
 |       /        C        C C                  /
 |      /            C C                       /

[...]

Density initialized from wave functions
   /       |    C                                 |
  /        |               C  C  C                |
 *         |     CC     C         CC              |
 |         | C       C                            |
 |         .---------C--C----------C--------------.
 |        /    C  C       C     C                /
 |       /        C        C C                  /
 |      /            C C                       /

[...]

Density initialized from wave functions
   /       |    C                                 |
  /        |               C  C  C                |
 *         |     CC     C         CC              |
 |         | C       C                            |
 |         .---------C--C----------C--------------.
 |        /    C  C       C     C                /
 |       /        C        C C                  /
 |      /            C C                       /

[...]

Density initialized from wave functions
   /       |    C                                 |
  /        |               C  C  C                |
 *         |     CC     C          C              |
 |         | C       C                            |
 |         .---------C--C----------C--------------.
 |        /    C  C       C     C                /
 |       /        C        C C                  /
 |      /            C C                       /

[...]

Density initialized from wave functions
   /       |    C                                 |
  /        |               C  C  C                |
 *         |     CC     C          C              |
 |         |  C      C                            |
 |         .---------C--C----------C--------------.
 |        /    C  C       C     C                /
 |       /        C        C C                  /
 |      /            C  C                      /

[...]

Density initialized from wave functions
   /       |    C                                 |
  /        |               C  C  C                |
 *         |     C      C          C              |
 |         |  C      C                            |
 |         .---------C--C----------C--------------.
 |        /    C  C       C     C                /
 |       /        C        C C                  /
 |      /            C  C                      /

[...]

Density initialized from wave functions
   /       |    C                                 |
  /        |               C  C  C                |
 *         |     C      C          C              |
 |         |  C      C                            |
 |         .---------C--C----------C--------------.
 |        /    C  C       C     C                /
 |       /         C       C C                  /
 |      /            C  C                      /

[...]

Density initialized from wave functions
   /       |    C                                 |
  /        |               C  C  C                |
 *         |     C      C          C              |
 |         |  C  C   C                            |
 |         .---------C--C----------C--------------.
 |        /    C  C        C    C                /
 |       /         C       C C                  /
 |      /            C  C                      /

[...]

Density initialized from wave functions
   /       |    C                                 |
  /        |               C  C  C                |
 *         |     C      C          C              |
 |         |  C  C   C                            |
 |         .---------C--C----------C--------------.
 |        /    C  C        C    C                /
 |       /         C       C C                  /
 |      /            C  C                      /

[...]

Density initialized from wave functions
   /       |    C                                 |
  /        |               C  C  C                |
 *         |     C      C          C              |
 |         |  C  C   C                            |
 |         .---------C--C---------C---------------.
 |        /    C  C        C    C                /
 |       /         C       C C                  /
 |      /            C  C                      /

[...]

Density initialized from wave functions
   /       |    C                                 |
  /        |               C  C  C                |
 *         |     C      C          C              |
 |         |  C  C   C                            |
 |         .---------C--C---------C---------------.
 |        /    C  C        C    C                /
 |       /         C       C C                  /
 |      /            C  C                      /

[...]

Density initialized from wave functions
   /       |    C                                 |
  /        |               C  C  C                |
 *         |     C      C          C              |
 |         |  C  C   C                            |
 |         .---------C--C---------C---------------.
 |        /    C  C        C C  C                /
 |       /         C                            /
 |      /            C  C  C                   /

[...]

Density initialized from wave functions
   /       |    C                                 |
  /        |               C  C  C                |
 *         |     C      C          C              |
 |         |  C  C   C                            |
 |         .---------C--C---------C---------------.
 |        /    C  C        C C  C                /
 |       /         C                            /
 |      /            C  C  C                   /

[...]

Density initialized from wave functions
   /       |    C                                 |
  /        |     C         C  C  C                |
 *         |     C      C          C              |
 |         |  C  C   C             C              |
 |         .---------C--C---------C---------------.
 |        /    C  C        C C  C                /
 |       /         C                            /
 |      /            C  C  C                   /

[...]

Density initialized from wave functions
   /       |    C                                 |
  /        |     C         C  C  C                |
 *         |     C      C          C              |
 |         |     C   C             C              |
 |         .--C------C--C---------C---------------.
 |        /    C  C        C C  C                /
 |       /         C                            /
 |      /           C   C  C                   /

[...]

Density initialized from wave functions
  /        |    CC         C  C  C                |
 *         |     C      C          C              |
 |         |     C   C             C              |
 |         .--C------C--C---------C---------------.
 |        /    C  C        C C  C                /
 |       /         C                            /
 |      /           C   C  C                   /

[...]

Density initialized from wave functions
  /        |    CC         C  C  C                |
 *         |     C      C          C              |
 |         |     C   C              C             |
 |         .--C------C--C---------C---------------.
 |        /    C  C       C  C  C                /
 |       /         C                            /
 |      /           C  C   C                   /

[...]

Density initialized from wave functions
  /        |    CC         C  C  C                |
 *         |     C      C          C              |
 |         |     C   C              C             |
 |         .---C-----C--C---------C---------------.
 |        /    C  C       C  C  C                /
 |       /         CC                           /
 |      /              C   C                   /

[...]

Density initialized from wave functions
  /        |    CC         C  C  C                |
 *         |     C      C          C              |
 |         |     C   C              C             |
 |         .---C-----C--C---------C---------------.
 |        /    C  C       C  C  C                /
 |       /         CC                           /
 |      /              C   C                   /

[...]

Density initialized from wave functions
  /        |    CC         C  C  C                |
 *         |     C      C          C              |
 |         |     C   C              C             |
 |         .---C-----C--C---------C---------------.
 |        /    C  C       C     C                /
 |       /        C C        C                  /
 |      /              C   C                   /

[...]

Density initialized from wave functions
  /        |    CC         C  C  C                |
 *         |     C      C          C              |
 |         |     C   C              C             |
 |         .---C-----C--C---------C---------------.
 |        /    C  C       C  C  C                /
 |       /        C C                           /
 |      /              C   C                   /

[...]

Density initialized from wave functions
  /        |    CC         C  C  C                |
 *         |     C      C          C              |
 |         |     C   C              C             |
 |         .---C-----C--C---------C---------------.
 |        /    C  C       C  C  C                /
 |       /        C                             /
 |      /           C  C   C                   /

[...]

Density initialized from wave functions
  /        |    CC         C  C  C                |
 *         |     C      C          C              |
 |         |     C   C              C             |
 |         .---C-----C--C---------C---------------.
 |        /    C  C       C  C  C                /
 |       /        C                             /
 |      /           C  C   C                   /

[...]

System changes: positions

Initializing position-dependent things.

Density initialized from wave functions
  /        |    CC         C  C  C                |
 *         |     C      C          C              |
 |         |     C   C              C             |
 |         .---C-----C--C---------C---------------.
 |        /    C  C       C  C  C                /
 |       /        C        C                    /
 |      /           C  C                       /

Positions:
   0 C     10.053964    5.024096    4.594678
   1 C      9.517854    3.738106    4.326008
   2 C      6.057393    4.339647    4.479880
   3 C      8.003784    9.682220    5.601273
   4 C      4.525217    8.422104    5.001261
   5 C      6.919584    9.086811    5.388028
   6 C      4.165914    6.088792    4.715044
   7 C      3.024339   12.116787    4.934522
   8 C     11.619408    9.061295    5.507251
   9 C      7.810720    6.411498    4.928154
  10 C      4.084150    9.720568    5.017866
  11 C      9.297471   10.039362    5.734923
  12 C      7.031178    3.541275    4.311930
  13 C      3.714993    7.259537    4.820787
  14 C      5.959432    8.083203    5.120663
  15 C     12.172558    7.949764    5.234839
  16 C      5.485615    5.589369    4.698434
  17 C     11.965801    6.656387    4.918331
  18 C      8.340063    3.252392    4.255274
  19 C     10.548619    9.849206    5.710788
  20 C      8.944525    5.907053    4.803583
  21 C     11.354805    5.574265    4.681726
  22 C      6.431282    6.736244    4.945168
  23 C      3.597534   10.916018    4.993985

Unit cell:
           periodic     x           y           z      points  spacing
  1. axis:    yes   16.000000    0.000000    0.000000    80     0.2000
  2. axis:    yes    0.000000   16.000000    0.000000    80     0.2000
  3. axis:    yes    0.000000    0.000000   10.000000    48     0.2083

Effective grid spacing dv^(1/3) = 0.2027

                     log10-error:    total        iterations:
           time      wfs    density  energy       fermi  poisson
iter:   1  17:20:32          +inf  -181.256603    3      4
iter:   2  17:20:32         -2.64  -181.244234    3      1
iter:   3  17:20:32         -3.07  -181.240267    2      1
iter:   4  17:20:33         -3.26  -181.243832    3      1
iter:   5  17:20:33         -3.17  -181.239963    3      1
iter:   6  17:20:34         -3.40  -181.236993    2      1
iter:   7  17:20:34         -3.12  -181.245352    3      1
iter:   8  17:20:35         -3.11  -181.240471    3      1
iter:   9  17:20:35         -3.60  -181.240728    2      1
iter:  10  17:20:36         -3.97  -181.241697    2      1
iter:  11  17:20:36         -4.09  -181.240245    2      1

Converged after 11 iterations.

Dipole moment: (0.237847, -0.467216, 0.023313) |e|*Ang

Energy contributions relative to reference atoms: (reference = -24663.074771)

Kinetic:       +103.717475
Potential:     -115.480129
External:        +0.000000
XC:            -172.425749
Entropy (-ST):   -0.238783
Local:           +3.067550
Free energy:   -181.359636
Extrapolated:  -181.240245

Fermi level: -4.41824

 Band  Eigenvalues  Occupancy
    0    -22.24320    2.00000
    1    -21.06104    2.00000
    2    -20.67683    2.00000
    3    -20.43409    2.00000
    4    -20.02538    2.00000
    5    -19.86090    2.00000
    6    -19.44658    2.00000
    7    -19.16128    2.00000
    8    -18.76728    2.00000
    9    -18.17538    2.00000
   10    -17.63349    2.00000
   11    -17.41807    2.00000
   12    -17.11370    2.00000
   13    -16.13839    2.00000
   14    -15.70680    2.00000
   15    -15.52899    2.00000
   16    -14.96523    2.00000
   17    -14.19835    2.00000
   18    -13.82270    2.00000
   19    -13.36427    2.00000
   20    -12.99125    2.00000
   21    -12.46102    2.00000
   22    -12.26642    2.00000
   23    -12.13077    2.00000
   24    -11.13185    2.00000
   25    -10.94432    2.00000
   26    -10.22922    2.00000
   27     -9.36447    2.00000
   28     -9.12564    2.00000
   29     -9.10472    2.00000
   30     -8.75358    2.00000
   31     -8.44648    2.00000
   32     -8.32731    2.00000
   33     -8.19510    2.00000
   34     -8.12742    2.00000
   35     -8.06533    2.00000
   36     -7.39505    2.00000
   37     -7.14629    2.00000
   38     -7.03419    2.00000
   39     -6.77088    2.00000
   40     -6.61548    2.00000
   41     -6.33967    2.00000
   42     -6.18960    2.00000
   43     -5.73939    2.00000
   44     -5.64189    1.99999
   45     -5.23054    1.99941
   46     -5.16172    1.99882
   47     -4.54749    1.56915
   48     -4.24619    0.30361
   49     -4.15081    0.12902
   50     -3.15864    0.00001
   51     -2.88338    0.00000
   52     -2.72663    0.00000
   53     -2.48631    0.00000
   54     -1.62893    0.00000
   55     -1.20372    0.00000
   56     -1.13495    0.00000
   57     -0.94999    0.00000
   58     -0.62053    0.00000
   59     -0.51078    0.00000
[...]
   83      8.95513    0.00000
   84      9.01004    0.00000
   85      9.08630    0.00000
   86      9.22525    0.00000
   87      9.37829    0.00000
   88      9.47353    0.00000
   89      9.59147    0.00000
   90      9.70818    0.00000
   91      9.80949    0.00000
   92      9.91782    0.00000
   93      9.99074    0.00000
   94     10.16393    0.00000
   95     10.25291    0.00000
   96     10.25920    0.00000
   97     10.29682    0.00000

Forces in eV/Ang:
  0 C     0.00363    0.00691   -0.00576
  1 C    -0.03350    0.05417    0.04167
  2 C     0.02349    0.01354   -0.01631
  3 C     0.00178    0.00389   -0.01605
  4 C     0.04933   -0.03050    0.06145
  5 C    -0.00041   -0.02767   -0.02828
  6 C     0.04847   -0.01617   -0.07692
  7 C     0.01752    0.04072    0.00905
  8 C     0.03743   -0.05013    0.00843
  9 C    -0.00095    0.00735   -0.01897
 10 C    -0.01108   -0.02827    0.02319
 11 C    -0.01879    0.02129   -0.02615
 12 C     0.04366    0.02068    0.01214
 13 C    -0.00079   -0.02726    0.01366
 14 C     0.03488   -0.03287    0.02354
 15 C    -0.00448    0.04449   -0.00290
 16 C    -0.03215   -0.07381    0.01300
 17 C    -0.00028   -0.02939    0.00793
 18 C    -0.06008    0.00432    0.00135
 19 C     0.04404   -0.04989   -0.02973
 20 C     0.00773   -0.01721   -0.00743
 21 C     0.01553    0.01778    0.02108
 22 C     0.00750    0.00739   -0.02185
 23 C    -0.06024    0.05807    0.00632