User:   esb@s65n12.grendel.cscaa.dk
Date:   Thu Nov  9 11:33:17 2017
Arch:   x86_64
Pid:    21121
Python: 2.7.13
gpaw:   /home/esb/DFT/gpaw_git/gpaw
_gpaw:  /home/esb/DFT/gpaw_git/build/bin.linux-x86_64-2.7/gpaw-python
ase:    /home/esb/DFT/ase_git/ase (version 3.15.0b1)
numpy:  /comm/swstack/core/python/2.7.13/lib/python2.7/site-packages/numpy (version 1.13.3)
scipy:  /comm/swstack/core/python/2.7.13/lib/python2.7/site-packages/scipy (version 0.19.1)
units:  Angstrom and eV
cores:  16
Extra parameters: {'blacs': True}

Input parameters:
  basis: dzp
  gpts: [80 80 48]
  kpts: [1 1 1]
  maxiter: 99
  mixer: {backend: pulay,
          beta: 0.05,
          method: separate,
          nmaxold: 5,
          weight: 75}
  mode: lcao
  nbands: -50
  occupations: {name: fermi-dirac,
                width: 0.1}
  poissonsolver: {eps: 1e-07,
                  name: fd,
                  nn: 3,
                  relax: GS}
  xc: PBE

System changes: positions, numbers, cell, pbc, initial_charges, initial_magmoms

Initialize ...

C-setup:
  name: Carbon
  id: 4aa54d4b901d75f77cc0ea3eec22967b
  Z: 6
  valence: 4
  core: 2
  charge: 0.0
  file: /home/esb/DFT/gpaw-setups-0.8.7929/C.PBE.gz
  cutoffs: 0.64(comp), 1.14(filt), 1.14(core), lmax=2
  valence states:
                energy  radius
    2s(2.00)   -13.751   0.635
    2p(2.00)    -5.284   0.635
    *s          13.461   0.635
    *p          21.927   0.635
    *d           0.000   0.635

  LCAO basis set for C:
    Name: dzp
    File: /home/esb/DFT/gpaw-setups-0.8.7929/C.dzp.basis.gz
    Number of radial functions: 5
    Number of spherical harmonics: 13
      l=0, rc=5.5469 Bohr: 2s-sz confined orbital
      l=1, rc=6.6719 Bohr: 2p-sz confined orbital
      l=0, rc=3.0312 Bohr: 2s-dz split-valence wave
      l=1, rc=3.7500 Bohr: 2p-dz split-valence wave
      l=2, rc=6.6719 Bohr: d-type Gaussian polarization

Reference energy: -24663.074771

Spin-paired calculation

Occupation numbers:
  Fermi-Dirac: width=0.1000 eV

Convergence criteria:
  Maximum total energy change: 0.0005 eV / electron
  Maximum integral of absolute density change: 0.0001 electrons
  Maximum integral of absolute eigenstate change: 4e-08 eV^2
  Maximum number of iterations: 99

Symmetries present (total): 1

  ( 1  0  0)
  ( 0  1  0)
  ( 0  0  1)

1 k-point (Gamma)
1 k-point in the irreducible part of the Brillouin zone
       k-points in crystal coordinates                weights
   0:     0.00000000    0.00000000    0.00000000          1/1

Wave functions: LCAO
  Diagonalizer: Serial LAPACK
  Atomic Correction: dense with blas
  Datatype: float
  Eigensolver: None

LCAO using direct dense diagonalizer

Densities:
  Coarse grid: 80*80*48 grid
  Fine grid: 160*160*96 grid
  Total Charge: 0.000000

Density mixing:
  Method: separate
  Backend: pulay
  Linear mixing parameter: 0.05
  Mixing with 5 old densities
  Damping of long wave oscillations: 75

Hamiltonian:
  XC and Coulomb potentials evaluated on a 160*160*96 grid
  Using the PBE Exchange-Correlation functional
  Interpolation: tri-quintic (5. degree polynomial)
  Poisson solver: Gauss-Seidel solver with 6 multi-grid levels
    Coarsest grid: 5 x 5 x 3 points
    Stencil: 6*3+1=19 point O(h^6) finite-difference Laplacian
    Max iterations: 1000
    Tolerance: 1.000000e-07

Total number of cores used: 16
Domain decomposition: 2 x 4 x 2

Number of atoms: 24
Number of atomic orbitals: 312
Number of bands in calculation: 98
Bands to converge: occupied states only
Number of valence electrons: 96

... initialized

Initializing position-dependent things.

Density initialized from atomic densities
 *        C|C  C          C  C                    |
 |         |      C  C  C  C    C                 |
 |         .---C--C---C-------C-C-----------------.
 |        /   C   C     C   C                    /
 |       /   C      C  C   C C                  /

Positions:
   0 C      4.214690    3.144905    5.337802
   1 C      4.187190    4.473572    5.215507
   2 C      5.161497    6.854795    4.894499
   3 C      4.415156    5.721384    5.084039
   4 C      4.736463    8.283314    4.961586
   5 C      5.892099    9.065230    4.743615
   6 C      1.050936    9.712789    5.163518
   7 C      3.437843    8.730295    5.114046
   8 C      2.293020    9.242548    5.189941
   9 C      7.545008    7.469398    5.484831
  10 C     10.359173    4.563178    4.382357
  11 C      7.252239    6.043942    5.461289
  12 C      8.744317    8.020017    5.153980
  13 C     10.366398    9.405956    4.387809
  14 C      9.626277    3.499931    4.446701
  15 C      7.036266    3.069328    4.960335
  16 C     10.796407    8.178112    4.309688
  17 C      9.878865    7.165717    4.772173
  18 C      9.646979    5.747938    4.760416
  19 C      8.238096    3.703530    4.855152
  20 C      8.269004    5.191823    5.106994
  21 C      7.809452   10.175471    4.986225
  22 C      9.016181    9.454922    4.850008
  23 C      5.843413    3.635617    5.220171

Unit cell:
           periodic     x           y           z      points  spacing
  1. axis:    yes   16.000000    0.000000    0.000000    80     0.2000
  2. axis:    yes    0.000000   16.000000    0.000000    80     0.2000
  3. axis:    yes    0.000000    0.000000   10.000000    48     0.2083

Effective grid spacing dv^(1/3) = 0.2027

                     log10-error:    total        iterations:
           time      wfs    density  energy       fermi  poisson
iter:   1  11:33:18          +inf  -171.890624    3      6
iter:   2  11:33:19         -0.90  -170.809848    3      3
iter:   3  11:33:19         -0.94  -168.982030    3      3
iter:   4  11:33:20         -1.05  -167.998113    34     3
iter:   5  11:33:20         -1.23  -167.782431    34     3
iter:   6  11:33:21         -1.46  -167.686164    4      3
iter:   7  11:33:22         -1.64  -167.690297    3      3
iter:   8  11:33:22         -1.81  -167.668174    3      2
iter:   9  11:33:23         -1.92  -167.645521    3      2
iter:  10  11:33:23         -2.08  -167.628293    3      2
iter:  11  11:33:24         -2.30  -167.625529    3      2
iter:  12  11:33:24         -2.46  -167.628156    3      2
iter:  13  11:33:25         -2.74  -167.622677    3      2
iter:  14  11:33:25         -2.82  -167.618920    2      2
iter:  15  11:33:26         -3.10  -167.619341    2      1
iter:  16  11:33:26         -3.19  -167.622240    2      1
iter:  17  11:33:27         -3.35  -167.619771    2      1
iter:  18  11:33:27         -3.43  -167.614207    2      1
iter:  19  11:33:28         -3.63  -167.619166    2      1
iter:  20  11:33:28         -3.71  -167.620246    2      1
iter:  21  11:33:29         -3.80  -167.618952    2      1
iter:  22  11:33:29         -3.92  -167.622050    2      1
iter:  23  11:33:30         -4.18  -167.619565    2      1

Converged after 23 iterations.

Dipole moment: (-1.651614, -0.065386, -0.015879) |e|*Ang

Energy contributions relative to reference atoms: (reference = -24663.074771)

Kinetic:        +89.471492
Potential:     -100.027386
External:        +0.000000
XC:            -159.796061
Entropy (-ST):   -0.330884
Local:           +2.897831
Free energy:   -167.785007
Extrapolated:  -167.619565

Fermi level: -4.69853

 Band  Eigenvalues  Occupancy
    0    -22.60243    2.00000
    1    -22.01745    2.00000
    2    -21.62028    2.00000
    3    -21.23745    2.00000
    4    -20.06532    2.00000
    5    -19.85458    2.00000
    6    -19.75860    2.00000
    7    -18.94960    2.00000
    8    -18.54245    2.00000
    9    -17.78872    2.00000
   10    -17.20063    2.00000
   11    -17.13674    2.00000
   12    -16.63136    2.00000
   13    -15.96427    2.00000
   14    -15.02823    2.00000
   15    -14.69084    2.00000
   16    -14.47597    2.00000
   17    -13.79333    2.00000
   18    -13.29474    2.00000
   19    -12.65088    2.00000
   20    -12.44884    2.00000
   21    -11.36231    2.00000
   22    -11.22580    2.00000
   23    -10.84625    2.00000
   24    -10.36486    2.00000
   25    -10.26788    2.00000
   26    -10.01832    2.00000
   27     -9.82965    2.00000
   28     -9.60855    2.00000
   29     -9.42073    2.00000
   30     -9.07567    2.00000
   31     -8.59724    2.00000
   32     -8.38085    2.00000
   33     -8.02220    2.00000
   34     -7.86009    2.00000
   35     -7.62415    2.00000
   36     -7.25019    2.00000
   37     -6.69874    2.00000
   38     -6.52938    2.00000
   39     -6.48606    2.00000
   40     -6.31407    2.00000
   41     -6.17113    2.00000
   42     -6.06877    2.00000
   43     -5.99289    2.00000
   44     -5.67861    1.99989
   45     -5.34992    1.99704
   46     -5.08204    1.95772
   47     -4.78364    1.40162
   48     -4.55992    0.40008
   49     -4.48588    0.21310
   50     -4.24057    0.02031
   51     -4.16440    0.00953
   52     -3.89366    0.00064
   53     -3.69283    0.00009
   54     -3.22198    0.00000
   55     -2.87863    0.00000
   56     -2.47902    0.00000
   57     -2.12212    0.00000
   58     -2.07214    0.00000
   59     -1.25089    0.00000
[...]
   83      8.21594    0.00000
   84      8.61982    0.00000
   85      8.64884    0.00000
   86      8.88720    0.00000
   87      9.03260    0.00000
   88      9.06967    0.00000
   89      9.26661    0.00000
   90      9.34882    0.00000
   91      9.51097    0.00000
   92      9.60494    0.00000
   93      9.66689    0.00000
   94      9.91289    0.00000
   95     10.02969    0.00000
   96     10.12188    0.00000
   97     10.14219    0.00000

Forces in eV/Ang:
  0 C     3.53320   -0.33301    0.16461
  1 C     0.74246   -1.54705   -0.10635
  2 C    -3.56881   -3.86622    1.23465
  3 C     1.54903    6.96876   -1.32965
  4 C     1.04428   -0.85098    0.41318
  5 C     3.09566   -0.23472    0.25883
  6 C    -0.49725    0.20737    0.05046
  7 C     2.91263   -1.06801   -0.40931
  8 C    -1.95244    0.81874    0.15432
  9 C    -1.67242   -2.18194   -0.48001
 10 C    -0.50077   -1.04785   -0.13792
 11 C    -0.03461    4.28268    0.11682
 12 C    -0.62757   -0.51434   -0.03821
 13 C     1.40236   -1.12108   -0.35298
 14 C    -0.50740    0.04819    0.35496
 15 C    -2.46629    1.49996    0.21172
 16 C    -0.21365    1.41591    0.04972
 17 C    -0.15441   -1.39387    0.01901
 18 C    -0.48276    1.23569    0.32281
 19 C     2.56456    0.38573   -0.57544
 20 C     0.66753    1.17378   -0.31556
 21 C     0.77118    0.31218   -0.13502
 22 C    -2.79736    0.49594    0.28474
 23 C    -2.73561   -4.63314    0.13739

System changes: positions

[...]

Density initialized from wave functions
 *        C|C  C          C  C                    |
 |         |      C  C  C  C    C                 |
 |         .---C--C---C-------C-C-----------------.
 |        /   C  C      C   C                    /
 |       /   C      C  C   C C                  /

[...]

Density initialized from wave functions
 *        C|C  C          C  C                    |
 |         |      C  C  C  C    C                 |
 |         .---C--C---C-------C-C-----------------.
 |        /   C  C      C   C                    /
 |       /   C      C  C   C C                  /

[...]

Density initialized from wave functions
 *        C|C  C          C  C                    |
 |         |      C  C  C  C    C                 |
 |         .---C--C----C------C-C-----------------.
 |        /   C         C   C                    /
 |       /   C   C  C  C   C C                  /

[...]

Density initialized from wave functions
 *        C|C  C          C  C                    |
 |         |      C   C C  C    C                 |
 |         .---C--C----C------C-C-----------------.
 |        /   C         C   C                    /
 |       /    C  C  C  C   C C                  /

[...]

Density initialized from wave functions
 *        C|C  C          C  C                    |
 |         |      C   C C  C    C                 |
 |         .---C--C----C-----C--C-----------------.
 |        /   C         C   C                    /
 |       /    C  C  C  C   C C                  /

[...]

Density initialized from wave functions
 *        C|C  C          C  C                    |
 |         |      C   C C  C    C                 |
 |         .---C-C-----C-----C--C-----------------.
 |        /   C         C   C                    /
 |       /    C  C  C  C   C C                  /

[...]

Density initialized from wave functions
 *        C|C  C          C C                     |
 |         |      C   C C  C    C                 |
 |         .---C-C-----C-----C--C-----------------.
 |        /   C         C   C                    /
 |       /    C  C  C  C   C C                  /

[...]

Density initialized from wave functions
 *        C| C C          C C                     |
 |         |      C   C C  C    C                 |
 |         .---C-C-----C-----C--C-----------------.
 |        /   C         C   C                    /
 |       /    C  C  C  C   C C                  /

[...]

Density initialized from wave functions
 *        C| C C          C C                     |
 |         |      C   C C  C    C                 |
 |         .---C-C-----C-----C--C-----------------.
 |        /   C         C   C                    /
 |       /    C  C  C  C  C  C                  /

[...]

Density initialized from wave functions
 *        C| C C      C   C C                     |
 |         |      C     C  C    C                 |
 |         .---C-C----C------C--C-----------------.
 |        /   C         C   C                    /
 |       /    C  C  C  C  C  C                  /

[...]

Density initialized from wave functions
 *        C| C  C      C C  C                     |
 |         |       C    C  C    C                 |
 |         .---C-C----C-------C-C-----------------.
 |        /   C         C   C                    /
 |       /    C  C  C  C  C  C                  /

[...]

Density initialized from wave functions
 *        C| C  C     C  C  C                     |
 |         |       C    C  C    C                 |
 |         .---C-C----C-------C-C-----------------.
 |        /   C         C   C                    /
 |       /     C C  C  C  C  C                  /

[...]

Density initialized from wave functions
 *        C| C  C     C  C  C                     |
 |         |       C    C  C    C                 |
 |         .---C-C----C------C--C-----------------.
 |        /   C         C   C                    /
 |       /     C C  C  C  C  C                  /

[...]

Density initialized from wave functions
 *        C| C  C        C  C                     |
 |         |       C  C C  C    C                 |
 |         .---C-C----C------C--C-----------------.
 |        /   C         C   C                    /
 |       /     C C  C  C  C  C                  /

[...]

Density initialized from wave functions
 *        C| C  C        C  C                     |
 |         |       C  C C  C   C                  |
 |         .---C-C----C------C--C-----------------.
 |        /  C          C   C                    /
 |       /     C C  C  C   C C                  /

[...]

Density initialized from wave functions
 *        C| C  C        C  C                     |
 |         |     C C  C C  C   C                  |
 |         .---C------C------C--C-----------------.
 |        /  C          C   C                    /
 |       /     C C  C  C   C C                  /

[...]

Density initialized from wave functions
 *        C|  C C        C CC                     |
 |         |     C C  C C      C                  |
 |         .---C------C------C--C-----------------.
 |        /   C         C   C                    /
 |       /     C C  C   C  C C                  /

[...]

Density initialized from wave functions
 *        C|  C C        C  C                     |
 |         |     C C  C C  C   C                  |
 |         .---C------C------C--C-----------------.
 |        /   C         C   C                    /
 |       /     C C  C   C  C C                  /

[...]

Density initialized from wave functions
 *         C  C C        C  C                     |
 |         |    C  C  C C  C   C                  |
 |         .---C------C------C-C------------------.
 |        /   C         C   C                    /
 |       /     C C  C   C  C C                  /

[...]

Density initialized from wave functions
 *         C  C C        C  C                     |
 |         |    C  C  C C  C   C                  |
 |         .--C-------C------C-C------------------.
 |        /   C         C   C                    /
 |       /     C C  C   C  C C                  /

[...]

Density initialized from wave functions
 *         C  C C        C  C                     |
 |         |    C C   C C  C   C                  |
 |         .--C-------C------C-C------------------.
 |        /   C         C   C                    /
 |       /     C C  C   C  C C                  /

[...]

Density initialized from wave functions
 *         C  C C        C  C                     |
 |         |    C C   CC   C   C                  |
 |         .--C-------C------C-C------------------.
 |        /   C         C   C                    /
 |       /     C C  C   C  C C                  /

[...]

Density initialized from wave functions
 *         C  C C       C  C                      |
 |         |    C C   CC   C   C                  |
 |         .--C-------C------C-C------------------.
 |        /   C          C  C                    /
 |       /     C  C  C  C  C C                  /

[...]

Density initialized from wave functions
  /        C                                      |
 *         |  C C       C  C                      |
 |         |    C C   CC   C   C                  |
 |         .--C-------C------C-C------------------.
 |        /   C          C  C                    /
 |       /     C  C  C  C  C C                  /

[...]

Density initialized from wave functions
  /        C                                      |
 *         |  C C       C  C                      |
 |         |    C C   CC   C   C                  |
 |         .--C-------C------C-C------------------.
 |        /   C          C  C                    /
 |       /     C  C  C  C  C C                  /

[...]

Density initialized from wave functions
  /        |C                                     |
 *         |  C C       C  C                      |
 |         |    C C   CC   C   C                  |
 |         .--C-------C------C-C------------------.
 |        /   C          C  C                    /
 |       /     C  C  C  C  C C                  /

[...]

Density initialized from wave functions
  /        |C                                     |
 *         |  C C       C  C                      |
 |         |    C C   CC  C    C                  |
 |         .--C-------C------C-C------------------.
 |        /   C          C  C                    /
 |       /     C  C  C  C   C C                 /

[...]

Density initialized from wave functions
  /        |C                                     |
 *         |  C C       C  C                      |
 |         |    C C  C C  C    C                  |
 |         .--C-------C------C-C------------------.
 |        /   C          C  C                    /
 |       /     C  C  C  C   C C                 /

[...]

Density initialized from wave functions
  /        |C                                     |
 *         |  C C       C  C                      |
 |         |    C C  C C  C    C                  |
 |         .--C-------C------C-C------------------.
 |        /   C          C  C                    /
 |       /     C  C  C  C   C C                 /

[...]

Density initialized from wave functions
  /        |C                                     |
 *         |   CC       C  C                      |
 |         |    C C  C C  C    C                  |
 |         .--C-------C------C-C------------------.
 |        /   C          C  C                    /
 |       /     C  C  C  C   C C                 /

[...]

Density initialized from wave functions
  /        |C                                     |
 *         |   CC       C  C                      |
 |         |    C C  C C  C    C                  |
 |         .--C-------C------C-C------------------.
 |        /   C          C  C                    /
 |       /      C C  C  C   C C                 /

[...]

Density initialized from wave functions
  /        | C                                    |
 *         |   CC       C  C                      |
 |         |    C C  C C  C   C                   |
 |         .--C-------C------C-C------------------.
 |        /   C          C  C                    /
 |       /      C C  C  C   C C                 /

[...]

System changes: positions

Initializing position-dependent things.

Density initialized from wave functions
  /        |  C                                   |
 *         |   CC       C  C                      |
 |         |   C  C  C C  C   C                   |
 |         .--C-------C------C-C------------------.
 |        /   C          C  C                    /
 |       /      C C  C  C   C C                 /

Positions:
   0 C      5.129739    3.371812    5.265672
   1 C      4.338715    4.359669    5.348239
   2 C      4.090813    6.923636    5.348117
   3 C      4.027546    5.672429    5.382621
   4 C      4.681837    8.204152    5.170791
   5 C      6.127323    8.282401    4.937068
   6 C      2.231162   11.349785    4.934442
   7 C      3.901558    9.331307    5.114312
   8 C      3.086346   10.333661    5.013821
   9 C      7.074804    7.143452    5.071488
  10 C     10.559514    4.701097    4.505456
  11 C      7.194014    5.755146    5.122170
  12 C      8.333838    7.781672    5.223176
  13 C      9.571643    9.519948    4.472426
  14 C     10.076551    3.497357    4.620029
  15 C      7.574520    2.711805    4.981764
  16 C     10.179093    8.395222    4.232429
  17 C      9.608178    7.196459    4.820785
  18 C      9.646184    5.784201    4.743137
  19 C      8.679895    3.557195    4.880507
  20 C      8.354840    5.067099    4.966011
  21 C      6.867061    9.487053    4.715860
  22 C      8.210445    9.285117    4.904634
  23 C      6.313914    2.757077    5.129032

Unit cell:
           periodic     x           y           z      points  spacing
  1. axis:    yes   16.000000    0.000000    0.000000    80     0.2000
  2. axis:    yes    0.000000   16.000000    0.000000    80     0.2000
  3. axis:    yes    0.000000    0.000000   10.000000    48     0.2083

Effective grid spacing dv^(1/3) = 0.2027

                     log10-error:    total        iterations:
           time      wfs    density  energy       fermi  poisson
iter:   1  11:46:57          +inf  -178.287204    2      5
iter:   2  11:46:57         -2.96  -178.286311    2      1
iter:   3  11:46:58         -3.14  -178.285981    2      1
iter:   4  11:46:58         -3.31  -178.286002    2      1
iter:   5  11:46:58         -3.49  -178.285738    2      1
iter:   6  11:46:59         -3.40  -178.286415    2      1
iter:   7  11:46:59         -3.89  -178.286863    2      1
iter:   8  11:47:00         -3.57  -178.286511    2      1
iter:   9  11:47:00         -4.22  -178.286700    2      1

Converged after 9 iterations.

Dipole moment: (0.039119, -0.764580, 0.163232) |e|*Ang

Energy contributions relative to reference atoms: (reference = -24663.074771)

Kinetic:       +108.399408
Potential:     -117.053526
External:        +0.000000
XC:            -172.531898
Entropy (-ST):   -0.211411
Local:           +3.005022
Free energy:   -178.392406
Extrapolated:  -178.286700

Fermi level: -4.56937

 Band  Eigenvalues  Occupancy
    0    -22.91697    2.00000
    1    -21.94021    2.00000
    2    -21.53229    2.00000
    3    -20.71078    2.00000
    4    -20.47393    2.00000
    5    -20.04889    2.00000
    6    -19.71094    2.00000
    7    -19.18797    2.00000
    8    -18.70409    2.00000
    9    -17.91555    2.00000
   10    -17.37818    2.00000
   11    -17.19790    2.00000
   12    -16.79805    2.00000
   13    -16.18382    2.00000
   14    -15.52717    2.00000
   15    -14.92095    2.00000
   16    -14.44564    2.00000
   17    -13.94126    2.00000
   18    -13.72770    2.00000
   19    -13.37350    2.00000
   20    -12.97124    2.00000
   21    -12.33944    2.00000
   22    -11.82356    2.00000
   23    -10.93308    2.00000
   24    -10.87023    2.00000
   25    -10.47923    2.00000
   26    -10.21234    2.00000
   27     -9.90791    2.00000
   28     -9.70576    2.00000
   29     -9.57632    2.00000
   30     -9.34716    2.00000
   31     -9.13185    2.00000
   32     -8.89822    2.00000
   33     -8.12984    2.00000
   34     -8.08922    2.00000
   35     -7.94621    2.00000
   36     -7.73152    2.00000
   37     -7.42162    2.00000
   38     -6.66913    2.00000
   39     -6.44054    2.00000
   40     -6.30002    2.00000
   41     -6.22205    2.00000
   42     -5.89258    2.00000
   43     -5.84025    1.99999
   44     -5.63574    1.99995
   45     -5.18791    1.99589
   46     -5.02580    1.97938
   47     -4.73437    1.67780
   48     -4.39608    0.30044
   49     -4.18179    0.04063
   50     -3.98386    0.00571
   51     -3.63016    0.00017
   52     -3.47901    0.00004
   53     -2.96875    0.00000
   54     -2.83414    0.00000
   55     -2.04952    0.00000
   56     -1.06702    0.00000
   57     -1.00505    0.00000
   58     -0.44894    0.00000
   59     -0.17765    0.00000
[...]
   83      8.62261    0.00000
   84      8.64387    0.00000
   85      8.85097    0.00000
   86      9.08986    0.00000
   87      9.12169    0.00000
   88      9.38743    0.00000
   89      9.41007    0.00000
   90      9.56992    0.00000
   91      9.61369    0.00000
   92      9.72594    0.00000
   93     10.03490    0.00000
   94     10.07088    0.00000
   95     10.08760    0.00000
   96     10.25499    0.00000
   97     10.40785    0.00000

Forces in eV/Ang:
  0 C    -0.06666   -0.02044   -0.00577
  1 C    -0.00987   -0.02755    0.03492
  2 C     0.02326   -0.01093   -0.00347
  3 C    -0.03024   -0.03615   -0.00822
  4 C     0.05172   -0.01076   -0.05202
  5 C     0.02807   -0.00510    0.02692
  6 C     0.06078   -0.01465   -0.00023
  7 C    -0.05235    0.01457   -0.00030
  8 C     0.02448    0.02443    0.00210
  9 C     0.00287    0.00707   -0.00627
 10 C     0.03363   -0.02039   -0.02302
 11 C    -0.03106    0.00161    0.00213
 12 C    -0.03237    0.00528   -0.02393
 13 C    -0.00849    0.01557    0.00248
 14 C    -0.00996   -0.03854   -0.01390
 15 C    -0.03261   -0.00500    0.01490
 16 C     0.01136    0.03898    0.02760
 17 C    -0.01359    0.01373    0.02087
 18 C    -0.00502   -0.01606   -0.00058
 19 C     0.01522   -0.01541   -0.00674
 20 C     0.01759    0.04725   -0.01495
 21 C    -0.01260   -0.06244    0.01140
 22 C     0.00381    0.00213   -0.00779
 23 C     0.02963    0.06755    0.00699