User:   esb@s65n53.grendel.cscaa.dk
Date:   Wed Nov  8 16:14:54 2017
Arch:   x86_64
Pid:    92680
Python: 2.7.13
gpaw:   /home/esb/DFT/gpaw_git/gpaw
_gpaw:  /home/esb/DFT/gpaw_git/build/bin.linux-x86_64-2.7/gpaw-python
ase:    /home/esb/DFT/ase_git/ase (version 3.15.0b1)
numpy:  /comm/swstack/core/python/2.7.13/lib/python2.7/site-packages/numpy (version 1.13.3)
scipy:  /comm/swstack/core/python/2.7.13/lib/python2.7/site-packages/scipy (version 0.19.1)
units:  Angstrom and eV
cores:  16
Extra parameters: {'blacs': True}

Input parameters:
  basis: dzp
  gpts: [80 80 48]
  kpts: [1 1 1]
  maxiter: 99
  mixer: {backend: pulay,
          beta: 0.05,
          method: separate,
          nmaxold: 5,
          weight: 75}
  mode: lcao
  nbands: -50
  occupations: {name: fermi-dirac,
                width: 0.1}
  poissonsolver: {eps: 1e-07,
                  name: fd,
                  nn: 3,
                  relax: GS}
  xc: PBE

System changes: positions, numbers, cell, pbc, initial_charges, initial_magmoms

Initialize ...

C-setup:
  name: Carbon
  id: 4aa54d4b901d75f77cc0ea3eec22967b
  Z: 6
  valence: 4
  core: 2
  charge: 0.0
  file: /home/esb/DFT/gpaw-setups-0.8.7929/C.PBE.gz
  cutoffs: 0.64(comp), 1.14(filt), 1.14(core), lmax=2
  valence states:
                energy  radius
    2s(2.00)   -13.751   0.635
    2p(2.00)    -5.284   0.635
    *s          13.461   0.635
    *p          21.927   0.635
    *d           0.000   0.635

  LCAO basis set for C:
    Name: dzp
    File: /home/esb/DFT/gpaw-setups-0.8.7929/C.dzp.basis.gz
    Number of radial functions: 5
    Number of spherical harmonics: 13
      l=0, rc=5.5469 Bohr: 2s-sz confined orbital
      l=1, rc=6.6719 Bohr: 2p-sz confined orbital
      l=0, rc=3.0312 Bohr: 2s-dz split-valence wave
      l=1, rc=3.7500 Bohr: 2p-dz split-valence wave
      l=2, rc=6.6719 Bohr: d-type Gaussian polarization

Reference energy: -24663.074771

Spin-paired calculation

Occupation numbers:
  Fermi-Dirac: width=0.1000 eV

Convergence criteria:
  Maximum total energy change: 0.0005 eV / electron
  Maximum integral of absolute density change: 0.0001 electrons
  Maximum integral of absolute eigenstate change: 4e-08 eV^2
  Maximum number of iterations: 99

Symmetries present (total): 1

  ( 1  0  0)
  ( 0  1  0)
  ( 0  0  1)

1 k-point (Gamma)
1 k-point in the irreducible part of the Brillouin zone
       k-points in crystal coordinates                weights
   0:     0.00000000    0.00000000    0.00000000          1/1

Wave functions: LCAO
  Diagonalizer: Serial LAPACK
  Atomic Correction: dense with blas
  Datatype: float
  Eigensolver: None

LCAO using direct dense diagonalizer

Densities:
  Coarse grid: 80*80*48 grid
  Fine grid: 160*160*96 grid
  Total Charge: 0.000000

Density mixing:
  Method: separate
  Backend: pulay
  Linear mixing parameter: 0.05
  Mixing with 5 old densities
  Damping of long wave oscillations: 75

Hamiltonian:
  XC and Coulomb potentials evaluated on a 160*160*96 grid
  Using the PBE Exchange-Correlation functional
  Interpolation: tri-quintic (5. degree polynomial)
  Poisson solver: Gauss-Seidel solver with 6 multi-grid levels
    Coarsest grid: 5 x 5 x 3 points
    Stencil: 6*3+1=19 point O(h^6) finite-difference Laplacian
    Max iterations: 1000
    Tolerance: 1.000000e-07

Total number of cores used: 16
Domain decomposition: 2 x 4 x 2

Number of atoms: 24
Number of atomic orbitals: 312
Number of bands in calculation: 98
Bands to converge: occupied states only
Number of valence electrons: 96

... initialized

Initializing position-dependent things.

Density initialized from atomic densities
  /        |           C  C   C                   |
 *         |  C C   C      C   C                  |
 |         | C       C   C  C    C                |
 |         .---C---C-C--------C-------------------.
 |        /    C C   C        C                  /
 |       /             C  C                     /

Positions:
   0 C      5.679253    3.437032    5.309392
   1 C     10.726437    5.232759    5.649679
   2 C      9.804456    8.588518    6.205694
   3 C      8.231229    3.193640    5.166810
   4 C      9.566873    6.171946    5.751354
   5 C      8.187501    6.278243    5.673598
   6 C      7.020895    3.892263    5.339407
   7 C      9.489486    3.319451    5.320676
   8 C     10.382163    7.408801    6.006993
   9 C     11.454974    6.415528    5.935323
  10 C      7.030295    5.348430    5.504043
  11 C     10.697761    3.903902    5.296983
  12 C      5.495636    8.689150    5.818119
  13 C      3.537909    7.528178    5.687544
  14 C      7.622854    9.807095    5.802140
  15 C      6.375922    9.789677    5.940044
  16 C      5.833599    6.079579    5.484298
  17 C      7.778894    7.476540    5.450777
  18 C      4.474201    5.498887    5.461761
  19 C      6.313855    7.469667    5.597377
  20 C      4.071908    8.709465    5.847802
  21 C      4.616837    4.088007    5.355297
  22 C      8.496992    8.748068    5.468537
  23 C      3.259175    6.251518    5.560335

Unit cell:
           periodic     x           y           z      points  spacing
  1. axis:    yes   16.000000    0.000000    0.000000    80     0.2000
  2. axis:    yes    0.000000   16.000000    0.000000    80     0.2000
  3. axis:    yes    0.000000    0.000000   10.000000    48     0.2083

Effective grid spacing dv^(1/3) = 0.2027

                     log10-error:    total        iterations:
           time      wfs    density  energy       fermi  poisson
iter:   1  16:14:56          +inf  -186.624811    2      6
iter:   2  16:14:56         -0.89  -185.631247    3      3
iter:   3  16:14:57         -0.93  -183.576114    35     3
iter:   4  16:14:58         -1.06  -183.088505    4      3
iter:   5  16:14:58         -1.11  -182.371084    33     4
iter:   6  16:14:59         -1.52  -182.310066    3      3
iter:   7  16:15:00         -1.58  -182.213270    3      3
iter:   8  16:15:00         -1.83  -182.213314    3      3
iter:   9  16:15:01         -1.95  -182.180496    3      2
iter:  10  16:15:02         -2.18  -182.165084    3      2
iter:  11  16:15:02         -2.35  -182.156776    3      2
iter:  12  16:15:03         -2.64  -182.155978    3      2
iter:  13  16:15:03         -2.84  -182.147214    2      1
iter:  14  16:15:04         -2.93  -182.159151    2      1
iter:  15  16:15:05         -3.05  -182.162313    2      1
iter:  16  16:15:05         -3.12  -182.157633    2      1
iter:  17  16:15:06         -3.31  -182.163896    2      1
iter:  18  16:15:06         -3.42  -182.155300    2      1
iter:  19  16:15:07         -3.49  -182.152412    2      1
iter:  20  16:15:08         -3.75  -182.155632    2      1
iter:  21  16:15:08         -3.99  -182.154159    2      1
iter:  22  16:15:09         -4.09  -182.152887    2      1

Converged after 22 iterations.

Dipole moment: (0.412359, -0.092962, -0.004128) |e|*Ang

Energy contributions relative to reference atoms: (reference = -24663.074771)

Kinetic:       +133.937732
Potential:     -136.866567
External:        +0.000000
XC:            -182.144201
Entropy (-ST):   -0.182969
Local:           +3.011633
Free energy:   -182.244372
Extrapolated:  -182.152887

Fermi level: -4.51853

 Band  Eigenvalues  Occupancy
    0    -23.73110    2.00000
    1    -22.89107    2.00000
    2    -21.71921    2.00000
    3    -21.16173    2.00000
    4    -20.50036    2.00000
    5    -20.39499    2.00000
    6    -19.70635    2.00000
    7    -19.37081    2.00000
    8    -18.59327    2.00000
    9    -18.24007    2.00000
   10    -17.68041    2.00000
   11    -17.41227    2.00000
   12    -16.44596    2.00000
   13    -16.15917    2.00000
   14    -15.30030    2.00000
   15    -14.63701    2.00000
   16    -14.53223    2.00000
   17    -13.88856    2.00000
   18    -13.39398    2.00000
   19    -12.65039    2.00000
   20    -12.36237    2.00000
   21    -11.97953    2.00000
   22    -11.80304    2.00000
   23    -11.43914    2.00000
   24    -11.11778    2.00000
   25    -11.06755    2.00000
   26    -10.79547    2.00000
   27    -10.40389    2.00000
   28    -10.30250    2.00000
   29     -9.92974    2.00000
   30     -9.69371    2.00000
   31     -9.50350    2.00000
   32     -9.19700    2.00000
   33     -8.78751    2.00000
   34     -8.43273    2.00000
   35     -8.08409    2.00000
   36     -7.52604    2.00000
   37     -7.23659    2.00000
   38     -7.05813    2.00000
   39     -7.04650    2.00000
   40     -6.50133    2.00000
   41     -6.38283    2.00000
   42     -6.20994    2.00000
   43     -5.85372    2.00000
   44     -5.64465    1.99997
   45     -5.13659    1.99587
   46     -4.87156    1.94308
   47     -4.72823    1.78123
   48     -4.33318    0.27093
   49     -3.97765    0.00891
   50     -3.20908    0.00000
   51     -3.09351    0.00000
   52     -2.83764    0.00000
   53     -2.80676    0.00000
   54     -2.60324    0.00000
   55     -1.17412    0.00000
   56     -1.10531    0.00000
   57     -0.94493    0.00000
   58     -0.74808    0.00000
   59      0.28948    0.00000
[...]
   83      8.74112    0.00000
   84      8.84445    0.00000
   85      8.99817    0.00000
   86      9.23348    0.00000
   87      9.41755    0.00000
   88      9.43819    0.00000
   89      9.57049    0.00000
   90      9.67447    0.00000
   91      9.79936    0.00000
   92      9.94329    0.00000
   93     10.00531    0.00000
   94     10.21048    0.00000
   95     10.34070    0.00000
   96     10.38483    0.00000
   97     10.50756    0.00000

Forces in eV/Ang:
  0 C     0.85149   -0.63639   -0.06058
  1 C    -0.06456   -0.80047    0.03835
  2 C    -1.50043    0.83071   -2.19874
  3 C     0.21969    0.01253    0.00932
  4 C     1.18552   -0.13993    0.43308
  5 C     3.12845   -7.52179   -0.35601
  6 C     0.26128   -0.10000    0.10292
  7 C    -0.28522   -0.01271    0.04690
  8 C     0.20189   -1.58239   -0.11190
  9 C     0.36213    0.17059    0.09321
 10 C     0.72547   -2.35397   -0.01168
 11 C     0.14751    0.42203    0.03640
 12 C     0.20173    0.06150    0.00617
 13 C    -0.21366    0.32206    0.18101
 14 C    -0.14764    0.12779   -0.51429
 15 C     0.18366    0.28045   -0.44805
 16 C    -0.05615    1.48388    0.40181
 17 C    -4.93130    8.55557   -0.12007
 18 C    -0.75009   -0.16323    0.02391
 19 C    -1.49579    0.86555   -0.78942
 20 C    -0.03821   -0.27933    0.01100
 21 C    -0.50269    0.49677    0.06660
 22 C     2.10202    0.26438    3.30146
 23 C     0.50242   -0.26452   -0.25179

System changes: positions

[...]

Density initialized from wave functions
  /        |           C  C   C                   |
 *         |  C C   C      C   C                  |
 |         | C       C   C  C    C                |
 |         .---C---C-C--------C-------------------.
 |        /    C C   C        C                  /
 |       /             C  C                     /

[...]

Density initialized from wave functions
  /        |           C  C   C                   |
 *         |  C C   C      C   C                  |
 |         | C       C   C  C    C                |
 |         .---C---C-C--------C-------------------.
 |        /    C C   C        C                  /
 |       /             C  C                     /

[...]

Density initialized from wave functions
  /        |           C  C   C                   |
 *         |  C C   C      C   C                  |
 |         | C       C  CC  C    C                |
 |         .---C---C-C--------C-------------------.
 |        /    C C   C        C                  /
 |       /             C  C                     /

[...]

Density initialized from wave functions
  /        |           C  C   C                   |
 *         |  C C   C      C   C                  |
 |         | C       C  CC  C    C                |
 |         .---C---C-C--------C-------------------.
 |        /    C C   C        C                  /
 |       /             C  C                     /

[...]

Density initialized from wave functions
  /        |           C  C   C                   |
 *         |  C C   C      C   C                  |
 |         | C       C  CC  C    C                |
 |         .---C---C-C---------C------------------.
 |        /    C     C        C                  /
 |       /       C     C  C                     /

[...]

Density initialized from wave functions
  /        |           C  C   C                   |
 *         |  C C   C      C   C                  |
 |         | C       C  CC  C    C                |
 |         .---C---C-C---------C------------------.
 |        /    C     C        C                  /
 |       /       C     C  C                     /

[...]

Density initialized from wave functions
  /        |           C  C   C                   |
 *         |  C C   C      C   C                  |
 |         | C       C  CC  C    C                |
 |         .---C---C-C--------C-------------------.
 |        /    C     C        C                  /
 |       /       C     C  C                     /

[...]

Density initialized from wave functions
  /        |           C  C   C                   |
 *         |  C C   C      C   C                  |
 |         | C       C  CC  C    C                |
 |         .---C---C--C-------C-------------------.
 |        /    C     C        C                  /
 |       /       C     C  C                     /

[...]

Density initialized from wave functions
  /        |           C  C   C                   |
 *         |  C C   C      C   C                  |
 |         | C       C  CC  C    C                |
 |         .---C---C--C-------C-------------------.
 |        /    C     C        C                  /
 |       /       C     C  C                     /

[...]

Density initialized from wave functions
  /        |           C  C   C                   |
 *         |  C C   C   C  C   C                  |
 |         | C       C   C  C    C                |
 |         .---C---C--C-------C-------------------.
 |        /    C     C        C                  /
 |       /       C     C  C                     /

[...]

Density initialized from wave functions
  /        |           C  CC  C                   |
 *         |  C C   C   C      C                  |
 |         | C       C   C  C    C                |
 |         .---C---C--C-------C-------------------.
 |        /    C     C        C                  /
 |       /       C     C  C                     /

[...]

Density initialized from wave functions
  /        |           C  CC  C                   |
 *         |  C C   C   C      C                  |
 |         | C       C   C  C    C                |
 |         .---C---C--C-------C-------------------.
 |        /    C     C        C                  /
 |       /       C     C  C                     /

[...]

System changes: positions

Initializing position-dependent things.

Density initialized from wave functions
  /        |           C  C   C                   |
 *         |  C C   C   C  C   C                  |
 |         | C       C   C  C    C                |
 |         .---C---C--C-------C-------------------.
 |        /    C     C        C                  /
 |       /       C     C  C                     /

Positions:
   0 C      5.719239    3.394375    5.304787
   1 C     10.751869    5.173286    5.652046
   2 C      9.849292    8.569908    5.993873
   3 C      8.266151    3.141546    5.170715
   4 C      9.595986    6.124134    5.700447
   5 C      8.219307    6.239452    5.606659
   6 C      7.060795    3.853173    5.310669
   7 C      9.522184    3.269672    5.326738
   8 C     10.411840    7.369207    5.893011
   9 C     11.475314    6.368178    5.900637
  10 C      7.063964    5.309287    5.454852
  11 C     10.742669    3.827603    5.370791
  12 C      5.425615    8.779843    5.744830
  13 C      3.489799    7.556506    5.699730
  14 C      7.587408    9.898295    5.882006
  15 C      6.327353    9.871258    5.829177
  16 C      5.855777    6.101949    5.493360
  17 C      7.662455    7.582926    5.670186
  18 C      4.500765    5.484807    5.462808
  19 C      6.235542    7.534795    5.623433
  20 C      4.002479    8.759618    5.774928
  21 C      4.666397    4.080688    5.362274
  22 C      8.465383    8.789804    5.831552
  23 C      3.325378    6.268795    5.562309

Unit cell:
           periodic     x           y           z      points  spacing
  1. axis:    yes   16.000000    0.000000    0.000000    80     0.2000
  2. axis:    yes    0.000000   16.000000    0.000000    80     0.2000
  3. axis:    yes    0.000000    0.000000   10.000000    48     0.2083

Effective grid spacing dv^(1/3) = 0.2027

                     log10-error:    total        iterations:
           time      wfs    density  energy       fermi  poisson
iter:   1  16:18:09          +inf  -184.024404    2      4
iter:   2  16:18:10         -2.66  -184.019611    2      1
iter:   3  16:18:11         -2.88  -184.018261    2      1
iter:   4  16:18:11         -3.01  -184.017734    2      1
iter:   5  16:18:12         -3.16  -184.015693    2      1
iter:   6  16:18:12         -3.10  -184.021002    2      1
iter:   7  16:18:13         -2.81  -184.020777    2      1
iter:   8  16:18:14         -2.91  -184.017463    2      1
iter:   9  16:18:14         -3.68  -184.017255    2      1
iter:  10  16:18:15         -3.92  -184.017560    2      1
iter:  11  16:18:15         -3.73  -184.016843    2      1
iter:  12  16:18:16         -3.54  -184.017031    2      1
iter:  13  16:18:17         -3.84  -184.017420    2      1
iter:  14  16:18:17         -4.23  -184.017090    2      1

Converged after 14 iterations.

Dipole moment: (0.295077, -0.021862, 0.031416) |e|*Ang

Energy contributions relative to reference atoms: (reference = -24663.074771)

Kinetic:       +116.004807
Potential:     -123.471747
External:        +0.000000
XC:            -179.394452
Entropy (-ST):   -0.330637
Local:           +3.009620
Free energy:   -184.182409
Extrapolated:  -184.017090

Fermi level: -4.57532

 Band  Eigenvalues  Occupancy
    0    -23.40920    2.00000
    1    -22.50130    2.00000
    2    -21.59005    2.00000
    3    -20.92535    2.00000
    4    -20.42346    2.00000
    5    -20.24257    2.00000
    6    -19.62240    2.00000
    7    -19.38373    2.00000
    8    -18.27976    2.00000
    9    -18.18563    2.00000
   10    -17.67744    2.00000
   11    -17.35083    2.00000
   12    -16.46797    2.00000
   13    -16.10718    2.00000
   14    -15.15799    2.00000
   15    -14.63919    2.00000
   16    -14.44329    2.00000
   17    -13.78318    2.00000
   18    -13.39697    2.00000
   19    -12.57625    2.00000
   20    -12.36801    2.00000
   21    -12.25690    2.00000
   22    -11.79192    2.00000
   23    -11.32001    2.00000
   24    -11.03072    2.00000
   25    -10.74935    2.00000
   26    -10.68238    2.00000
   27    -10.62505    2.00000
   28    -10.33775    2.00000
   29     -9.95754    2.00000
   30     -9.56371    2.00000
   31     -9.42488    2.00000
   32     -9.20222    2.00000
   33     -8.70022    2.00000
   34     -8.42191    2.00000
   35     -7.99749    2.00000
   36     -7.47979    2.00000
   37     -7.17874    2.00000
   38     -7.12907    2.00000
   39     -7.08565    2.00000
   40     -6.37226    2.00000
   41     -6.30516    2.00000
   42     -6.28905    2.00000
   43     -5.82980    1.99999
   44     -5.61352    1.99994
   45     -5.16801    1.99468
   46     -4.74886    1.70022
   47     -4.70209    1.56071
   48     -4.52122    0.73593
   49     -4.02995    0.00852
   50     -3.05582    0.00000
   51     -2.90965    0.00000
   52     -2.78049    0.00000
   53     -2.72952    0.00000
   54     -2.59384    0.00000
   55     -1.38678    0.00000
   56     -1.06228    0.00000
   57     -0.74375    0.00000
   58     -0.29680    0.00000
   59      0.38166    0.00000
[...]
   83      8.76691    0.00000
   84      9.00700    0.00000
   85      9.01689    0.00000
   86      9.19716    0.00000
   87      9.35153    0.00000
   88      9.47062    0.00000
   89      9.67286    0.00000
   90      9.69374    0.00000
   91      9.92718    0.00000
   92     10.02570    0.00000
   93     10.12670    0.00000
   94     10.29438    0.00000
   95     10.37076    0.00000
   96     10.40573    0.00000
   97     10.62628    0.00000

Forces in eV/Ang:
  0 C     0.00573   -0.02806   -0.04901
  1 C     0.03777   -0.00358    0.00910
  2 C     0.04279    0.01900   -0.00343
  3 C     0.01712    0.00342    0.03779
  4 C     0.00228   -0.00200   -0.07274
  5 C    -0.00846   -0.02231   -0.07209
  6 C    -0.03366   -0.04585    0.00752
  7 C    -0.03611    0.02058    0.02980
  8 C     0.03408    0.06674   -0.01752
  9 C    -0.00002   -0.04855   -0.01890
 10 C    -0.01235   -0.06386    0.00646
 11 C    -0.03754    0.04507   -0.01823
 12 C    -0.00329    0.02588   -0.02901
 13 C    -0.01639    0.04133   -0.06615
 14 C    -0.01691    0.02813   -0.01130
 15 C     0.03056    0.01261    0.03080
 16 C    -0.03079   -0.03301    0.06047
 17 C    -0.06423    0.03005    0.04984
 18 C    -0.02316    0.00229    0.03060
 19 C    -0.06028   -0.01752    0.02873
 20 C     0.00608   -0.01475   -0.01266
 21 C    -0.01005    0.03686    0.01025
 22 C     0.01417    0.07004    0.06955
 23 C    -0.02871   -0.04351   -0.00979