User:   esb@s65n12.grendel.cscaa.dk
Date:   Thu Nov  9 11:02:48 2017
Arch:   x86_64
Pid:    20522
Python: 2.7.13
gpaw:   /home/esb/DFT/gpaw_git/gpaw
_gpaw:  /home/esb/DFT/gpaw_git/build/bin.linux-x86_64-2.7/gpaw-python
ase:    /home/esb/DFT/ase_git/ase (version 3.15.0b1)
numpy:  /comm/swstack/core/python/2.7.13/lib/python2.7/site-packages/numpy (version 1.13.3)
scipy:  /comm/swstack/core/python/2.7.13/lib/python2.7/site-packages/scipy (version 0.19.1)
units:  Angstrom and eV
cores:  16
Extra parameters: {'blacs': True}

Input parameters:
  basis: dzp
  gpts: [80 80 48]
  kpts: [1 1 1]
  maxiter: 99
  mixer: {backend: pulay,
          beta: 0.05,
          method: separate,
          nmaxold: 5,
          weight: 75}
  mode: lcao
  nbands: -50
  occupations: {name: fermi-dirac,
                width: 0.1}
  poissonsolver: {eps: 1e-07,
                  name: fd,
                  nn: 3,
                  relax: GS}
  xc: PBE

System changes: positions, numbers, cell, pbc, initial_charges, initial_magmoms

Initialize ...

C-setup:
  name: Carbon
  id: 4aa54d4b901d75f77cc0ea3eec22967b
  Z: 6
  valence: 4
  core: 2
  charge: 0.0
  file: /home/esb/DFT/gpaw-setups-0.8.7929/C.PBE.gz
  cutoffs: 0.64(comp), 1.14(filt), 1.14(core), lmax=2
  valence states:
                energy  radius
    2s(2.00)   -13.751   0.635
    2p(2.00)    -5.284   0.635
    *s          13.461   0.635
    *p          21.927   0.635
    *d           0.000   0.635

  LCAO basis set for C:
    Name: dzp
    File: /home/esb/DFT/gpaw-setups-0.8.7929/C.dzp.basis.gz
    Number of radial functions: 5
    Number of spherical harmonics: 13
      l=0, rc=5.5469 Bohr: 2s-sz confined orbital
      l=1, rc=6.6719 Bohr: 2p-sz confined orbital
      l=0, rc=3.0312 Bohr: 2s-dz split-valence wave
      l=1, rc=3.7500 Bohr: 2p-dz split-valence wave
      l=2, rc=6.6719 Bohr: d-type Gaussian polarization

Reference energy: -24663.074771

Spin-paired calculation

Occupation numbers:
  Fermi-Dirac: width=0.1000 eV

Convergence criteria:
  Maximum total energy change: 0.0005 eV / electron
  Maximum integral of absolute density change: 0.0001 electrons
  Maximum integral of absolute eigenstate change: 4e-08 eV^2
  Maximum number of iterations: 99

Symmetries present (total): 1

  ( 1  0  0)
  ( 0  1  0)
  ( 0  0  1)

1 k-point (Gamma)
1 k-point in the irreducible part of the Brillouin zone
       k-points in crystal coordinates                weights
   0:     0.00000000    0.00000000    0.00000000          1/1

Wave functions: LCAO
  Diagonalizer: Serial LAPACK
  Atomic Correction: dense with blas
  Datatype: float
  Eigensolver: None

LCAO using direct dense diagonalizer

Densities:
  Coarse grid: 80*80*48 grid
  Fine grid: 160*160*96 grid
  Total Charge: 0.000000

Density mixing:
  Method: separate
  Backend: pulay
  Linear mixing parameter: 0.05
  Mixing with 5 old densities
  Damping of long wave oscillations: 75

Hamiltonian:
  XC and Coulomb potentials evaluated on a 160*160*96 grid
  Using the PBE Exchange-Correlation functional
  Interpolation: tri-quintic (5. degree polynomial)
  Poisson solver: Gauss-Seidel solver with 6 multi-grid levels
    Coarsest grid: 5 x 5 x 3 points
    Stencil: 6*3+1=19 point O(h^6) finite-difference Laplacian
    Max iterations: 1000
    Tolerance: 1.000000e-07

Total number of cores used: 16
Domain decomposition: 2 x 4 x 2

Number of atoms: 24
Number of atomic orbitals: 312
Number of bands in calculation: 98
Bands to converge: occupied states only
Number of valence electrons: 96

... initialized

Initializing position-dependent things.

Density initialized from atomic densities
   /       |         C      C C                   |
  /        |       C    C                         |
 *         |     CC     C C   C                   |
 |         |  C    CC           C                 |
 |         .----C----C---C-----C------------------.
 |        /      C         C                     /
 |       /          C  C  C                     /

Positions:
   0 C      7.216732    8.018755    6.230304
   1 C      8.125382    3.193699    4.772432
   2 C      6.878563    3.785099    5.003931
   3 C      9.254909    3.733691    4.872528
   4 C      6.994755    5.226605    5.413361
   5 C      9.547810    5.049461    5.246283
   6 C      8.308609    5.846477    5.541365
   7 C     10.715932    5.805012    5.393940
   8 C      8.658455    9.887700    6.722931
   9 C      9.694564    9.229946    6.455859
  10 C      9.771382    7.891246    6.055786
  11 C      8.419114    7.244377    5.946798
  12 C     10.809828    7.008931    5.740239
  13 C      4.449652   11.113887    5.093536
  14 C      4.339759    9.874896    5.249214
  15 C      6.477199   12.064456    4.740466
  16 C      5.226181   12.240251    4.885411
  17 C      3.552642    7.476312    5.560722
  18 C      5.886144    6.427313    5.407618
  19 C      4.826527    5.435002    5.532305
  20 C      5.882047    7.828701    5.285486
  21 C      4.517900    8.483880    5.369292
  22 C      5.465243    4.101427    5.487940
  23 C      3.665292    6.200130    5.612699

Unit cell:
           periodic     x           y           z      points  spacing
  1. axis:    yes   16.000000    0.000000    0.000000    80     0.2000
  2. axis:    yes    0.000000   16.000000    0.000000    80     0.2000
  3. axis:    yes    0.000000    0.000000   10.000000    48     0.2083

Effective grid spacing dv^(1/3) = 0.2027

                     log10-error:    total        iterations:
           time      wfs    density  energy       fermi  poisson
iter:   1  11:02:50          +inf  -180.417779    2      6
iter:   2  11:02:50         -0.88  -178.441606    4      3
iter:   3  11:02:51         -0.93  -176.148372    3      3
iter:   4  11:02:51         -1.00  -175.287448    4      3
iter:   5  11:02:52         -1.08  -174.941832    34     4
iter:   6  11:02:53         -1.25  -174.541957    4      2
iter:   7  11:02:53         -1.33  -174.229230    4      3
iter:   8  11:02:54         -1.61  -174.166309    2      2
iter:   9  11:02:54         -1.69  -174.174583    3      3
iter:  10  11:02:55         -1.76  -174.126710    3      3
iter:  11  11:02:56         -2.03  -174.113292    3      2
iter:  12  11:02:56         -2.15  -174.100086    3      2
iter:  13  11:02:57         -2.37  -174.094358    3      2
iter:  14  11:02:57         -2.61  -174.090342    3      2
iter:  15  11:02:58         -2.75  -174.090077    2      2
iter:  16  11:02:59         -2.83  -174.092109    2      1
iter:  17  11:02:59         -2.88  -174.091377    2      2
iter:  18  11:03:00         -3.23  -174.107714    3      1
iter:  19  11:03:00         -3.42  -174.095588    2      1
iter:  20  11:03:01         -3.67  -174.089079    2      1
iter:  21  11:03:01         -3.77  -174.089822    2      1
iter:  22  11:03:02         -3.86  -174.088546    2      1
iter:  23  11:03:03         -4.00  -174.087147    2      1

Converged after 23 iterations.

Dipole moment: (-0.188776, -1.520046, -0.187334) |e|*Ang

Energy contributions relative to reference atoms: (reference = -24663.074771)

Kinetic:        +93.313096
Potential:     -102.914098
External:        +0.000000
XC:            -167.304761
Entropy (-ST):   -0.277347
Local:           +2.957289
Free energy:   -174.225821
Extrapolated:  -174.087147

Fermi level: -4.72602

 Band  Eigenvalues  Occupancy
    0    -23.32047    2.00000
    1    -22.26144    2.00000
    2    -21.85422    2.00000
    3    -20.88299    2.00000
    4    -20.28793    2.00000
    5    -20.01279    2.00000
    6    -19.67008    2.00000
    7    -19.15753    2.00000
    8    -18.67202    2.00000
    9    -18.02981    2.00000
   10    -17.53085    2.00000
   11    -17.11006    2.00000
   12    -16.67946    2.00000
   13    -15.79006    2.00000
   14    -15.51433    2.00000
   15    -14.61762    2.00000
   16    -14.45140    2.00000
   17    -13.46562    2.00000
   18    -13.30132    2.00000
   19    -12.82750    2.00000
   20    -12.55489    2.00000
   21    -12.36995    2.00000
   22    -12.06196    2.00000
   23    -11.88557    2.00000
   24    -11.56726    2.00000
   25    -10.88651    2.00000
   26    -10.51092    2.00000
   27    -10.35049    2.00000
   28     -9.75326    2.00000
   29     -9.44461    2.00000
   30     -9.01054    2.00000
   31     -8.67676    2.00000
   32     -8.14705    2.00000
   33     -8.00193    2.00000
   34     -7.85671    2.00000
   35     -7.48753    2.00000
   36     -7.39202    2.00000
   37     -7.03351    2.00000
   38     -6.87163    2.00000
   39     -6.71376    2.00000
   40     -6.61471    2.00000
   41     -6.39129    2.00000
   42     -5.91804    1.99999
   43     -5.79055    1.99995
   44     -5.45038    1.99857
   45     -5.24101    1.98847
   46     -4.97220    1.84285
   47     -4.88470    1.66033
   48     -4.61350    0.49012
   49     -4.26026    0.01880
   50     -3.95780    0.00092
   51     -3.37728    0.00000
   52     -3.30088    0.00000
   53     -3.04405    0.00000
   54     -2.34771    0.00000
   55     -2.31954    0.00000
   56     -1.64221    0.00000
   57     -1.20324    0.00000
   58     -0.85577    0.00000
   59     -0.58559    0.00000
[...]
   83      8.66872    0.00000
   84      8.78228    0.00000
   85      8.88016    0.00000
   86      9.00876    0.00000
   87      9.09941    0.00000
   88      9.25567    0.00000
   89      9.31746    0.00000
   90      9.46702    0.00000
   91      9.59150    0.00000
   92      9.63629    0.00000
   93      9.71380    0.00000
   94      9.77271    0.00000
   95      9.88159    0.00000
   96     10.00982    0.00000
   97     10.03794    0.00000

Forces in eV/Ang:
  0 C    -0.91138    0.78194   -2.63801
  1 C    -2.79678   -0.51362    0.41873
  2 C    -3.63382    2.95898    0.74611
  3 C     0.89848    0.24691    0.12958
  4 C     2.81513    4.45482   -1.29982
  5 C     0.10132   -0.00455   -0.02252
  6 C     0.26717   -0.82027    0.56996
  7 C    -0.07375   -0.52711   -0.23165
  8 C    -2.23490    0.94586    0.15888
  9 C     0.88571   -0.79716   -0.35677
 10 C    -0.56008    0.47805    0.53250
 11 C    -0.28525   -0.65631   -0.31615
 12 C    -0.07173    0.34096    0.08776
 13 C     1.29828    0.98611   -0.20279
 14 C    -0.27684   -2.07793    0.31466
 15 C     3.14204    0.54685   -0.40485
 16 C    -3.32161   -0.41817    0.37870
 17 C    -0.25947   -1.06261   -0.17675
 18 C     1.91906   -4.82205   -0.92369
 19 C     0.38005   -0.48111   -0.47598
 20 C     2.69765   -0.13796    3.75461
 21 C    -0.17425    1.19170    0.11206
 22 C     1.19562   -1.11482   -0.07639
 23 C    -0.96579    0.55175   -0.06456

System changes: positions

[...]

Density initialized from wave functions
   /       |         C      C C                   |
  /        |       C    C                         |
 *         |     CC     C C   C                   |
 |         |  C     C           C                 |
 |         .----C--C-C---C-----C------------------.
 |        /      C         C                     /
 |       /          C  C  C                     /

[...]

Density initialized from wave functions
   /       |         C      C C                   |
  /        |       C    C                         |
[...]
 |         .--C-C--C--C--C--C--C------------------.
 |        /     C   C                            /
 |       /            C   C                     /

[...]

Density initialized from wave functions
   /       |             C                        |
  /        |      C C C   C  C                    |
 *         |      C C   C     C                   |
 |         |  C           C     C                 |
 |         .--C-C--C--C--C--C--C------------------.
 |        /     C   C                            /
 |       /            C   C                     /

[...]

Density initialized from wave functions
   /       |             C                        |
  /        |       CC C   C  C                    |
 *         |      C C   C     C                   |
 |         |  C           C     C                 |
 |         .--C-C--C--C--C--C--C------------------.
 |        /     C   C                            /
 |       /            C   C                     /

[...]

Density initialized from wave functions
   /       |             C                        |
  /        |       CC C   C  C                    |
 *         |      C C   C     C                   |
 |         |  C           C     C                 |
 |         .--C-C--C--C--C--C--C------------------.
 |        /     C   C                            /
 |       /            C   C                     /

[...]

Density initialized from wave functions
   /       |            C                         |
  /        |       CC C   C  C                    |
 *         |      C C   C     C                   |
 |         |  C           C     C                 |
 |         .--C-C--C--C--C-C---C------------------.
 |        /     C   C                            /
 |       /            C   C                     /

[...]

Density initialized from wave functions
   /       |          C C                         |
  /        |       CC     C  C                    |
 *         |      C C   C     C                   |
 |         |  C           C     C                 |
 |         .--C-C--C--C--C-C---C------------------.
 |        /     C   C                            /
 |       /            C   C                     /

[...]

Density initialized from wave functions
   /       |          C C                         |
  /        |       CC     C  C                    |
 *         |      C C   C     C                   |
 |         |  C           C     C                 |
 |         .--C-C--C--C--C-C---C------------------.
 |        /     C   C                            /
 |       /            C   C                     /

[...]

Density initialized from wave functions
   /       |          C C                         |
  /        |      C C     C  C                    |
 *         |      C C   C     C                   |
 |         |  C           C     C                 |
 |         .--C-C--C--C--C-C---C------------------.
 |        /     C   C                            /
 |       /            C   C                     /

[...]

Density initialized from wave functions
   /       |          C C                         |
  /        |      C C     C  C                    |
 *         |      C C   C     C                   |
 |         |  C           C     C                 |
 |         .--C-C--C--C--C--C--C------------------.
 |        /     C   C                            /
 |       /            C   C                     /

[...]

Density initialized from wave functions
   /       |          C C                         |
  /        |      C C     C  C                    |
 *         |      C C   C     C                   |
 |         |  C           C     C                 |
 |         .--C-C--C--C--C--C--C------------------.
 |        /     C   C                            /
 |       /            C   C                     /

[...]

Density initialized from wave functions
   /       |          C C                         |
  /        |      C C     C  C                    |
 *         |      C C   C     C                   |
 |         |  C           C     C                 |
 |         .--C-C--C--C--C-C---C------------------.
 |        /     C   C                            /
 |       /            C   C                     /

[...]

Density initialized from wave functions
   /       |          C C                         |
  /        |       CC     C  C                    |
 *         |      C C   C C   C                   |
 |         |  C                 C                 |
 |         .--C-C--C--C--C-C---C------------------.
 |        /     C   C                            /
 |       /            C   C                     /

[...]

Density initialized from wave functions
   /       |          C C                         |
  /        |       CC     C  C                    |
 *         |      C C   C C   C                   |
 |         |  C                 C                 |
 |         .--C-C--C--C--C-C---C------------------.
 |        /     C   C                            /
 |       /            C   C                     /

[...]

Density initialized from wave functions
   /       |          C C                         |
  /        |       CC     C  C                    |
 *         |      C C   C     C                   |
 |         |  C    C      C     C                 |
 |         .--C-C-----C--C-C---C------------------.
 |        /     C   C                            /
 |       /            C   C                     /

[...]

Density initialized from wave functions
   /       |          C C                         |
  /        |       CC     C  C                    |
 *         |      C C   C C   C                   |
 |         |  C    C            C                 |
 |         .--C-C-----C--C-C---C------------------.
 |        /         C                            /
 |       /      C     C   C                     /

[...]

Density initialized from wave functions
   /       |          C C                         |
  /        |       CC     C   C                   |
 *         |      C C   C C   C                   |
 |         |   C   C            C                 |
 |         .--C-C-----C--C-C---C------------------.
 |        /         C                            /
 |       /      C     C   C                     /

[...]

Density initialized from wave functions
   /       |          CC                          |
  /        |       CC     C   C                   |
 *         |      C C   C C   C                   |
 |         |   C   C            C                 |
 |         .--C-C-----C--C-C---C------------------.
 |        /         C                            /
 |       /      C     C   C                     /

[...]

Density initialized from wave functions
   /       |          CC                          |
  /        |       CC     C   C                   |
 *         |      C C   C C   C                   |
 |         |   C   C            C                 |
 |         .--C-C-----C--C-C---C------------------.
 |        /         C                            /
 |       /      C     C   C                     /

[...]

Density initialized from wave functions
   /       |          CC                          |
  /        |       CC     C   C                   |
 *         |      C C   C C   C                   |
 |         |   C   C            C                 |
 |         .--C-C-----C--C-C---C------------------.
 |        /         C     C                      /
 |       /      C     C                         /

[...]

Density initialized from wave functions
   /       |          CC                          |
  /        |       CC     C   C                   |
 *         |      C C   C C   C                   |
 |         |   C   C            C                 |
 |         .--C-C-----C--C-C---C------------------.
 |        /         C     C                      /
 |       /      C     C                         /

[...]

Density initialized from wave functions
   /       |         C C                          |
  /        |       CC      C  C                   |
 *         |      C  C  C C   C                   |
 |         |   C   C            C                 |
 |         .--C-C-----C--C-C---C------------------.
 |        /         C     C                      /
 |       /      C     C                         /

[...]

Density initialized from wave functions
   /       |         C C                          |
  /        |       CC      C  C                   |
 *         |      C  C  C C   C                   |
 |         |   C   C            C                 |
 |         .--C-C-----C--C-C---C------------------.
 |        /         C    C                       /
 |       /      C     C                         /

[...]

Density initialized from wave functions
    /      |           C                          |
   /       |         C                            |
  /        |       CC      C  C                   |
 *         |      C  C  C C   C                   |
 |         |   C   C            C                 |
 |         .--C-C-----C--C-C---C------------------.
 |        /         C    C                       /
 |       /      C     C                         /

[...]

Density initialized from wave functions
    /      |           C                          |
   /       |         C                            |
  /        |       CC      C  C                   |
 *         |      C  C  C C   C                   |
 |         |   C   C            C                 |
 |         .--C-C-----C--C-C---C------------------.
 |        /         C    C                       /
 |       /      C     C                         /

[...]

Density initialized from wave functions
    /      |           C                          |
   /       |         C                            |
  /        |       CC      C  C                   |
 *         |      C  C  C     C                   |
 |         |   C   C      C     C                 |
 |         .--C-C-----C--C-C---C------------------.
 |        /     C   C    C                       /
 |       /            C                         /

[...]

System changes: positions

Initializing position-dependent things.

Density initialized from wave functions
    /      |           C                          |
   /       |         C                            |
  /        |       CC      C  C                   |
 *         |      C  C  C     C                   |
 |         |   C   C      C     C                 |
 |         .--C-C-----C--C-C---C------------------.
 |        /     C   C    C                       /
 |       /            C                         /

Positions:
   0 C      7.399731    8.064135    5.837731
   1 C      7.897893    3.181706    5.151668
   2 C      6.685093    3.886597    5.254307
   3 C      9.118510    3.547609    5.247764
   4 C      7.107831    5.273103    5.608776
   5 C      9.588374    4.867293    5.512944
   6 C      8.416911    5.751758    5.711701
   7 C     10.730485    5.684018    5.580903
   8 C      8.105910    9.354855    5.885924
   9 C      9.379005    9.296163    5.922367
  10 C      9.805978    7.903114    5.865939
  11 C      8.518346    7.146661    5.857437
  12 C     10.816722    6.959297    5.728235
  13 C      5.042595   10.973283    5.331812
  14 C      4.864351    9.715896    5.410065
  15 C      5.387310   13.577287    5.072740
  16 C      5.197282   12.293013    5.229909
  17 C      3.734597    7.449213    5.242825
  18 C      6.000858    6.128363    5.589831
  19 C      4.824397    5.263566    5.241691
  20 C      6.082598    7.548595    5.673066
  21 C      4.830655    8.339958    5.454608
  22 C      5.275505    3.928638    5.045662
  23 C      3.770415    6.180666    5.137984

Unit cell:
           periodic     x           y           z      points  spacing
  1. axis:    yes   16.000000    0.000000    0.000000    80     0.2000
  2. axis:    yes    0.000000   16.000000    0.000000    80     0.2000
  3. axis:    yes    0.000000    0.000000   10.000000    48     0.2083

Effective grid spacing dv^(1/3) = 0.2027

                     log10-error:    total        iterations:
           time      wfs    density  energy       fermi  poisson
iter:   1  11:19:35          +inf  -181.996198    3      4
iter:   2  11:19:36         -2.47  -181.984715    3      1
iter:   3  11:19:36         -3.04  -181.985541    3      1
iter:   4  11:19:37         -3.24  -181.988000    3      1
iter:   5  11:19:37         -2.98  -181.985008    3      1
iter:   6  11:19:38         -3.24  -181.987982    3      1
iter:   7  11:19:39         -2.98  -181.985613    3      1
iter:   8  11:19:39         -3.15  -181.985648    3      1
iter:   9  11:19:40         -3.70  -181.985367    2      1
iter:  10  11:19:40         -3.99  -181.985308    2      1
iter:  11  11:19:41         -3.79  -181.986095    3      1
iter:  12  11:19:41         -3.49  -181.985706    2      1
iter:  13  11:19:42         -3.66  -181.985524    2      1
iter:  14  11:19:42         -3.86  -181.985537    2      1
iter:  15  11:19:43         -4.08  -181.985470    2      1

Converged after 15 iterations.

Dipole moment: (0.315739, -1.402282, 0.149191) |e|*Ang

Energy contributions relative to reference atoms: (reference = -24663.074771)

Kinetic:       +114.489910
Potential:     -122.428527
External:        +0.000000
XC:            -176.876837
Entropy (-ST):   -0.343348
Local:           +3.001658
Free energy:   -182.157144
Extrapolated:  -181.985470

Fermi level: -5.03614

 Band  Eigenvalues  Occupancy
    0    -23.24048    2.00000
    1    -22.37221    2.00000
    2    -21.93798    2.00000
    3    -21.04537    2.00000
    4    -20.51354    2.00000
    5    -20.07575    2.00000
    6    -19.72694    2.00000
    7    -18.97981    2.00000
    8    -18.52284    2.00000
    9    -18.13345    2.00000
   10    -17.48033    2.00000
   11    -17.41508    2.00000
   12    -16.91883    2.00000
   13    -15.75401    2.00000
   14    -15.34743    2.00000
   15    -14.96647    2.00000
   16    -14.77707    2.00000
   17    -14.29262    2.00000
   18    -13.53790    2.00000
   19    -13.07404    2.00000
   20    -12.63287    2.00000
   21    -12.51702    2.00000
   22    -11.89458    2.00000
   23    -11.53765    2.00000
   24    -11.28378    2.00000
   25    -11.00667    2.00000
   26    -10.92983    2.00000
   27    -10.38215    2.00000
   28     -9.98293    2.00000
   29     -9.64817    2.00000
   30     -9.51972    2.00000
   31     -9.42408    2.00000
   32     -8.82687    2.00000
   33     -8.34240    2.00000
   34     -8.09574    2.00000
   35     -7.88972    2.00000
   36     -7.60137    2.00000
   37     -6.90645    2.00000
   38     -6.82647    2.00000
   39     -6.78702    2.00000
   40     -6.51128    2.00000
   41     -6.47707    2.00000
   42     -6.21228    1.99998
   43     -5.65970    1.99609
   44     -5.48470    1.97771
   45     -5.43764    1.96455
   46     -5.31180    1.88057
   47     -5.10260    1.32058
   48     -5.00799    0.86014
   49     -4.15594    0.00030
   50     -4.01068    0.00007
   51     -3.28324    0.00000
   52     -3.06460    0.00000
   53     -2.79376    0.00000
   54     -2.31489    0.00000
   55     -1.31218    0.00000
   56     -1.25724    0.00000
   57     -1.13868    0.00000
   58     -0.91064    0.00000
   59      0.43448    0.00000
[...]
   83      8.87810    0.00000
   84      8.93541    0.00000
   85      8.99056    0.00000
   86      9.03047    0.00000
   87      9.21974    0.00000
   88      9.34569    0.00000
   89      9.38243    0.00000
   90      9.54921    0.00000
   91      9.67717    0.00000
   92      9.88010    0.00000
   93      9.98129    0.00000
   94     10.16954    0.00000
   95     10.22335    0.00000
   96     10.31043    0.00000
   97     10.41917    0.00000

Forces in eV/Ang:
  0 C     0.03874    0.00989    0.00134
  1 C    -0.01495   -0.02886    0.00608
  2 C     0.00671    0.00396   -0.01201
  3 C     0.02680   -0.00885    0.01483
  4 C     0.01966   -0.01632   -0.00354
  5 C     0.00715   -0.01113    0.01727
  6 C     0.01509    0.00297   -0.03328
  7 C    -0.00198   -0.00516   -0.00186
  8 C    -0.00660   -0.01315   -0.03209
  9 C    -0.01424   -0.04883   -0.00063
 10 C     0.01941    0.04929    0.00942
 11 C    -0.01975    0.00237   -0.00180
 12 C    -0.01777   -0.00803    0.00876
 13 C     0.01227   -0.02213    0.00654
 14 C    -0.01574    0.02287   -0.00542
 15 C    -0.00247    0.06668    0.02738
 16 C    -0.02567   -0.08651   -0.01469
 17 C     0.00901   -0.01315   -0.00835
 18 C    -0.00751    0.00251   -0.00555
 19 C    -0.00452    0.01589   -0.00317
 20 C     0.02873   -0.03108   -0.02275
 21 C    -0.05341    0.05507    0.00430
 22 C     0.01985    0.04910    0.03161
 23 C    -0.02473   -0.02386   -0.00092