User:   esb@s65n74.grendel.cscaa.dk
Date:   Thu Nov  9 11:02:54 2017
Arch:   x86_64
Pid:    100202
Python: 2.7.13
gpaw:   /home/esb/DFT/gpaw_git/gpaw
_gpaw:  /home/esb/DFT/gpaw_git/build/bin.linux-x86_64-2.7/gpaw-python
ase:    /home/esb/DFT/ase_git/ase (version 3.15.0b1)
numpy:  /comm/swstack/core/python/2.7.13/lib/python2.7/site-packages/numpy (version 1.13.3)
scipy:  /comm/swstack/core/python/2.7.13/lib/python2.7/site-packages/scipy (version 0.19.1)
units:  Angstrom and eV
cores:  16
Extra parameters: {'blacs': True}

Input parameters:
  basis: dzp
  gpts: [80 80 48]
  kpts: [1 1 1]
  maxiter: 99
  mixer: {backend: pulay,
          beta: 0.05,
          method: separate,
          nmaxold: 5,
          weight: 75}
  mode: lcao
  nbands: -50
  occupations: {name: fermi-dirac,
                width: 0.1}
  poissonsolver: {eps: 1e-07,
                  name: fd,
                  nn: 3,
                  relax: GS}
  xc: PBE

System changes: positions, numbers, cell, pbc, initial_charges, initial_magmoms

Initialize ...

C-setup:
  name: Carbon
  id: 4aa54d4b901d75f77cc0ea3eec22967b
  Z: 6
  valence: 4
  core: 2
  charge: 0.0
  file: /home/esb/DFT/gpaw-setups-0.8.7929/C.PBE.gz
  cutoffs: 0.64(comp), 1.14(filt), 1.14(core), lmax=2
  valence states:
                energy  radius
    2s(2.00)   -13.751   0.635
    2p(2.00)    -5.284   0.635
    *s          13.461   0.635
    *p          21.927   0.635
    *d           0.000   0.635

  LCAO basis set for C:
    Name: dzp
    File: /home/esb/DFT/gpaw-setups-0.8.7929/C.dzp.basis.gz
    Number of radial functions: 5
    Number of spherical harmonics: 13
      l=0, rc=5.5469 Bohr: 2s-sz confined orbital
      l=1, rc=6.6719 Bohr: 2p-sz confined orbital
      l=0, rc=3.0312 Bohr: 2s-dz split-valence wave
      l=1, rc=3.7500 Bohr: 2p-dz split-valence wave
      l=2, rc=6.6719 Bohr: d-type Gaussian polarization

Reference energy: -24663.074771

Spin-paired calculation

Occupation numbers:
  Fermi-Dirac: width=0.1000 eV

Convergence criteria:
  Maximum total energy change: 0.0005 eV / electron
  Maximum integral of absolute density change: 0.0001 electrons
  Maximum integral of absolute eigenstate change: 4e-08 eV^2
  Maximum number of iterations: 99

Symmetries present (total): 1

  ( 1  0  0)
  ( 0  1  0)
  ( 0  0  1)

1 k-point (Gamma)
1 k-point in the irreducible part of the Brillouin zone
       k-points in crystal coordinates                weights
   0:     0.00000000    0.00000000    0.00000000          1/1

Wave functions: LCAO
  Diagonalizer: Serial LAPACK
  Atomic Correction: dense with blas
  Datatype: float
  Eigensolver: None

LCAO using direct dense diagonalizer

Densities:
  Coarse grid: 80*80*48 grid
  Fine grid: 160*160*96 grid
  Total Charge: 0.000000

Density mixing:
  Method: separate
  Backend: pulay
  Linear mixing parameter: 0.05
  Mixing with 5 old densities
  Damping of long wave oscillations: 75

Hamiltonian:
  XC and Coulomb potentials evaluated on a 160*160*96 grid
  Using the PBE Exchange-Correlation functional
  Interpolation: tri-quintic (5. degree polynomial)
  Poisson solver: Gauss-Seidel solver with 6 multi-grid levels
    Coarsest grid: 5 x 5 x 3 points
    Stencil: 6*3+1=19 point O(h^6) finite-difference Laplacian
    Max iterations: 1000
    Tolerance: 1.000000e-07

Total number of cores used: 16
Domain decomposition: 2 x 4 x 2

Number of atoms: 24
Number of atomic orbitals: 312
Number of bands in calculation: 98
Bands to converge: occupied states only
Number of valence electrons: 96

... initialized

Initializing position-dependent things.

Density initialized from atomic densities
  /        |           C                          |
 *         |   C C  CC    C  C                    |
 |         | C          C  C    C                 |
 |         .---C---C-C---C--C-CCC-----------------.
 |        /    C     C    C                      /
 |       /       C     C                        /

Positions:
   0 C      7.545008    7.469398    5.484831
   1 C      8.744317    8.020017    5.153980
   2 C      6.569842   10.046205    5.224577
   3 C     10.366398    9.405956    4.387809
   4 C     10.796407    8.178112    4.309688
   5 C      9.878865    7.165717    4.772173
   6 C      7.809452   10.175471    4.986225
   7 C      9.016181    9.454922    4.850008
   8 C      5.511718    9.104155    5.462811
   9 C      3.621566    7.860868    5.596709
  10 C      6.146601    7.817678    5.591381
  11 C      4.067361    9.110587    5.528720
  12 C     10.773867    6.150322    5.188351
  13 C      9.367469    4.132462    5.116581
  14 C      9.519101    5.543678    5.209460
  15 C      5.713535    3.344428    5.326439
  16 C      5.816388    6.119330    5.454633
  17 C      8.349364    3.398632    5.171257
  18 C      4.483426    5.475644    5.523497
  19 C      8.198879    6.195252    5.294327
  20 C      7.023028    3.875364    5.245263
  21 C      4.691322    4.070902    5.432875
  22 C      3.243281    6.174632    5.664165
  23 C      7.020796    5.340016    5.298345

Unit cell:
           periodic     x           y           z      points  spacing
  1. axis:    yes   16.000000    0.000000    0.000000    80     0.2000
  2. axis:    yes    0.000000   16.000000    0.000000    80     0.2000
  3. axis:    yes    0.000000    0.000000   10.000000    48     0.2083

Effective grid spacing dv^(1/3) = 0.2027

                     log10-error:    total        iterations:
           time      wfs    density  energy       fermi  poisson
iter:   1  11:02:56          +inf  -179.642674    2      6
iter:   2  11:02:57         -0.89  -178.722687    3      3
iter:   3  11:02:57         -0.92  -176.094862    34     4
iter:   4  11:02:58         -1.18  -175.363535    3      3
iter:   5  11:02:59         -1.28  -175.244157    34     3
iter:   6  11:02:59         -1.48  -175.129262    3      3
iter:   7  11:03:00         -1.61  -175.215778    4      3
iter:   8  11:03:01         -1.75  -175.156182    3      2
iter:   9  11:03:01         -1.91  -175.131842    3      3
iter:  10  11:03:02         -2.10  -175.122660    3      2
iter:  11  11:03:02         -2.22  -175.120143    3      2
iter:  12  11:03:03         -2.59  -175.110680    3      2
iter:  13  11:03:04         -2.65  -175.110121    3      2
iter:  14  11:03:04         -2.95  -175.109050    2      2
iter:  15  11:03:05         -3.10  -175.106397    2      1
iter:  16  11:03:05         -3.16  -175.105304    2      1
iter:  17  11:03:06         -3.30  -175.110247    2      1
iter:  18  11:03:06         -3.38  -175.115165    2      1
iter:  19  11:03:07         -3.51  -175.113538    2      1
iter:  20  11:03:08         -3.72  -175.108883    2      1
iter:  21  11:03:08         -3.78  -175.106654    2      1
iter:  22  11:03:09         -3.87  -175.106958    2      1
iter:  23  11:03:09         -3.96  -175.105971    2      1
iter:  24  11:03:10         -4.10  -175.106902    2      1

Converged after 24 iterations.

Dipole moment: (0.111003, 0.157731, -0.055363) |e|*Ang

Energy contributions relative to reference atoms: (reference = -24663.074771)

Kinetic:       +122.604605
Potential:     -123.669906
External:        +0.000000
XC:            -176.900304
Entropy (-ST):   -0.272070
Local:           +2.994738
Free energy:   -175.242936
Extrapolated:  -175.106902

Fermi level: -4.42532

 Band  Eigenvalues  Occupancy
    0    -24.19193    2.00000
    1    -22.37004    2.00000
    2    -22.10266    2.00000
    3    -21.38451    2.00000
    4    -21.05959    2.00000
    5    -20.58229    2.00000
    6    -19.66361    2.00000
    7    -19.12074    2.00000
    8    -18.90624    2.00000
    9    -18.14453    2.00000
   10    -17.54649    2.00000
   11    -17.36691    2.00000
   12    -16.32198    2.00000
   13    -16.15433    2.00000
   14    -14.96667    2.00000
   15    -14.87298    2.00000
   16    -14.43702    2.00000
   17    -14.12033    2.00000
   18    -13.48923    2.00000
   19    -13.06562    2.00000
   20    -12.53938    2.00000
   21    -12.27744    2.00000
   22    -11.96429    2.00000
   23    -11.63729    2.00000
   24    -11.62155    2.00000
   25    -11.28450    2.00000
   26    -10.27880    2.00000
   27     -9.98873    2.00000
   28     -9.95420    2.00000
   29     -9.77410    2.00000
   30     -9.26233    2.00000
   31     -8.85610    2.00000
   32     -8.54963    2.00000
   33     -8.32336    2.00000
   34     -8.03536    2.00000
   35     -7.54874    2.00000
   36     -7.09011    2.00000
   37     -6.90524    2.00000
   38     -6.73620    2.00000
   39     -6.68240    2.00000
   40     -6.57977    2.00000
   41     -6.50623    2.00000
   42     -6.25137    2.00000
   43     -6.09120    2.00000
   44     -5.99343    2.00000
   45     -5.42903    1.99991
   46     -4.82823    1.96504
   47     -4.50852    1.39355
   48     -4.34783    0.63084
   49     -3.89301    0.00971
   50     -3.65792    0.00093
   51     -3.24506    0.00001
   52     -3.11625    0.00000
   53     -2.92025    0.00000
   54     -2.33749    0.00000
   55     -2.22261    0.00000
   56     -1.59244    0.00000
   57     -1.37687    0.00000
   58     -0.66762    0.00000
   59     -0.00667    0.00000
[...]
   83      8.84642    0.00000
   84      8.89643    0.00000
   85      9.03723    0.00000
   86      9.31971    0.00000
   87      9.41222    0.00000
   88      9.48156    0.00000
   89      9.55832    0.00000
   90      9.65055    0.00000
   91      9.82324    0.00000
   92     10.00635    0.00000
   93     10.01920    0.00000
   94     10.08793    0.00000
   95     10.18061    0.00000
   96     10.27834    0.00000
   97     10.35990    0.00000

Forces in eV/Ang:
  0 C     3.06071    1.55170   -0.10056
  1 C    -0.39689    4.27138   -0.32588
  2 C     0.13010   -0.04585   -0.02035
  3 C     0.33704   -0.24751    0.77545
  4 C     1.11814    3.31860   -2.98853
  5 C     4.43206    4.58863   -0.69212
  6 C     0.00193   -0.03862   -0.05896
  7 C    -0.34329   -0.14123   -0.18947
  8 C     0.90386   -0.77485    0.01508
  9 C    -0.13810   -2.87160    0.02391
 10 C     1.43551   -5.62875   -0.62482
 11 C    -1.01075   -2.76181    0.15495
 12 C     0.35134    0.24753    1.21102
 13 C    -0.53051   -0.40337   -0.36654
 14 C    -0.81139   -3.64492    1.39714
 15 C     0.03186   -0.06930   -0.02501
 16 C    -1.54870    2.05126    0.35978
 17 C    -0.41393   -0.10227   -0.16695
 18 C     0.15049    1.45583   -0.00660
 19 C    -6.29746   -5.72362    1.57242
 20 C    -0.19922   -0.45561   -0.03248
 21 C    -0.34886    0.09217    0.09488
 22 C     0.23710    4.90763   -0.20797
 23 C    -0.16505    0.45530    0.16083

System changes: positions

[...]

Density initialized from wave functions
  /        |           C                          |
 *         |   C C  CC    C  C                    |
 |         | C          C  C    C                 |
 |         .---C---C-C---C--C-CCC-----------------.
 |        /    C     C    C                      /
 |       /       C     C                        /

[...]

Density initialized from wave functions
  /        |           C                          |
 *         |   C C  CC    C  C                    |
 |         | C          C  C    C                 |
 |         .---C---C-C---C--C-CCC-----------------.
 |        /    C     C    C                      /
 |       /       C     C                        /

[...]

Density initialized from wave functions
  /        |           C                          |
 *         |   C C  CC    C  C                    |
 |         | C          C  C    C                 |
 |         .---C---C-C---C--C-CC-C----------------.
 |        /    C     C    C                      /
 |       /       C     C                        /

[...]

Density initialized from wave functions
  /        |           C                          |
 *         |   C C  CC    C  C                    |
 |         | C          C  C    C                 |
 |         .---C---C-C---C--C-CC-C----------------.
 |        /    C     C    C                      /
 |       /       C     C                        /

[...]

Density initialized from wave functions
  /        |           C                          |
 *         |   C C  C     C  C                    |
 |         | C       C  C  C    C                 |
 |         .---C---C-C---C--C-CC-C----------------.
 |        /    C     C    C                      /
 |       /       C     C                        /

[...]

Density initialized from wave functions
  /        |           C                          |
 *         |   C C  C     C  C                    |
 |         | C       C  C  C    C                 |
 |         .---C---C-C---C--C-CC-C----------------.
 |        /    C    C     C                      /
 |       /       C     C                        /

[...]

Density initialized from wave functions
  /        |           C                          |
 *         |   C C  C     C  C                    |
 |         | C       C  C  C    C                 |
 |         .---C---C-C---C-C--CC-C----------------.
 |        /    C    C     C                      /
 |       /       C     C                        /

[...]

Density initialized from wave functions
  /        |           C                          |
 *         |   C C  C     C  C                    |
 |         | C       C  C   C   C                 |
 |         .---C---C-C---C-C--CC-C----------------.
 |        /    C    C     C                      /
 |       /       C     C                        /

[...]

Density initialized from wave functions
  /        |           C                          |
 *         |   C C  C     C  C                    |
 |         | C       C  C   C   C                 |
 |         .---C---C-C--C--C--CC-C----------------.
 |        /    C    C     C                      /
 |       /       C     C                        /

[...]

Density initialized from wave functions
  /        |           C                          |
 *         |   C C  C     C  C                    |
 |         | C       C  C   C   C                 |
 |         .---C---C-C--C--C--CC-C----------------.
 |        /    C C  C     C                      /
 |       /             C                        /

[...]

Density initialized from wave functions
  /        |           C                          |
 *         |   C C  C     C  C                    |
 |         | C       C  C   C   C                 |
 |         .---C---C-C--C--C--CC-C----------------.
 |        /    C C  C     C                      /
 |       /             C                        /

[...]

Density initialized from wave functions
  /        |           C                          |
 *         |   C C  C     C  C                    |
 |         | C       C   C  C   C                 |
 |         .---C---C-C--C--C---C-C----------------.
 |        /    C C  C     C                      /
 |       /             C                        /

[...]

Density initialized from wave functions
 *         |   C C  C  C  C  C                    |
 |         | C       C   C  C   C                 |
 |         .---C---C-C--C--C---C-C----------------.
 |        /    C C  C     C                      /
 |       /             C                        /

[...]

Density initialized from wave functions
 *         |   C C  C  C  C  C                    |
 |         | C       C   C  C   C                 |
 |         .---C---C-C--C--C---C-C----------------.
 |        /    C C  C     C                      /
 |       /             C                        /

[...]

Density initialized from wave functions
 *         |   C C  C  C  C  C                    |
 |         | C       C   C  C  CC                 |
 |         .---C---C-C--C--C---C-C----------------.
 |        /    C C  C     C                      /
 |       /             C                        /

[...]

Density initialized from wave functions
 *         |   C C  C  C  C  C                    |
 |         | C       C   C  C  CC                 |
 |         .---C---C-C--C--C---C-C----------------.
 |        /    C C  C     C                      /
 |       /             C                        /

[...]

Density initialized from wave functions
 *         |   C C  C  C  C  C                    |
 |         | C       C   C  C  CC                 |
 |         .---C---C-C--C--C---C-C----------------.
 |        /    C    C     C                      /
 |       /      C      C                        /

[...]

Density initialized from wave functions
 *         |   C C  C  C  C  C                    |
 |         | C       C   C  C  CC                 |
 |         .---C---C-C--C--C---C-C----------------.
 |        /    C    C     C                      /
 |       /      C      C                        /

[...]

Density initialized from wave functions
 *         |   C C  C  C  C  C                    |
 |         | C       C   C  C  CCC                |
 |         .---C---C-C---C-C---C------------------.
 |        /    C    C     C                      /
 |       /      C      C                        /

[...]

Density initialized from wave functions
 *         |   C C  C  C  C  C                    |
 |         | C       C   C  C  CCC                |
 |         .---C---C-C--C--C---C------------------.
 |        /    C    C     C                      /
 |       /      C      C                        /

[...]

Density initialized from wave functions
 *         |   C C  C  C  C  C                    |
 |         | C       C   C  C  CCC                |
 |         .---C---C-C---C-C---C------------------.
 |        /    C    C     C                      /
 |       /      C      C                        /

[...]

Density initialized from wave functions
 *         |   C C  C  C  C  C                    |
 |         | C       C   C  C  CCC                |
 |         .---C---C-C---C-C---C------------------.
 |        /    CC   C     C                      /
 |       /             C                        /

[...]

Density initialized from wave functions
 *         |   C C  C  C  C  C                    |
 |         | C       C   C  C  CCC                |
 |         .---C---C-C---C-C---C------------------.
 |        /    CC   C     C                      /
 |       /             C                        /

[...]

Density initialized from wave functions
 *         |   C C  C  C  C  C                    |
 |         | C       C   C  C  CCC                |
 |         .---C---C-C--C--C---C------------------.
 |        /    CC   C     C                      /
 |       /             C                        /

[...]

Density initialized from wave functions
 *         |   C C  C  C  C  C                    |
 |         | C       C   C  C  CCC                |
 |         .---C---C-C--C--C---C------------------.
 |        /    CC   C     C                      /
 |       /             C                        /

[...]

Density initialized from wave functions
 *         |   C C  C  C  C  C  C                 |
 |         | C       C   C  C  C C                |
 |         .---C---C-C--C--C---C------------------.
 |        /    CC   C     C                      /
 |       /             C                        /

[...]

Density initialized from wave functions
 *         |   C C  C  C  C  C  C                 |
 |         | C       C   C  C    C                |
 |         .---C---C-C--C--C---C------------------.
 |        /    CC   C     C                      /
 |       /             C                        /

[...]

Density initialized from wave functions
 *         |   C C  C  C  C  C  C                 |
 |         | C       C   C  C    C                |
 |         .---C---C-C--C--C---C------------------.
 |        /    CC   C     C                      /
 |       /             C                        /

[...]

Density initialized from wave functions
 *         |   C C  C  C  C  C  C                 |
 |         | C       C   C  C    C                |
 |         .---C---C-C--C------C------------------.
 |        /    CC   C     CC                     /
 |       /             C                        /

[...]

Density initialized from wave functions
 *         |   C C  C  C  C  C   C                |
 |         | C       C   C  C    C                |
 |         .---C---C-C--C------C------------------.
 |        /    CC   C     CC                     /
 |       /             C                        /

[...]

Density initialized from wave functions
 *         |   C C  C  C  C  C   C                |
 |         | C       C   C  C  C C                |
 |         .---C---C-C--C-----C-------------------.
 |        /    CC   C     CC                     /
 |       /             C                        /

[...]

Density initialized from wave functions
 *         |   C C  C  C  C  C   C                |
 |         | C       C   C  C  C C                |
 |         .---C---C-C--C-----C-------------------.
 |        /    CC   C     CC                     /
 |       /             C                        /

[...]

System changes: positions

Initializing position-dependent things.

Density initialized from wave functions
 *         |   C C  C  C  C  C   C                |
 |         | C       C   C  C    C                |
 |         .---C---C-C--C-----CC------------------.
 |        /    CC   C     CC                     /
 |       /             C                        /

Positions:
   0 C      7.813038    7.306786    5.140267
   1 C      8.917301    8.151583    4.950659
   2 C      6.569235    9.809763    5.185886
   3 C     10.399175    9.946771    4.636948
   4 C     11.048060    8.827978    4.617804
   5 C     10.284975    7.575192    4.804414
   6 C      7.743082   10.209563    4.987110
   7 C      9.020752    9.647616    4.845610
   8 C      5.655173    8.735896    5.357004
   9 C      3.635137    7.687604    5.621603
  10 C      6.342271    7.456986    5.312254
  11 C      4.231077    8.847378    5.537609
  12 C     10.502401    6.227793    4.872294
  13 C      9.227852    3.906791    5.175470
  14 C      9.419030    5.315235    5.066994
  15 C      5.487944    3.334285    5.580376
  16 C      5.784994    6.082988    5.421513
  17 C      8.176236    3.209649    5.332080
  18 C      4.412389    5.559654    5.592941
  19 C      8.104981    5.894490    5.177121
  20 C      6.857864    3.720848    5.428126
  21 C      4.511724    4.129408    5.656085
  22 C      3.277671    6.419539    5.686620
  23 C      6.897319    5.168096    5.343998

Unit cell:
           periodic     x           y           z      points  spacing
  1. axis:    yes   16.000000    0.000000    0.000000    80     0.2000
  2. axis:    yes    0.000000   16.000000    0.000000    80     0.2000
  3. axis:    yes    0.000000    0.000000   10.000000    48     0.2083

Effective grid spacing dv^(1/3) = 0.2027

                     log10-error:    total        iterations:
           time      wfs    density  energy       fermi  poisson
iter:   1  11:11:02          +inf  -185.058622    2      5
iter:   2  11:11:03         -2.86  -185.058314    3      1
iter:   3  11:11:04         -3.09  -185.057897    2      1
iter:   4  11:11:04         -3.16  -185.056485    2      1
iter:   5  11:11:05         -3.31  -185.057251    3      1
iter:   6  11:11:05         -3.19  -185.056747    3      1
iter:   7  11:11:06         -3.39  -185.057142    2      1
iter:   8  11:11:06         -3.19  -185.057936    3      1
iter:   9  11:11:07         -4.01  -185.058014    2      1

Converged after 9 iterations.

Dipole moment: (0.030395, -0.062185, 0.000775) |e|*Ang

Energy contributions relative to reference atoms: (reference = -24663.074771)

Kinetic:       +116.757368
Potential:     -124.867513
External:        +0.000000
XC:            -179.822398
Entropy (-ST):   -0.276795
Local:           +3.012927
Free energy:   -185.196411
Extrapolated:  -185.058014

Fermi level: -4.52768

 Band  Eigenvalues  Occupancy
    0    -23.04998    2.00000
    1    -22.20570    2.00000
    2    -21.65635    2.00000
    3    -21.15685    2.00000
    4    -20.52635    2.00000
    5    -20.38031    2.00000
    6    -19.47886    2.00000
    7    -19.29529    2.00000
    8    -18.55914    2.00000
    9    -18.04293    2.00000
   10    -17.79053    2.00000
   11    -17.07730    2.00000
   12    -16.60085    2.00000
   13    -16.18203    2.00000
   14    -15.18299    2.00000
   15    -15.02464    2.00000
   16    -14.24773    2.00000
   17    -13.81769    2.00000
   18    -13.18544    2.00000
   19    -12.99454    2.00000
   20    -12.51030    2.00000
   21    -12.39040    2.00000
   22    -11.70286    2.00000
   23    -11.45331    2.00000
   24    -11.02687    2.00000
   25    -10.82186    2.00000
   26    -10.72959    2.00000
   27    -10.71055    2.00000
   28    -10.03789    2.00000
   29     -9.88564    2.00000
   30     -9.69761    2.00000
   31     -9.57492    2.00000
   32     -9.18812    2.00000
   33     -8.77904    2.00000
   34     -8.39432    2.00000
   35     -8.18802    2.00000
   36     -7.17716    2.00000
   37     -7.04728    2.00000
   38     -6.91154    2.00000
   39     -6.83346    2.00000
   40     -6.57676    2.00000
   41     -6.51701    2.00000
   42     -6.35580    2.00000
   43     -6.06294    2.00000
   44     -5.94510    2.00000
   45     -5.49761    1.99988
   46     -4.78292    1.85547
   47     -4.65709    1.56965
   48     -4.43675    0.57425
   49     -3.72033    0.00062
   50     -3.56773    0.00014
   51     -3.04018    0.00000
   52     -2.88598    0.00000
   53     -2.69785    0.00000
   54     -2.15705    0.00000
   55     -1.68980    0.00000
   56     -1.35832    0.00000
   57     -1.28604    0.00000
   58     -0.35077    0.00000
   59      0.45652    0.00000
[...]
   83      8.97481    0.00000
   84      9.11078    0.00000
   85      9.21339    0.00000
   86      9.29110    0.00000
   87      9.50140    0.00000
   88      9.51072    0.00000
   89      9.59052    0.00000
   90      9.65123    0.00000
   91      9.73488    0.00000
   92     10.07308    0.00000
   93     10.25820    0.00000
   94     10.36549    0.00000
   95     10.38440    0.00000
   96     10.41242    0.00000
   97     10.58944    0.00000

Forces in eV/Ang:
  0 C    -0.00172   -0.06917    0.00542
  1 C    -0.00099   -0.05420    0.01312
  2 C     0.03265   -0.04384   -0.02202
  3 C    -0.04918   -0.03360    0.00834
  4 C     0.01254    0.02555    0.01025
  5 C     0.01556    0.02665    0.03383
  6 C     0.01731    0.01313    0.03829
  7 C    -0.02258   -0.01454   -0.01024
  8 C    -0.01998    0.02096   -0.03780
  9 C     0.01400   -0.01834   -0.00378
 10 C    -0.00329   -0.00106   -0.03489
 11 C    -0.02253    0.04992   -0.02231
 12 C     0.00029    0.05311   -0.02397
 13 C    -0.05053    0.03635    0.02540
 14 C     0.04575    0.02640   -0.02782
 15 C     0.01421    0.05651    0.05714
 16 C     0.01522   -0.00728    0.04775
 17 C    -0.07291   -0.00843   -0.03568
 18 C    -0.03562   -0.00453    0.03242
 19 C     0.01418   -0.01243    0.01922
 20 C    -0.00186   -0.00228    0.01228
 21 C    -0.01143   -0.01583   -0.07810
 22 C    -0.01658   -0.03701    0.04215
 23 C     0.01554    0.02536    0.02531