User:   esb@s66n63.grendel.cscaa.dk
Date:   Wed Nov  8 14:13:03 2017
Arch:   x86_64
Pid:    109049
Python: 2.7.13
gpaw:   /home/esb/DFT/gpaw_git/gpaw
_gpaw:  /home/esb/DFT/gpaw_git/build/bin.linux-x86_64-2.7/gpaw-python
ase:    /home/esb/DFT/ase_git/ase (version 3.15.0b1)
numpy:  /comm/swstack/core/python/2.7.13/lib/python2.7/site-packages/numpy (version 1.13.3)
scipy:  /comm/swstack/core/python/2.7.13/lib/python2.7/site-packages/scipy (version 0.19.1)
units:  Angstrom and eV
cores:  16
Extra parameters: {'blacs': True}

Input parameters:
  basis: dzp
  gpts: [80 80 48]
  kpts: [1 1 1]
  maxiter: 99
  mixer: {backend: pulay,
          beta: 0.05,
          method: separate,
          nmaxold: 5,
          weight: 75}
  mode: lcao
  nbands: -50
  occupations: {name: fermi-dirac,
                width: 0.1}
  poissonsolver: {eps: 1e-07,
                  name: fd,
                  nn: 3,
                  relax: GS}
  xc: PBE

System changes: positions, numbers, cell, pbc, initial_charges, initial_magmoms

Initialize ...

C-setup:
  name: Carbon
  id: 4aa54d4b901d75f77cc0ea3eec22967b
  Z: 6
  valence: 4
  core: 2
  charge: 0.0
  file: /home/esb/DFT/gpaw-setups-0.8.7929/C.PBE.gz
  cutoffs: 0.64(comp), 1.14(filt), 1.14(core), lmax=2
  valence states:
                energy  radius
    2s(2.00)   -13.751   0.635
    2p(2.00)    -5.284   0.635
    *s          13.461   0.635
    *p          21.927   0.635
    *d           0.000   0.635

  LCAO basis set for C:
    Name: dzp
    File: /home/esb/DFT/gpaw-setups-0.8.7929/C.dzp.basis.gz
    Number of radial functions: 5
    Number of spherical harmonics: 13
      l=0, rc=5.5469 Bohr: 2s-sz confined orbital
      l=1, rc=6.6719 Bohr: 2p-sz confined orbital
      l=0, rc=3.0312 Bohr: 2s-dz split-valence wave
      l=1, rc=3.7500 Bohr: 2p-dz split-valence wave
      l=2, rc=6.6719 Bohr: d-type Gaussian polarization

Reference energy: -24663.074771

Spin-paired calculation

Occupation numbers:
  Fermi-Dirac: width=0.1000 eV

Convergence criteria:
  Maximum total energy change: 0.0005 eV / electron
  Maximum integral of absolute density change: 0.0001 electrons
  Maximum integral of absolute eigenstate change: 4e-08 eV^2
  Maximum number of iterations: 99

Symmetries present (total): 1

  ( 1  0  0)
  ( 0  1  0)
  ( 0  0  1)

1 k-point (Gamma)
1 k-point in the irreducible part of the Brillouin zone
       k-points in crystal coordinates                weights
   0:     0.00000000    0.00000000    0.00000000          1/1

Wave functions: LCAO
  Diagonalizer: Serial LAPACK
  Atomic Correction: dense with blas
  Datatype: float
  Eigensolver: None

LCAO using direct dense diagonalizer

Densities:
  Coarse grid: 80*80*48 grid
  Fine grid: 160*160*96 grid
  Total Charge: 0.000000

Density mixing:
  Method: separate
  Backend: pulay
  Linear mixing parameter: 0.05
  Mixing with 5 old densities
  Damping of long wave oscillations: 75

Hamiltonian:
  XC and Coulomb potentials evaluated on a 160*160*96 grid
  Using the PBE Exchange-Correlation functional
  Interpolation: tri-quintic (5. degree polynomial)
  Poisson solver: Gauss-Seidel solver with 6 multi-grid levels
    Coarsest grid: 5 x 5 x 3 points
    Stencil: 6*3+1=19 point O(h^6) finite-difference Laplacian
    Max iterations: 1000
    Tolerance: 1.000000e-07

Total number of cores used: 16
Domain decomposition: 2 x 4 x 2

Number of atoms: 24
Number of atomic orbitals: 312
Number of bands in calculation: 98
Bands to converge: occupied states only
Number of valence electrons: 96

... initialized

Initializing position-dependent things.

Density initialized from atomic densities
   /       |            C                         |
  /        |       C  C  C        C               |
 *         |    CC          C C  C                |
 |         |   C   C         C     C              |
 |         .----C-C---C-------C--C----------------.
 |        /    C C  CC    C                      /

Positions:
   0 C      5.573699   11.335846    4.762316
   1 C     11.662638    6.439022    4.665766
   2 C      6.905127    6.493701    4.601492
   3 C     10.550584    5.573510    5.574356
   4 C      3.469411    9.215445    4.301494
   5 C      4.208322    5.431912    4.824023
   6 C      6.755716    4.191374    5.631670
   7 C     10.713802    9.619925    4.603102
   8 C     11.838194    8.375749    4.629251
   9 C      6.642739   11.119124    5.578861
  10 C      5.682168    3.792783    5.683990
  11 C      7.169452   10.055509    5.301468
  12 C      6.828368    5.023784    4.783500
  13 C      9.346095    4.164660    5.408716
  14 C      4.571970   10.775286    5.246441
  15 C     11.018184    9.758583    5.664870
  16 C      9.878058    6.961525    5.314866
  17 C      5.535247    5.860022    5.382267
  18 C      3.936475    9.445273    5.332650
  19 C      4.266220    8.333713    5.374973
  20 C      5.400098    8.247028    4.747718
  21 C      4.378973    6.502513    4.940435
  22 C      8.672665    8.597225    5.425987
  23 C      9.361268    9.732523    5.237239

Unit cell:
           periodic     x           y           z      points  spacing
  1. axis:    yes   16.000000    0.000000    0.000000    80     0.2000
  2. axis:    yes    0.000000   16.000000    0.000000    80     0.2000
  3. axis:    yes    0.000000    0.000000   10.000000    48     0.2083

Effective grid spacing dv^(1/3) = 0.2027

                     log10-error:    total        iterations:
           time      wfs    density  energy       fermi  poisson
iter:   1  14:13:05          +inf  -135.426089    3      6
iter:   2  14:13:05         -0.83  -132.328840    3      3
iter:   3  14:13:06         -0.88  -131.037715    3      3
iter:   4  14:13:06         -0.89  -129.009972    3      2
iter:   5  14:13:07         -0.92  -127.079223    4      3
iter:   6  14:13:08         -1.06  -127.369375    4      3
iter:   7  14:13:08         -1.13  -126.494354    3      3
iter:   8  14:13:09         -1.21  -126.119465    4      3
iter:   9  14:13:09         -1.34  -125.549190    4      3
iter:  10  14:13:10         -1.50  -125.324177    3      3
iter:  11  14:13:10         -1.69  -125.305788    3      2
iter:  12  14:13:11         -1.75  -125.262120    3      3
iter:  13  14:13:11         -1.93  -125.253781    3      3
iter:  14  14:13:12         -2.08  -125.243630    3      2
iter:  15  14:13:12         -2.19  -125.239634    3      2
iter:  16  14:13:13         -2.34  -125.231749    3      2
iter:  17  14:13:13         -2.64  -125.234259    2      1
iter:  18  14:13:14         -2.73  -125.225707    2      2
iter:  19  14:13:14         -2.88  -125.226235    2      1
iter:  20  14:13:15         -2.96  -125.226394    2      1
iter:  21  14:13:15         -3.07  -125.223152    2      1
iter:  22  14:13:16         -3.27  -125.221515    2      1
iter:  23  14:13:16         -3.42  -125.221986    2      1
iter:  24  14:13:17         -3.63  -125.224047    2      1
iter:  25  14:13:17         -3.86  -125.224848    2      1
iter:  26  14:13:18         -3.93  -125.225065    1      1
iter:  27  14:13:18         -4.03  -125.225112    2      1

Converged after 27 iterations.

Dipole moment: (-0.384349, 0.134111, 0.221078) |e|*Ang

Energy contributions relative to reference atoms: (reference = -24663.074771)

Kinetic:       +229.407133
Potential:     -193.221273
External:        +0.000000
XC:            -163.939516
Entropy (-ST):   -0.465073
Local:           +2.761081
Free energy:   -125.457648
Extrapolated:  -125.225112

Fermi level: -4.81406

 Band  Eigenvalues  Occupancy
    0    -26.77577    2.00000
    1    -25.41725    2.00000
    2    -23.63400    2.00000
    3    -23.38337    2.00000
    4    -22.09876    2.00000
    5    -19.81497    2.00000
    6    -19.45966    2.00000
    7    -19.25653    2.00000
    8    -18.92232    2.00000
    9    -18.36480    2.00000
   10    -16.17723    2.00000
   11    -15.73281    2.00000
   12    -15.59243    2.00000
   13    -15.36012    2.00000
   14    -14.50529    2.00000
   15    -13.84781    2.00000
   16    -13.60394    2.00000
   17    -13.21945    2.00000
   18    -12.90218    2.00000
   19    -12.15785    2.00000
   20    -11.95837    2.00000
   21    -11.41965    2.00000
   22    -10.85130    2.00000
   23    -10.71755    2.00000
   24    -10.34985    2.00000
   25    -10.07036    2.00000
   26     -9.70746    2.00000
   27     -9.67349    2.00000
   28     -9.51290    2.00000
   29     -9.15112    2.00000
   30     -8.64293    2.00000
   31     -8.59725    2.00000
   32     -8.04180    2.00000
   33     -7.85669    2.00000
   34     -7.50322    2.00000
   35     -7.21898    2.00000
   36     -7.16038    2.00000
   37     -6.88307    2.00000
   38     -6.81463    2.00000
   39     -6.47912    2.00000
   40     -6.26661    2.00000
   41     -6.04734    1.99999
   42     -5.95004    1.99998
   43     -5.59213    1.99916
   44     -5.49207    1.99773
   45     -5.09399    1.88528
   46     -5.02791    1.78918
   47     -4.87990    1.31779
   48     -4.76585    0.76353
   49     -4.59232    0.19641
   50     -4.43902    0.04594
   51     -4.18493    0.00370
   52     -4.07920    0.00129
   53     -3.68577    0.00003
   54     -3.39016    0.00000
   55     -3.16459    0.00000
   56     -3.06866    0.00000
   57     -2.42085    0.00000
   58     -2.24317    0.00000
   59     -2.04466    0.00000
[...]
   83      7.06182    0.00000
   84      7.41437    0.00000
   85      7.71223    0.00000
   86      7.91050    0.00000
   87      8.10555    0.00000
   88      8.41341    0.00000
   89      8.64184    0.00000
   90      8.92302    0.00000
   91      9.06417    0.00000
   92      9.17375    0.00000
   93      9.21850    0.00000
   94      9.31359    0.00000
   95      9.48224    0.00000
   96      9.58250    0.00000
   97      9.63843    0.00000

Forces in eV/Ang:
  0 C    -1.19043    2.51309   -1.21417
  1 C    -3.17048    1.11856    1.71876
  2 C    -0.81216   -4.02931    1.15065
  3 C    -3.80747    1.70846   -2.92969
  4 C    -9.25904   -3.48489  -18.03698
  5 C    -5.79472  -26.74719   -4.26337
  6 C    15.62227   -5.87885    8.83648
  7 C    -5.00770   -3.88225  -23.47961
  8 C    -1.78114   -1.10802    0.46338
  9 C     0.31158    5.08339    1.19917
 10 C   -16.90235   -9.36433    3.26217
 11 C     6.97473   -8.21814   -0.24110
 12 C     3.11543   16.22509  -10.63801
 13 C     3.47925    3.40404    0.49270
 14 C    -4.18964   -1.64893    1.88346
 15 C     6.99453    3.34493   23.34150
 16 C     3.07941   -2.62138    0.38892
 17 C     3.49408    0.95140   -1.48068
 18 C    -1.46839   28.98115   15.70472
 19 C     5.40733  -22.89157    2.61627
 20 C     5.82102   -1.48202   -3.51319
 21 C     1.18104   28.77188    4.77183
 22 C    -2.48271   -0.83227    0.21292
 23 C     0.39403    0.06858   -0.23848

System changes: positions

[...]

Density initialized from wave functions
   /       |            C                         |
  /        |       C  C  C        C               |
 *         |     C          C C                   |
 |         |   C   C         C   C C              |
 |         .----C-C---C-------C--C----------------.
 |        /    C C  CC    C                      /

[...]

Density initialized from wave functions
[...]
  /        |           C                          |
 *         |     C      C  C  C   C               |
 |         |    CC   C     C   CC                 |
 |         .----C-C-----C----C--------------------.
 |        /    C      CC  C     C                /

[...]

Density initialized from wave functions
   /       |      C  C                            |
  /        |           C                          |
 *         |     C      C  C  C   C               |
 |         |    CC   C     C   CC                 |
 |         .----C-C-----C---C---------------------.
 |        /    C      CC  C     C                /

[...]

Density initialized from wave functions
   /       |      C  C                            |
  /        |           C                          |
 *         |     C      C  C  C   C               |
 |         |    CC   C     C   CC                 |
 |         .----C-C-----C---C---------------------.
 |        /    C      C   C     C                /

[...]

Density initialized from wave functions
   /       |      C  C                            |
  /        |           C                          |
 *         |     C      C  C  C   C               |
 |         |    CC   C     C   CC                 |
 |         .----C-C-----C----C--------------------.
 |        /    C      C   C     C                /

[...]

Density initialized from wave functions
   /       |      C  C                            |
  /        |           C                          |
 *         |    C       C  C  C   C               |
 |         |    CC   C     C   CC                 |
 |         .----C-C-----C---C---------------------.
 |        /    C      C   C     C                /

[...]

Density initialized from wave functions
   /       |      C  C                            |
  /        |           C                          |
 *         |    C       C  C  C   C               |
 |         |    CC   C     C   CC                 |
 |         .----C-C-----C---C---------------------.
 |        /    C      C   C    C                 /
 |       /            C                         /

[...]

Density initialized from wave functions
   /       |      C  C                            |
  /        |           C                          |
 *         |    C       C  C  C   C               |
 |         |    CC   C     C   CC                 |
 |         .----C-C-----C---C---------------------.
 |        /    C      C   C    C                 /
 |       /            C                         /

[...]

Density initialized from wave functions
   /       |      C  C                            |
  /        |           C                          |
 *         |    C       C  C  C   C               |
 |         |    CC   C     C   CC                 |
 |         .----C--C----C---C---------------------.
 |        /    C      C   C    C                 /
 |       /            C                         /

[...]

Density initialized from wave functions
   /       |      C  C                            |
  /        |           C                          |
 *         |    C       C  C  C   C               |
 |         |    CC   CC    C   CC                 |
 |         .----C--C----C---C---------------------.
 |        /    C      C   C    C                 /
 |       /            C                         /

[...]

Density initialized from wave functions
   /       |      C  C                            |
  /        |           C                          |
 *         |    C       C  C  C   C               |
 |         |    CC   CC    C   CC                 |
 |         .----C-------C---C---------------------.
 |        /    C   C  C   C    C                 /
 |       /            C                         /

[...]

Density initialized from wave functions
   /       |      C  C                            |
  /        |           C                          |
 *         |    C       C  C  C   C               |
 |         |    CC   CC    C   CC                 |
 |         .----C-------C---C---------------------.
 |        /    C   C  C   C    C                 /
 |       /            C                         /

[...]

Density initialized from wave functions
   /       |      C  C C                          |
 *         |    C       C  C  C   C               |
 |         |    CC   CC    C   CC                 |
 |         .----C-------C---C---------------------.
 |        /    C   C  C   C    C                 /
 |       /            C                         /

[...]

Density initialized from wave functions
   /       |      C  C C                          |
 *         |    C       C  C  C   C               |
 |         |    CC   CC    C   CC                 |
 |         .----C-------C---C---------------------.
 |        /     C  C  C   C    C                 /
 |       /            C                         /

[...]

Density initialized from wave functions
   /       |      C  C C                          |
 *         |    C       C  C  C   C               |
 |         |    CC   CC    C   CC                 |
 |         .----C-------C---C--C------------------.
 |        /     C  C  C   C                      /
 |       /            C                         /

[...]

Density initialized from wave functions
   /       |      C  C C                          |
 *         |    C       C  C  C   C               |
 |         |    CC   C     C   CC                 |
 |         .----C-------C---C--C------------------.
 |        /     C  C  C   C                      /
 |       /             C                        /

[...]

Density initialized from wave functions
   /       |      C  C C                          |
  /        |    C                                 |
 *         |            C  C  C   C               |
 |         |    CC   C     C   CC                 |
 |         .----C-------C---C--C------------------.
 |        /     C  C  C   C                      /
 |       /             C                        /

[...]

Density initialized from wave functions
   /       |      C  C C                          |
  /        |    C                                 |
 *         |            C  C  C   C               |
 |         |    CC   C     C   CC                 |
 |         .----C-------C---C--C------------------.
 |        /     C  C  C   C                      /
 |       /             C                        /

[...]

Density initialized from wave functions
   /       |      C  C C                          |
  /        |    C                                 |
 *         |            C  C  C   C               |
 |         |    CC   C     C   CC                 |
 |         .------------C----C--C-----------------.
 |        /     C  C  C   C                      /
 |       /             C                        /

[...]

Density initialized from wave functions
   /       |      C  C C                          |
  /        |    C                                 |
 *         |            C  C  C   C               |
 |         |    CC   C     C   CC                 |
 |         .------------C----C--------------------.
 |        /    CC  C  C   C     C                /
 |       /             C                        /

[...]

Density initialized from wave functions
   /       |      C  C C                          |
  /        |    C                                 |
 *         |           C   C  C   C               |
 |         |    CC   C     C   CC                 |
 |         .------------C----C--------------------.
 |        /    CC  C  C   C     C                /
 |       /             C                        /

[...]

Density initialized from wave functions
   /       |      C  C                            |
  /        |    C      C                          |
 *         |           C   C  C   C               |
 |         |    CC   C     C   CC                 |
 |         .------------C----C--C-----------------.
 |        /    CC  C  C   C                      /
 |       /             C                        /

[...]

Density initialized from wave functions
   /       |      C  C                            |
  /        |    C      C                          |
 *         |           C   C  C   C               |
 |         |    CC   C     C   CC                 |
 |         .------------C----C--C-----------------.
 |        /    CC  C  C   C                      /
 |       /             C                        /

[...]

Density initialized from wave functions
   /       |      C  C                            |
  /        |     C     C                          |
 *         |           C   C  C   C               |
 |         |    CC   C     C   CC                 |
 |         .------------C-------C-----------------.
 |        /    CC  C  CC  C  C                   /

[...]

Density initialized from wave functions
   /       |      C  C                            |
  /        |     C     C                          |
 *         |           C   C  C   C               |
 |         |    CC   C     C   CC                 |
 |         .---C--------C-------C-----------------.
 |        /     C  C  CC  C  C                   /

[...]

Density initialized from wave functions
   /       |      C  C                            |
  /        |     C     C                          |
 *         |           C   C  C   C               |
 |         |    CC   C     C   CC                 |
 |         .---C--------C-------C-----------------.
 |        /     C  C  CC  C  C                   /

[...]

Density initialized from wave functions
   /       |      C  C                            |
  /        |     C     C                          |
 *         |           C   C  C   C               |
 |         |    CC   C         CC                 |
 |         .---C--------C--C----C-----------------.
 |        /     C  C  CC  C  C                   /

[...]

Density initialized from wave functions
   /       |      C  C                            |
  /        |     C     C                          |
 *         |           C   C  C   C               |
 |         |    CC   C         CC                 |
 |         .---C--------C--C----C-----------------.
 |        /     C  C  CC  C  C                   /

[...]

Density initialized from wave functions
   /       |      C  C                            |
  /        |     C     C                          |
 *         |           C   C  C   C               |
 |         |    CC   C         CC                 |
 |         .---C-----C--C--C----C-----------------.
 |        /     C  C  CC  C  C                   /

[...]

System changes: positions

Initializing position-dependent things.

Density initialized from wave functions
   /       |      C  C                            |
  /        |     C     C                          |
 *         |           C   C  C   C               |
 |         |    CC   C         CC                 |
 |         .---C-----C--C--C----C-----------------.
 |        /     C  C  CC  C  C                   /

Positions:
   0 C      5.188180   11.327063    5.594650
   1 C     11.313607    5.774373    5.072100
   2 C      6.580736    6.952233    5.125670
   3 C     10.056407    5.001855    5.263634
   4 C      3.612157    9.312026    4.607643
   5 C      4.595847    5.718686    4.542000
   6 C      7.177607    4.925782    5.176048
   7 C     10.649089    8.379017    5.152954
   8 C     10.502130    7.003269    5.223303
   9 C      6.310891   10.703046    5.639657
  10 C      7.946914    3.766529    5.195508
  11 C      6.805398    9.427122    5.289149
  12 C      7.881631    6.259424    5.325370
  13 C      9.240496    3.908575    5.237569
  14 C      3.905498   11.834828    5.423931
  15 C     10.902976    9.718310    5.197789
  16 C      9.241639    6.274004    5.365018
  17 C      5.929668    5.633895    4.937803
  18 C      3.662129   10.546018    4.960730
  19 C      4.457848    8.192534    4.651800
  20 C      5.961055    8.199529    5.034877
  21 C      4.058217    6.864453    4.413628
  22 C      8.193533    9.382358    5.212705
  23 C      9.476877    9.461116    5.164852

Unit cell:
           periodic     x           y           z      points  spacing
  1. axis:    yes   16.000000    0.000000    0.000000    80     0.2000
  2. axis:    yes    0.000000   16.000000    0.000000    80     0.2000
  3. axis:    yes    0.000000    0.000000   10.000000    48     0.2083

Effective grid spacing dv^(1/3) = 0.2027

                     log10-error:    total        iterations:
           time      wfs    density  energy       fermi  poisson
iter:   1  14:38:35          +inf  -180.348179    2      4
iter:   2  14:38:35         -3.09  -180.346456    2      1
iter:   3  14:38:36         -3.26  -180.345122    2      1
iter:   4  14:38:36         -3.44  -180.345875    2      1
iter:   5  14:38:37         -3.64  -180.344135    2      1
iter:   6  14:38:37         -3.45  -180.345200    2      1
iter:   7  14:38:38         -3.95  -180.346869    2      1
iter:   8  14:38:38         -3.60  -180.345531    2      1
iter:   9  14:38:39         -4.57  -180.345312    2      1

Converged after 9 iterations.

Dipole moment: (-0.221413, -0.478832, -0.027120) |e|*Ang

Energy contributions relative to reference atoms: (reference = -24663.074771)

Kinetic:       +111.714078
Potential:     -119.050900
External:        +0.000000
XC:            -175.896414
Entropy (-ST):   -0.117036
Local:           +2.946441
Free energy:   -180.403830
Extrapolated:  -180.345312

Fermi level: -4.45250

 Band  Eigenvalues  Occupancy
    0    -23.19752    2.00000
    1    -22.81854    2.00000
    2    -22.32854    2.00000
    3    -21.80559    2.00000
    4    -21.11968    2.00000
    5    -20.73892    2.00000
    6    -20.10220    2.00000
    7    -19.31708    2.00000
    8    -18.46419    2.00000
    9    -18.18822    2.00000
   10    -17.80826    2.00000
   11    -17.59902    2.00000
   12    -17.02169    2.00000
   13    -16.41758    2.00000
   14    -15.84034    2.00000
   15    -15.13394    2.00000
   16    -14.26204    2.00000
   17    -13.51118    2.00000
   18    -13.35321    2.00000
   19    -12.95097    2.00000
   20    -12.19664    2.00000
   21    -11.91598    2.00000
   22    -11.13166    2.00000
   23    -10.89829    2.00000
   24    -10.79001    2.00000
   25    -10.78035    2.00000
   26    -10.62093    2.00000
   27    -10.34649    2.00000
   28    -10.06775    2.00000
   29     -9.88605    2.00000
   30     -9.64220    2.00000
   31     -9.33958    2.00000
   32     -9.18654    2.00000
   33     -9.13714    2.00000
   34     -8.74800    2.00000
   35     -8.64644    2.00000
   36     -8.16701    2.00000
   37     -7.77072    2.00000
   38     -7.25327    2.00000
   39     -6.69556    2.00000
   40     -6.47885    2.00000
   41     -6.21537    2.00000
   42     -6.01978    2.00000
   43     -5.67311    1.99999
   44     -5.50545    1.99995
   45     -5.31875    1.99965
   46     -5.23206    1.99918
   47     -4.69813    1.84204
   48     -4.19705    0.14425
   49     -3.96338    0.01491
   50     -3.32532    0.00003
   51     -3.08927    0.00000
   52     -2.86176    0.00000
   53     -2.79102    0.00000
   54     -2.25688    0.00000
   55     -1.86702    0.00000
   56     -1.54885    0.00000
   57     -0.37672    0.00000
   58      0.27858    0.00000
   59      0.76378    0.00000
[...]
   83      8.59089    0.00000
   84      8.76017    0.00000
   85      8.92818    0.00000
   86      9.02849    0.00000
   87      9.14229    0.00000
   88      9.19218    0.00000
   89      9.31788    0.00000
   90      9.40992    0.00000
   91      9.54764    0.00000
   92      9.67164    0.00000
   93      9.77631    0.00000
   94      9.84843    0.00000
   95      9.98843    0.00000
   96     10.05048    0.00000
   97     10.17167    0.00000

Forces in eV/Ang:
  0 C    -0.02673    0.02079   -0.02365
  1 C     0.00018   -0.06052    0.02020
  2 C     0.02895   -0.00490   -0.01064
  3 C    -0.00004    0.00976    0.00271
  4 C     0.01652    0.03744    0.02978
  5 C     0.02564   -0.02725    0.01148
  6 C    -0.00668   -0.03255   -0.02826
  7 C     0.03234    0.00480    0.03458
  8 C    -0.00419    0.01110    0.04168
  9 C     0.00779    0.00093   -0.02610
 10 C     0.04712    0.02752   -0.05753
 11 C    -0.04570   -0.01330   -0.02709
 12 C    -0.02010   -0.01019    0.02094
 13 C    -0.02615    0.01384    0.00127
 14 C     0.02979    0.02069    0.00366
 15 C     0.03010   -0.05739    0.01569
 16 C    -0.02410    0.03671   -0.03181
 17 C    -0.00184    0.01376    0.03154
 18 C     0.00914   -0.01964   -0.02539
 19 C     0.02625   -0.01675    0.04263
 20 C    -0.03240    0.00548   -0.00811
 21 C    -0.02685    0.02526    0.07249
 22 C    -0.03393   -0.03488   -0.02774
 23 C     0.01658    0.01768    0.00713