User:   esb@s65n33.grendel.cscaa.dk
Date:   Wed Nov  8 17:12:57 2017
Arch:   x86_64
Pid:    67462
Python: 2.7.13
gpaw:   /home/esb/DFT/gpaw_git/gpaw
_gpaw:  /home/esb/DFT/gpaw_git/build/bin.linux-x86_64-2.7/gpaw-python
ase:    /home/esb/DFT/ase_git/ase (version 3.15.0b1)
numpy:  /comm/swstack/core/python/2.7.13/lib/python2.7/site-packages/numpy (version 1.13.3)
scipy:  /comm/swstack/core/python/2.7.13/lib/python2.7/site-packages/scipy (version 0.19.1)
units:  Angstrom and eV
cores:  16
Extra parameters: {'blacs': True}

Input parameters:
  basis: dzp
  gpts: [80 80 48]
  kpts: [1 1 1]
  maxiter: 99
  mixer: {backend: pulay,
          beta: 0.05,
          method: separate,
          nmaxold: 5,
          weight: 75}
  mode: lcao
  nbands: -50
  occupations: {name: fermi-dirac,
                width: 0.1}
  poissonsolver: {eps: 1e-07,
                  name: fd,
                  nn: 3,
                  relax: GS}
  xc: PBE

System changes: positions, numbers, cell, pbc, initial_charges, initial_magmoms

Initialize ...

C-setup:
  name: Carbon
  id: 4aa54d4b901d75f77cc0ea3eec22967b
  Z: 6
  valence: 4
  core: 2
  charge: 0.0
  file: /home/esb/DFT/gpaw-setups-0.8.7929/C.PBE.gz
  cutoffs: 0.64(comp), 1.14(filt), 1.14(core), lmax=2
  valence states:
                energy  radius
    2s(2.00)   -13.751   0.635
    2p(2.00)    -5.284   0.635
    *s          13.461   0.635
    *p          21.927   0.635
    *d           0.000   0.635

  LCAO basis set for C:
    Name: dzp
    File: /home/esb/DFT/gpaw-setups-0.8.7929/C.dzp.basis.gz
    Number of radial functions: 5
    Number of spherical harmonics: 13
      l=0, rc=5.5469 Bohr: 2s-sz confined orbital
      l=1, rc=6.6719 Bohr: 2p-sz confined orbital
      l=0, rc=3.0312 Bohr: 2s-dz split-valence wave
      l=1, rc=3.7500 Bohr: 2p-dz split-valence wave
      l=2, rc=6.6719 Bohr: d-type Gaussian polarization

Reference energy: -24663.074771

Spin-paired calculation

Occupation numbers:
  Fermi-Dirac: width=0.1000 eV

Convergence criteria:
  Maximum total energy change: 0.0005 eV / electron
  Maximum integral of absolute density change: 0.0001 electrons
  Maximum integral of absolute eigenstate change: 4e-08 eV^2
  Maximum number of iterations: 99

Symmetries present (total): 1

  ( 1  0  0)
  ( 0  1  0)
  ( 0  0  1)

1 k-point (Gamma)
1 k-point in the irreducible part of the Brillouin zone
       k-points in crystal coordinates                weights
   0:     0.00000000    0.00000000    0.00000000          1/1

Wave functions: LCAO
  Diagonalizer: Serial LAPACK
  Atomic Correction: dense with blas
  Datatype: float
  Eigensolver: None

LCAO using direct dense diagonalizer

Densities:
  Coarse grid: 80*80*48 grid
  Fine grid: 160*160*96 grid
  Total Charge: 0.000000

Density mixing:
  Method: separate
  Backend: pulay
  Linear mixing parameter: 0.05
  Mixing with 5 old densities
  Damping of long wave oscillations: 75

Hamiltonian:
  XC and Coulomb potentials evaluated on a 160*160*96 grid
  Using the PBE Exchange-Correlation functional
  Interpolation: tri-quintic (5. degree polynomial)
  Poisson solver: Gauss-Seidel solver with 6 multi-grid levels
    Coarsest grid: 5 x 5 x 3 points
    Stencil: 6*3+1=19 point O(h^6) finite-difference Laplacian
    Max iterations: 1000
    Tolerance: 1.000000e-07

Total number of cores used: 16
Domain decomposition: 2 x 4 x 2

Number of atoms: 24
Number of atomic orbitals: 312
Number of bands in calculation: 98
Bands to converge: occupied states only
Number of valence electrons: 96

... initialized

Initializing position-dependent things.

Density initialized from atomic densities
   /       |           C  C  C  C                 |
  /        |        C            C                |
 *         |     C      C C  C     C              |
 |         C  C   C C               C             |
 |         .----------C--------------C------------.
 |        /            C  C        C             /
 |       /                   C  C               /

Positions:
   0 C      4.360432    9.223486    5.358530
   1 C      4.821516    7.772330    5.453817
   2 C      7.487823    7.652910    5.649212
   3 C      3.000382    8.840544    4.969809
   4 C      3.583505    7.185934    5.089279
   5 C      2.310579    7.669470    4.807715
   6 C      7.148572    6.282532    5.462288
   7 C      5.096985   10.340314    5.452164
   8 C     10.273898    4.699276    4.370772
   9 C      8.993240    4.736515    4.764831
  10 C      7.851063    5.129342    5.160697
  11 C      6.119370    7.271355    5.565670
  12 C      6.276311   10.908919    5.587054
  13 C      9.287865    9.365081    5.503145
  14 C      9.703293   11.628251    5.229182
  15 C     12.664820    7.601113    4.132554
  16 C     11.548975    9.833653    4.779883
  17 C     10.302319   10.308830    5.187805
  18 C     12.283197    6.357552    4.098067
  19 C      7.207872   11.749818    5.506202
  20 C      8.182572    8.807970    5.696344
  21 C      8.526434   12.057310    5.365932
  22 C     11.499863    5.322866    4.208707
  23 C     12.252411    8.824002    4.427462

Unit cell:
           periodic     x           y           z      points  spacing
  1. axis:    yes   16.000000    0.000000    0.000000    80     0.2000
  2. axis:    yes    0.000000   16.000000    0.000000    80     0.2000
  3. axis:    yes    0.000000    0.000000   10.000000    48     0.2083

Effective grid spacing dv^(1/3) = 0.2027

                     log10-error:    total        iterations:
           time      wfs    density  energy       fermi  poisson
iter:   1  17:12:59          +inf  -183.995519    3      6
iter:   2  17:13:00         -0.92  -183.165652    3      3
iter:   3  17:13:00         -0.95  -180.901004    32     3
iter:   4  17:13:01         -1.11  -180.167045    33     4
iter:   5  17:13:01         -1.40  -179.972055    4      3
iter:   6  17:13:02         -1.62  -180.054542    4      3
iter:   7  17:13:03         -1.73  -179.989810    4      3
iter:   8  17:13:03         -1.92  -179.965620    3      2
iter:   9  17:13:04         -2.03  -179.944506    3      2
iter:  10  17:13:04         -2.31  -179.943646    3      2
iter:  11  17:13:05         -2.53  -179.941646    3      2
iter:  12  17:13:05         -2.69  -179.956543    2      1
iter:  13  17:13:06         -2.73  -179.933289    2      2
iter:  14  17:13:06         -2.89  -179.930809    2      2
iter:  15  17:13:07         -3.10  -179.940046    2      1
iter:  16  17:13:07         -3.27  -179.932855    2      1
iter:  17  17:13:07         -3.46  -179.931562    2      1
iter:  18  17:13:08         -3.64  -179.934628    2      1
iter:  19  17:13:08         -3.88  -179.932108    2      1
iter:  20  17:13:09         -4.01  -179.933017    2      1

Converged after 20 iterations.

Dipole moment: (0.123114, 0.148968, 0.075157) |e|*Ang

Energy contributions relative to reference atoms: (reference = -24663.074771)

Kinetic:       +100.739774
Potential:     -110.645081
External:        +0.000000
XC:            -173.060899
Entropy (-ST):   -0.079979
Local:           +3.073179
Free energy:   -179.973006
Extrapolated:  -179.933017

Fermi level: -4.32435

 Band  Eigenvalues  Occupancy
    0    -23.33433    2.00000
    1    -22.93261    2.00000
    2    -21.07183    2.00000
    3    -20.36178    2.00000
    4    -20.11715    2.00000
    5    -19.74460    2.00000
    6    -19.40338    2.00000
    7    -19.01597    2.00000
    8    -18.93802    2.00000
    9    -18.13215    2.00000
   10    -17.98371    2.00000
   11    -17.37551    2.00000
   12    -16.69874    2.00000
   13    -16.12024    2.00000
   14    -15.56527    2.00000
   15    -15.16781    2.00000
   16    -14.43570    2.00000
   17    -14.36658    2.00000
   18    -13.83272    2.00000
   19    -13.28217    2.00000
   20    -12.76775    2.00000
   21    -12.39904    2.00000
   22    -12.14819    2.00000
   23    -11.77367    2.00000
   24    -10.81983    2.00000
   25    -10.44564    2.00000
   26    -10.05084    2.00000
   27     -9.71423    2.00000
   28     -9.35463    2.00000
   29     -9.14593    2.00000
   30     -8.80469    2.00000
   31     -8.78615    2.00000
   32     -8.73559    2.00000
   33     -8.54431    2.00000
   34     -7.86873    2.00000
   35     -7.84527    2.00000
   36     -7.62668    2.00000
   37     -7.27241    2.00000
   38     -7.11790    2.00000
   39     -7.03555    2.00000
   40     -6.58686    2.00000
   41     -6.46188    2.00000
   42     -6.25536    2.00000
   43     -5.64241    2.00000
   44     -5.02203    1.99814
   45     -4.95855    1.99648
   46     -4.81931    1.98593
   47     -4.65511    1.92938
   48     -4.01854    0.08973
   49     -3.42693    0.00025
   50     -3.32574    0.00009
   51     -2.73137    0.00000
   52     -2.16046    0.00000
   53     -1.81095    0.00000
   54     -1.71397    0.00000
   55     -1.09211    0.00000
   56     -0.89024    0.00000
   57     -0.81022    0.00000
   58     -0.42661    0.00000
   59     -0.37159    0.00000
[...]
   83      8.78001    0.00000
   84      8.91853    0.00000
   85      8.94449    0.00000
   86      9.11611    0.00000
   87      9.39652    0.00000
   88      9.57269    0.00000
   89      9.59178    0.00000
   90      9.65573    0.00000
   91      9.73370    0.00000
   92      9.79357    0.00000
   93      9.93383    0.00000
   94      9.98341    0.00000
   95     10.08505    0.00000
   96     10.17012    0.00000
   97     10.44056    0.00000

Forces in eV/Ang:
  0 C     0.01373    0.15593    0.00674
  1 C    -0.02990   -0.38301   -0.06897
  2 C    -2.32823    0.17477    0.31206
  3 C    -0.13754   -0.25393    0.06913
  4 C     0.34834    0.21316    0.05778
  5 C    -0.18161    0.21944   -0.01389
  6 C     0.40030   -0.34819   -0.20628
  7 C    -0.17883   -0.90637    0.03825
  8 C     3.96020    2.27607   -0.27701
  9 C     1.40743   -0.08984   -0.31754
 10 C    -0.70035    0.37508    0.11173
 11 C     0.08242   -0.42206   -0.01956
 12 C    -2.06135   -0.45881    0.01084
 13 C     1.19268    1.10847   -0.28198
 14 C     0.98993   -0.85887   -0.17100
 15 C    -0.14762   -1.29739   -0.07510
 16 C     0.52061   -0.39296   -0.24502
 17 C    -0.08272    0.43643    0.05786
 18 C     0.68766    1.35726   -0.03455
 19 C     3.42114    2.15934   -0.32838
 20 C     1.19198   -0.50601   -0.00137
 21 C    -2.49064   -0.44724    0.49905
 22 C    -5.28532   -3.02831    0.54732
 23 C    -0.56432    0.94941    0.41033

System changes: positions

[...]

Density initialized from wave functions
   /       |           C  C  C  C                 |
  /        |        C            C                |
 *         |     C      C C   C    C              |
 |         C  C   C C               C             |
 |         .----------C--------------C------------.
 |        /            C  C        C             /
 |       /                   C  C               /

[...]

Density initialized from wave functions
   /       |           C  C  C  C                 |
  /        |        C            C                |
 *         |     C      C  C  C    C              |
 |         C  C   C C               C             |
 |         .----------C--------------C------------.
 |        /            C  C        C             /
 |       /                   C  C               /

[...]

Density initialized from wave functions
   /       |           C  C  C  C                 |
  /        |        C            C                |
 *         |     C      C  C  C    C              |
 |         C  C   C C               C             |
 |         .----------C-------------C-------------.
 |        /            C  C        C             /
 |       /                   C  C               /

[...]

Density initialized from wave functions
   /       |           C  C  C  C                 |
  /        |        C            C                |
 *         |     C      C  C  C    C              |
 |         C  C  C  C               C             |
 |         .----------C-------------C-------------.
 |        /            C  C        C             /
 |       /                   C  C               /

[...]

Density initialized from wave functions
   /       |           C  C  C  C                 |
  /        |        C            C                |
 *         |  C  C      C  C  C    C              |
 |         C  C  C  C               C             |
 |         .----------C-------------C-------------.
 |        /            C  C        C             /
 |       /                   C  C               /

[...]

System changes: positions

Initializing position-dependent things.

Density initialized from wave functions
   /       |           C  C  C  C                 |
  /        |        C            C                |
 *         |  C  C      C  C  C     C             |
 |         C  C  C  C               C             |
 |         .----------C-------------C-------------.
 |        /            C  C        C             /
 |       /                   C  C               /

Positions:
   0 C      4.334405    9.192652    5.387182
   1 C      4.785273    7.735214    5.441031
   2 C      7.444835    7.668125    5.675657
   3 C      2.966481    8.837768    4.997802
   4 C      3.539421    7.177636    5.063123
   5 C      2.262896    7.677107    4.824522
   6 C      7.148149    6.293262    5.449731
   7 C      5.086087   10.301841    5.456508
   8 C     10.326239    4.697679    4.424449
   9 C      9.033694    4.786502    4.767627
  10 C      7.874849    5.166840    5.119855
  11 C      6.090910    7.249879    5.556812
  12 C      6.103285   11.103874    5.537022
  13 C      9.431624    9.343821    5.470936
  14 C      9.719381   11.622443    5.231542
  15 C     12.554190    7.559694    4.178454
  16 C     11.647281    9.898995    4.757997
  17 C     10.377465   10.361208    5.175915
  18 C     12.278066    6.317925    4.102286
  19 C      7.172089   11.844728    5.482773
  20 C      8.439173    8.608807    5.663306
  21 C      8.484206   11.936390    5.419579
  22 C     11.425509    5.289479    4.168808
  23 C     12.289500    8.842986    4.473229

Unit cell:
           periodic     x           y           z      points  spacing
  1. axis:    yes   16.000000    0.000000    0.000000    80     0.2000
  2. axis:    yes    0.000000   16.000000    0.000000    80     0.2000
  3. axis:    yes    0.000000    0.000000   10.000000    48     0.2083

Effective grid spacing dv^(1/3) = 0.2027

                     log10-error:    total        iterations:
           time      wfs    density  energy       fermi  poisson
iter:   1  17:15:08          +inf  -181.032426    2      4
iter:   2  17:15:08         -3.00  -181.032869    2      1
iter:   3  17:15:09         -3.18  -181.033067    2      1
iter:   4  17:15:09         -3.34  -181.033186    2      1
iter:   5  17:15:10         -3.57  -181.033913    2      1
iter:   6  17:15:10         -3.45  -181.032820    2      1
iter:   7  17:15:11         -3.69  -181.032792    2      1
iter:   8  17:15:11         -3.45  -181.033338    2      1
iter:   9  17:15:12         -4.33  -181.033158    1      1

Converged after 9 iterations.

Dipole moment: (0.201982, 0.018325, 0.056954) |e|*Ang

Energy contributions relative to reference atoms: (reference = -24663.074771)

Kinetic:       +101.233626
Potential:     -111.371994
External:        +0.000000
XC:            -173.908199
Entropy (-ST):   -0.085298
Local:           +3.056058
Free energy:   -181.075808
Extrapolated:  -181.033158

Fermi level: -4.36207

 Band  Eigenvalues  Occupancy
    0    -23.32344    2.00000
    1    -22.96950    2.00000
    2    -21.00566    2.00000
    3    -20.34511    2.00000
    4    -20.18310    2.00000
    5    -19.77424    2.00000
    6    -19.38046    2.00000
    7    -19.00724    2.00000
    8    -18.81823    2.00000
    9    -18.17561    2.00000
   10    -18.02629    2.00000
   11    -17.39237    2.00000
   12    -16.73102    2.00000
   13    -16.07892    2.00000
   14    -15.67085    2.00000
   15    -15.36643    2.00000
   16    -14.54567    2.00000
   17    -14.47814    2.00000
   18    -13.88201    2.00000
   19    -13.42750    2.00000
   20    -13.00443    2.00000
   21    -12.39725    2.00000
   22    -12.11258    2.00000
   23    -11.74255    2.00000
   24    -10.78996    2.00000
   25    -10.45092    2.00000
   26     -9.89113    2.00000
   27     -9.70849    2.00000
   28     -9.32668    2.00000
   29     -9.28871    2.00000
   30     -8.93111    2.00000
   31     -8.92041    2.00000
   32     -8.72407    2.00000
   33     -8.57241    2.00000
   34     -7.96333    2.00000
   35     -7.90438    2.00000
   36     -7.59397    2.00000
   37     -7.24538    2.00000
   38     -7.13348    2.00000
   39     -7.02098    2.00000
   40     -6.60179    2.00000
   41     -6.46756    2.00000
   42     -6.20662    2.00000
   43     -5.60547    1.99999
   44     -5.10203    1.99878
   45     -4.95720    1.99481
   46     -4.84823    1.98464
   47     -4.68481    1.92370
   48     -4.06545    0.09795
   49     -3.39717    0.00013
   50     -3.05896    0.00000
   51     -2.74879    0.00000
   52     -1.89697    0.00000
   53     -1.74317    0.00000
   54     -1.41021    0.00000
   55     -1.08656    0.00000
   56     -1.00465    0.00000
   57     -0.48353    0.00000
   58     -0.25056    0.00000
   59     -0.04814    0.00000
[...]
   83      8.71212    0.00000
   84      8.83329    0.00000
   85      8.93788    0.00000
   86      8.95837    0.00000
   87      9.08517    0.00000
   88      9.46149    0.00000
   89      9.56701    0.00000
   90      9.61017    0.00000
   91      9.63401    0.00000
   92      9.77177    0.00000
   93      9.98038    0.00000
   94     10.04437    0.00000
   95     10.14870    0.00000
   96     10.20027    0.00000
   97     10.38250    0.00000

Forces in eV/Ang:
  0 C    -0.03844    0.05533   -0.01838
  1 C    -0.00302    0.05175   -0.02001
  2 C    -0.01325   -0.03018   -0.00653
  3 C     0.00353   -0.05620    0.05862
  4 C     0.03582   -0.03614    0.00955
  5 C    -0.00284   -0.06159    0.01274
  6 C    -0.06095    0.02052   -0.04309
  7 C     0.01143    0.00009   -0.00813
  8 C     0.03945    0.02296   -0.02484
  9 C    -0.00997   -0.09527   -0.00144
 10 C    -0.02950   -0.00301    0.00313
 11 C    -0.00885    0.03228   -0.02073
 12 C     0.00320    0.07188    0.00108
 13 C     0.03446   -0.01023   -0.00847
 14 C     0.02348   -0.01219   -0.01997
 15 C     0.02612    0.03897    0.00556
 16 C     0.03440   -0.07948    0.00809
 17 C     0.05715   -0.02975    0.01607
 18 C    -0.02152    0.04423    0.04225
 19 C    -0.01400   -0.03053   -0.00130
 20 C    -0.00385    0.00209   -0.00956
 21 C    -0.00545   -0.00251    0.00288
 22 C    -0.01975    0.02916    0.00606
 23 C     0.00252   -0.02145   -0.02062