User:   esb@s65n31.grendel.cscaa.dk
Date:   Thu Nov  9 10:52:52 2017
Arch:   x86_64
Pid:    17235
Python: 2.7.13
gpaw:   /home/esb/DFT/gpaw_git/gpaw
_gpaw:  /home/esb/DFT/gpaw_git/build/bin.linux-x86_64-2.7/gpaw-python
ase:    /home/esb/DFT/ase_git/ase (version 3.15.0b1)
numpy:  /comm/swstack/core/python/2.7.13/lib/python2.7/site-packages/numpy (version 1.13.3)
scipy:  /comm/swstack/core/python/2.7.13/lib/python2.7/site-packages/scipy (version 0.19.1)
units:  Angstrom and eV
cores:  16
Extra parameters: {'blacs': True}

Input parameters:
  basis: dzp
  gpts: [80 80 48]
  kpts: [1 1 1]
  maxiter: 99
  mixer: {backend: pulay,
          beta: 0.05,
          method: separate,
          nmaxold: 5,
          weight: 75}
  mode: lcao
  nbands: -50
  occupations: {name: fermi-dirac,
                width: 0.1}
  poissonsolver: {eps: 1e-07,
                  name: fd,
                  nn: 3,
                  relax: GS}
  xc: PBE

System changes: positions, numbers, cell, pbc, initial_charges, initial_magmoms

Initialize ...

C-setup:
  name: Carbon
  id: 4aa54d4b901d75f77cc0ea3eec22967b
  Z: 6
  valence: 4
  core: 2
  charge: 0.0
  file: /home/esb/DFT/gpaw-setups-0.8.7929/C.PBE.gz
  cutoffs: 0.64(comp), 1.14(filt), 1.14(core), lmax=2
  valence states:
                energy  radius
    2s(2.00)   -13.751   0.635
    2p(2.00)    -5.284   0.635
    *s          13.461   0.635
    *p          21.927   0.635
    *d           0.000   0.635

  LCAO basis set for C:
    Name: dzp
    File: /home/esb/DFT/gpaw-setups-0.8.7929/C.dzp.basis.gz
    Number of radial functions: 5
    Number of spherical harmonics: 13
      l=0, rc=5.5469 Bohr: 2s-sz confined orbital
      l=1, rc=6.6719 Bohr: 2p-sz confined orbital
      l=0, rc=3.0312 Bohr: 2s-dz split-valence wave
      l=1, rc=3.7500 Bohr: 2p-dz split-valence wave
      l=2, rc=6.6719 Bohr: d-type Gaussian polarization

Reference energy: -24663.074771

Spin-paired calculation

Occupation numbers:
  Fermi-Dirac: width=0.1000 eV

Convergence criteria:
  Maximum total energy change: 0.0005 eV / electron
  Maximum integral of absolute density change: 0.0001 electrons
  Maximum integral of absolute eigenstate change: 4e-08 eV^2
  Maximum number of iterations: 99

Symmetries present (total): 1

  ( 1  0  0)
  ( 0  1  0)
  ( 0  0  1)

1 k-point (Gamma)
1 k-point in the irreducible part of the Brillouin zone
       k-points in crystal coordinates                weights
   0:     0.00000000    0.00000000    0.00000000          1/1

Wave functions: LCAO
  Diagonalizer: Serial LAPACK
  Atomic Correction: dense with blas
  Datatype: float
  Eigensolver: None

LCAO using direct dense diagonalizer

Densities:
  Coarse grid: 80*80*48 grid
  Fine grid: 160*160*96 grid
  Total Charge: 0.000000

Density mixing:
  Method: separate
  Backend: pulay
  Linear mixing parameter: 0.05
  Mixing with 5 old densities
  Damping of long wave oscillations: 75

Hamiltonian:
  XC and Coulomb potentials evaluated on a 160*160*96 grid
  Using the PBE Exchange-Correlation functional
  Interpolation: tri-quintic (5. degree polynomial)
  Poisson solver: Gauss-Seidel solver with 6 multi-grid levels
    Coarsest grid: 5 x 5 x 3 points
    Stencil: 6*3+1=19 point O(h^6) finite-difference Laplacian
    Max iterations: 1000
    Tolerance: 1.000000e-07

Total number of cores used: 16
Domain decomposition: 2 x 4 x 2

Number of atoms: 24
Number of atomic orbitals: 312
Number of bands in calculation: 98
Bands to converge: occupied states only
Number of valence electrons: 96

... initialized

Initializing position-dependent things.

Density initialized from atomic densities
    /      |          C                           |
   /       |       C     C                        |
  /        |   C C                                |
 *         | C      C   C C    C                  |
 |         | C     C             C                |
 |         .---C-----C---C----C--C----------------.
 |        /    C           C                     /
 |       /       C  C  C  C                     /

Positions:
   0 C      5.548347    3.356786    4.939193
   1 C      8.125382    3.193699    4.772432
   2 C      6.878563    3.785099    5.003931
   3 C      4.509351    4.021253    5.177771
   4 C      9.254909    3.733691    4.872528
   5 C      6.994755    5.226605    5.413361
   6 C      4.436854    5.364954    5.565157
   7 C      5.792656    6.002502    5.695625
   8 C      8.308609    5.846477    5.541365
   9 C      6.081774   10.034463    6.912614
  10 C      7.330424    9.452124    6.667602
  11 C      4.949593    9.500842    6.807264
  12 C      7.216732    8.018755    6.230304
  13 C      4.661639    8.191085    6.405778
  14 C      5.903413    7.396757    6.106901
  15 C      8.419114    7.244377    5.946798
  16 C     10.617882    5.436876    5.189754
  17 C     11.276769    6.520440    5.168737
  18 C     10.922082    7.823306    5.173210
  19 C     10.003193    8.689628    5.189560
  20 C      3.281061    9.959600    5.555818
  21 C      9.279801    5.030768    5.236228
  22 C      2.910930    7.456615    5.627819
  23 C      2.779866    8.794726    5.616736

Unit cell:
           periodic     x           y           z      points  spacing
  1. axis:    yes   16.000000    0.000000    0.000000    80     0.2000
  2. axis:    yes    0.000000   16.000000    0.000000    80     0.2000
  3. axis:    yes    0.000000    0.000000   10.000000    48     0.2083

Effective grid spacing dv^(1/3) = 0.2027

                     log10-error:    total        iterations:
           time      wfs    density  energy       fermi  poisson
iter:   1  10:52:53          +inf  -175.754957    3      6
iter:   2  10:52:54         -0.88  -174.548585    3      3
iter:   3  10:52:55         -0.92  -173.625537    4      3
iter:   4  10:52:55         -0.97  -171.508406    35     4
iter:   5  10:52:56         -1.18  -171.087817    35     3
iter:   6  10:52:57         -1.36  -170.950479    34     3
iter:   7  10:52:57         -1.58  -170.948334    3      3
iter:   8  10:52:58         -1.70  -170.924746    3      2
iter:   9  10:52:58         -1.79  -170.887008    3      3
iter:  10  10:52:59         -1.99  -170.874790    3      2
iter:  11  10:53:00         -2.23  -170.865104    3      2
iter:  12  10:53:00         -2.39  -170.860232    2      2
iter:  13  10:53:01         -2.56  -170.858815    2      2
iter:  14  10:53:01         -2.69  -170.858481    2      2
iter:  15  10:53:02         -2.83  -170.868199    2      1
iter:  16  10:53:03         -2.91  -170.873454    2      1
iter:  17  10:53:03         -3.06  -170.866711    2      1
iter:  18  10:53:04         -3.20  -170.860081    2      1
iter:  19  10:53:04         -3.27  -170.859257    2      1
iter:  20  10:53:05         -3.47  -170.855962    2      1
iter:  21  10:53:06         -3.80  -170.855986    2      1
iter:  22  10:53:06         -3.89  -170.856086    2      1
iter:  23  10:53:07         -4.06  -170.856236    2      1

Converged after 23 iterations.

Dipole moment: (0.168146, -0.968307, 0.058944) |e|*Ang

Energy contributions relative to reference atoms: (reference = -24663.074771)

Kinetic:       +113.133901
Potential:     -118.395919
External:        +0.000000
XC:            -168.343056
Entropy (-ST):   -0.375241
Local:           +2.936459
Free energy:   -171.043857
Extrapolated:  -170.856236

Fermi level: -4.39671

 Band  Eigenvalues  Occupancy
    0    -23.11382    2.00000
    1    -21.85280    2.00000
    2    -21.53207    2.00000
    3    -20.66909    2.00000
    4    -20.34977    2.00000
    5    -20.00245    2.00000
    6    -19.30932    2.00000
    7    -19.11639    2.00000
    8    -18.64737    2.00000
    9    -17.90739    2.00000
   10    -17.51169    2.00000
   11    -16.68079    2.00000
   12    -16.36197    2.00000
   13    -15.79108    2.00000
   14    -15.68856    2.00000
   15    -15.18586    2.00000
   16    -14.22180    2.00000
   17    -14.08624    2.00000
   18    -13.01509    2.00000
   19    -12.63863    2.00000
   20    -12.57746    2.00000
   21    -12.06920    2.00000
   22    -11.08216    2.00000
   23    -10.85681    2.00000
   24    -10.78273    2.00000
   25    -10.29107    2.00000
   26     -9.89376    2.00000
   27     -9.76739    2.00000
   28     -9.41931    2.00000
   29     -9.23799    2.00000
   30     -8.70198    2.00000
   31     -8.43313    2.00000
   32     -8.36626    2.00000
   33     -8.21804    2.00000
   34     -8.02608    2.00000
   35     -7.55513    2.00000
   36     -7.37365    2.00000
   37     -7.15776    2.00000
   38     -7.10202    2.00000
   39     -6.97742    2.00000
   40     -6.81672    2.00000
   41     -6.41799    2.00000
   42     -6.03906    2.00000
   43     -5.61610    1.99999
   44     -5.51495    1.99997
   45     -5.40816    1.99992
   46     -4.66079    1.86688
   47     -4.42653    1.14799
   48     -4.36802    0.85749
   49     -4.11675    0.11469
   50     -3.81072    0.00569
   51     -3.80317    0.00527
   52     -3.71095    0.00210
   53     -3.22495    0.00002
   54     -2.76875    0.00000
   55     -2.73807    0.00000
   56     -2.06739    0.00000
   57     -1.93483    0.00000
   58     -1.39970    0.00000
   59     -1.02701    0.00000
[...]
   83      8.91915    0.00000
   84      9.00282    0.00000
   85      9.20112    0.00000
   86      9.28659    0.00000
   87      9.33023    0.00000
   88      9.46548    0.00000
   89      9.52570    0.00000
   90      9.63689    0.00000
   91      9.76369    0.00000
   92      9.88153    0.00000
   93     10.09393    0.00000
   94     10.12192    0.00000
   95     10.21964    0.00000
   96     10.28797    0.00000
   97     10.40541    0.00000

Forces in eV/Ang:
  0 C     1.34376   -1.22307   -0.34814
  1 C    -0.63929   -0.78652   -0.22238
  2 C    -0.79362    0.17579    0.11686
  3 C    -1.43140    3.76118    0.99437
  4 C    -1.90719   -3.28923   -0.82001
  5 C    -1.42881   -0.07719    0.35306
  6 C     1.98953   -0.95135   -0.62571
  7 C    -1.67322   -0.80272   -0.27590
  8 C    -5.58094    4.18486    1.50226
  9 C     6.57500   -0.35210   -0.86754
 10 C    -2.90998   -0.12033    0.70949
 11 C    -5.88209   -0.72325   -1.47000
 12 C     2.20305    0.95839   -0.11444
 13 C     1.85741   -3.30404   -0.34237
 14 C    -1.60864    0.50604    0.62768
 15 C    -1.27854    1.08904   -1.21244
 16 C     1.83045    2.30427    0.63910
 17 C    -0.13926   -0.46035   -0.41066
 18 C     1.86423   -2.18928    0.27866
 19 C    -3.50551    1.40401    1.00859
 20 C     1.57985    4.60321    0.30187
 21 C     8.91581   -1.71459   -0.90751
 22 C     2.36843   -0.30227    1.39179
 23 C    -1.78198   -2.73045   -0.28084

System changes: positions

[...]

Density initialized from wave functions
    /      |          C                           |
   /       |       C     C                        |
  /        |   C C                                |
 *         | C      C   C C    C                  |
 |         | C     C             C                |
 |         .---C-----C---C----C--C----------------.
 |        /   C            C                     /
 |       /       C  C  C  C                     /

[...]

Density initialized from wave functions
[...]
  /        |    C C                               |
 *         | C      C   C C   C                   |
 |         |       C            C                 |
 |         .---C-----C---C-----C-C----------------.
 |        /    C           C                     /
 |       /      C   C  C  C                     /

[...]

Density initialized from wave functions
   /       |      C   C C                         |
  /        |    C C                               |
 *         | CC     C   C C   C                   |
 |         |       C            C                 |
 |         .---C-----C---C-----C-C----------------.
 |        /    C           C                     /
 |       /      C   C  C  C                     /

[...]

Density initialized from wave functions
   /       |      C   C C                         |
  /        |    CC                                |
 *         | CC     C   C C   C                   |
 |         |       C            C                 |
 |         .---C-----C---C-----C-C----------------.
 |        /    C           C                     /
 |       /      C   C C   C                     /

[...]

Density initialized from wave functions
   /       |      C   C C                         |
  /        |    C C                               |
 *         | CC     C   C C   C                   |
 |         |       C            C                 |
 |         .---C-----C---C-----C-C----------------.
 |        /    C           C                     /
 |       /      C   C C   C                     /

[...]

Density initialized from wave functions
   /       |      C   C C                         |
  /        |    C C                               |
 *         | CC     C   C     C                   |
 |         |       C      C     C                 |
 |         .---C-----C---C-----C-C----------------.
 |        /    C           C                     /
 |       /      C   C C   C                     /

[...]

Density initialized from wave functions
   /       |      C   C C                         |
  /        |   C  C                               |
 *         |  C     C   C    C                    |
 |         |       C      C     C                 |
 |         .---C-----C---C-----C-C----------------.
 |        /    C            C                    /
 |       /      C   C C   C                     /

[...]

Density initialized from wave functions
   /       |      C   C C                         |
  /        |   C  C                               |
 *         |  C     C   C    C                    |
 |         |       C      C     C                 |
 |         .---C-----C---C-----C-C----------------.
 |        /    C            C                    /
 |       /      C   C C   C                     /

[...]

Density initialized from wave functions
   /       |      C   C C                         |
  /        |   C  C                               |
 *         |  CC    C   C    C                    |
 |         |       C      C     C                 |
 |         .---C-----C---C-----C-C----------------.
 |        /    C           C                     /
 |       /      C   C C   C                     /

[...]

Density initialized from wave functions
   /       |      C   C C                         |
  /        |   C  C     C                         |
 *         |  CC    C        C                    |
 |         |       C      C     C                 |
 |         .---C-----C---C-----C-C----------------.
 |        /    C           C                     /
 |       /      C   C C   C                     /

[...]

Density initialized from wave functions
   /       |      C   C C                         |
  /        |   C  C     C                         |
 *         |  CC    C        C                    |
 |         |       C      C     C                 |
 |         .---C-----C---C-----C-C----------------.
 |        /    C           C                     /
 |       /      C   C C   C                     /

[...]

Density initialized from wave functions
   /       |      C   C C                         |
  /        |   C  C     C                         |
 *         |  CC    C     C  C                    |
 |         |       C            C                 |
 |         .----C----C---C-----C-C----------------.
 |        /    C           C                     /
 |       /      C   C C   C                     /

[...]

Density initialized from wave functions
   /       |      C   C C                         |
  /        |   C  C     C                         |
 *         | C C    C     C  C                    |
 |         |       C            C                 |
 |         .----C----C---C-----C-C----------------.
 |        /    C           C                     /
 |       /      C   C C   C                     /

[...]

Density initialized from wave functions
   /       |      C   C C                         |
  /        |   C  C     C                         |
 *         | C C     C    C   C                   |
 |         |       C            C                 |
 |         .----C----C---C-----C-C----------------.
 |        /    C           C                     /
 |       /      C   C C  C                      /

[...]

Density initialized from wave functions
   /       |          C C                         |
  /        |   C  C     C                         |
 *         | C C     C    C   C                   |
 |         |       C             C                |
 |         .----C----C---C-------C----------------.
 |        /    C           C   C                 /
 |       /      C   C C  C                      /

[...]

Density initialized from wave functions
   /       |          C C                         |
  /        |   C  C     C                         |
 *         | C C     C    C   C                   |
 |         |       C             C                |
 |         .----C----C---C-------C----------------.
 |        /    C           C   C                 /
 |       /      C   C C  C                      /

[...]

Density initialized from wave functions
   /       |          C C                         |
  /        |   C  C     C                         |
 *         | C C     C    C   C                   |
 |         |       C             C                |
 |         .----C----C---C------C-----------------.
 |        /    C           C   C                 /
 |       /      C   C C  C                      /

[...]

Density initialized from wave functions
   /       |          C C                         |
  /        |   C  C     C                         |
 *         | C C     C    C   C                   |
 |         |       C             C                |
 |         .----C----C---C------C-----------------.
 |        /    C           C   C                 /
 |       /      C   C C  C                      /

[...]

Density initialized from wave functions
   /       |          C C                         |
  /        |   C  C     C                         |
 *         | C C     C    C   C  C                |
 |         |       C                              |
 |         .----C----C---C------C-----------------.
 |        /    C           C   C                 /
 |       /      C   C C  C                      /

[...]

Density initialized from wave functions
   /       |          C                           |
  /        |   C  C     C                         |
 *         | C C     C    C   C  C                |
 |         |       C                              |
 |         .----C----C---C------C-----------------.
 |        /    C           C   C                 /
 |       /      C   C C  C                      /

[...]

Density initialized from wave functions
   /       |          C                           |
  /        |   C  C     C                         |
 *         | C C     C    C   C  C                |
 |         |       C                              |
 |         .----C----C---C------C-----------------.
 |        /    C           C   C                 /
 |       /      C   C C  C                      /

[...]

Density initialized from wave functions
   /       |          C                           |
  /        |   C  C     C                         |
 *         | C C     C  C C   C  C                |
 |         |       C            C                 |
 |         .----C----C---C------------------------.
 |        /    C           C   C                 /
 |       /      C   C C  C                      /

[...]

Density initialized from wave functions
   /       |          C                           |
  /        |   C  C     C                         |
 *         | C C     C  C C   C  C                |
 |         |       C            C                 |
 |         .----C----C---C-----C------------------.
 |        /    C           C                     /
 |       /      C   C C  C                      /

[...]

Density initialized from wave functions
   /       |          C                           |
  /        |   C  C     C                         |
 *         | C C     C  C C   C  C                |
 |         |       C            C                 |
 |         .----C----C---C-----C------------------.
 |        /    C           C                     /
 |       /      C   C C  C                      /

[...]

Density initialized from wave functions
   /       |          C                           |
  /        |   C  C     C                         |
 *         | C C     C  C C   C  C                |
 |         |    C  C            C                 |
 |         .---------C---C-----C------------------.
 |        /    C           C                     /
 |       /      C   C C  C                      /

[...]

Density initialized from wave functions
   /       |          C                           |
  /        |   C  C     C                         |
 *         | C C     C  C C   C  C                |
 |         |    C  C            C                 |
 |         .---------C---C-----C------------------.
 |        /    C           C                     /
 |       /      C   C C  C                      /

[...]

Density initialized from wave functions
   /       |          C                           |
  /        |   C  C     C                         |
 *         | C C     C    C   C  C                |
 |         |    C  C            C                 |
 |         .---------C---C-----C------------------.
 |        /    C           C                     /
 |       /      C   C C  C                      /

[...]

System changes: positions

Initializing position-dependent things.

Density initialized from wave functions
   /       |          C                           |
  /        |   C  C     C                         |
 *         | C C     C    C   C  C                |
 |         |    C  C            C                 |
 |         .---------C---C-----C------------------.
 |        /   C            C                     /
 |       /      C   C C  C                      /

Positions:
   0 C      5.226857    3.750034    4.871728
   1 C      7.828970    3.220959    4.710891
   2 C      6.624088    3.882990    4.994152
   3 C      4.350166    4.615233    5.185954
   4 C      9.021963    3.627017    4.817823
   5 C      6.970453    5.222670    5.556754
   6 C      4.450968    5.909206    5.726700
   7 C      5.927822    6.069831    5.971813
   8 C      8.311299    5.779283    5.572691
   9 C      5.991744   10.012670    6.296697
  10 C      7.153159    9.476422    6.310743
  11 C      4.696028    9.434889    6.265489
  12 C      7.430763    8.070011    6.240706
  13 C      4.943852    8.023854    6.489085
  14 C      6.190631    7.387407    6.401922
  15 C      8.536587    7.201613    5.862819
  16 C     10.734691    5.529216    5.162138
  17 C     11.038655    6.785276    5.277637
  18 C     11.080323    8.220092    5.407091
  19 C      9.854505    7.679203    5.669321
  20 C      3.264794    9.445646    5.936889
  21 C      9.477709    4.906592    5.165769
  22 C      3.834411    7.169325    6.051192
  23 C      2.914241    8.232495    5.679791

Unit cell:
           periodic     x           y           z      points  spacing
  1. axis:    yes   16.000000    0.000000    0.000000    80     0.2000
  2. axis:    yes    0.000000   16.000000    0.000000    80     0.2000
  3. axis:    yes    0.000000    0.000000   10.000000    48     0.2083

Effective grid spacing dv^(1/3) = 0.2027

                     log10-error:    total        iterations:
           time      wfs    density  energy       fermi  poisson
iter:   1  11:05:22          +inf  -184.405842    2      4
iter:   2  11:05:23         -2.87  -184.401510    2      1
iter:   3  11:05:23         -3.03  -184.397390    2      1
iter:   4  11:05:24         -3.22  -184.399445    2      1
iter:   5  11:05:25         -3.35  -184.397086    2      1
iter:   6  11:05:25         -3.51  -184.396556    2      1
iter:   7  11:05:26         -3.66  -184.399683    2      1
iter:   8  11:05:27         -3.37  -184.396963    2      1
iter:   9  11:05:27         -4.11  -184.397072    2      1

Converged after 9 iterations.

Dipole moment: (0.445355, -0.403108, -0.027252) |e|*Ang

Energy contributions relative to reference atoms: (reference = -24663.074771)

Kinetic:       +115.176883
Potential:     -121.401476
External:        +0.000000
XC:            -181.131934
Entropy (-ST):   -0.127667
Local:           +3.023287
Free energy:   -184.460906
Extrapolated:  -184.397072

Fermi level: -4.16061

 Band  Eigenvalues  Occupancy
    0    -23.68464    2.00000
    1    -22.79915    2.00000
    2    -22.01780    2.00000
    3    -21.20173    2.00000
    4    -20.95197    2.00000
    5    -20.14370    2.00000
    6    -19.63493    2.00000
    7    -19.36880    2.00000
    8    -18.68804    2.00000
    9    -18.02202    2.00000
   10    -17.32445    2.00000
   11    -17.05889    2.00000
   12    -16.67315    2.00000
   13    -15.78507    2.00000
   14    -15.13175    2.00000
   15    -14.74077    2.00000
   16    -14.26309    2.00000
   17    -13.41514    2.00000
   18    -13.01185    2.00000
   19    -12.80365    2.00000
   20    -12.47854    2.00000
   21    -11.97884    2.00000
   22    -11.75234    2.00000
   23    -11.37141    2.00000
   24    -11.17300    2.00000
   25    -10.90624    2.00000
   26    -10.36472    2.00000
   27    -10.18741    2.00000
   28    -10.13498    2.00000
   29    -10.01923    2.00000
   30     -9.55443    2.00000
   31     -9.46319    2.00000
   32     -9.15705    2.00000
   33     -8.85051    2.00000
   34     -8.62529    2.00000
   35     -8.53133    2.00000
   36     -7.70365    2.00000
   37     -7.20320    2.00000
   38     -6.76272    2.00000
   39     -6.57177    2.00000
   40     -6.53773    2.00000
   41     -6.33025    2.00000
   42     -6.24906    2.00000
   43     -6.06040    2.00000
   44     -5.51724    2.00000
   45     -5.44770    1.99999
   46     -4.97348    1.99941
   47     -4.38893    1.81495
   48     -3.92777    0.17760
   49     -3.59961    0.00730
   50     -3.36877    0.00073
   51     -3.01224    0.00002
   52     -2.58150    0.00000
   53     -2.54949    0.00000
   54     -2.42187    0.00000
   55     -1.57306    0.00000
   56     -1.01177    0.00000
   57     -0.40607    0.00000
   58      0.51012    0.00000
   59      0.75110    0.00000
[...]
   83      8.98244    0.00000
   84      9.03280    0.00000
   85      9.20918    0.00000
   86      9.35126    0.00000
   87      9.46022    0.00000
   88      9.62549    0.00000
   89      9.71951    0.00000
   90      9.79414    0.00000
   91      9.92678    0.00000
   92     10.02201    0.00000
   93     10.18619    0.00000
   94     10.35364    0.00000
   95     10.46549    0.00000
   96     10.53545    0.00000
   97     10.67481    0.00000

Forces in eV/Ang:
  0 C    -0.04518   -0.01910    0.02272
  1 C    -0.02798   -0.02974   -0.05159
  2 C    -0.02224    0.00857   -0.00227
  3 C    -0.01764    0.02117    0.01785
  4 C     0.03997   -0.03348   -0.00224
  5 C    -0.00313    0.01577    0.03408
  6 C     0.02507   -0.00997    0.03626
  7 C     0.01092    0.03626    0.02559
  8 C     0.01648    0.00257    0.00536
  9 C     0.02247   -0.01743   -0.01756
 10 C    -0.02850   -0.03717   -0.03872
 11 C     0.06947   -0.03194    0.02482
 12 C     0.01041    0.01156    0.00615
 13 C     0.01446   -0.01961   -0.02721
 14 C    -0.00247    0.03263   -0.00955
 15 C    -0.00501    0.03764    0.02915
 16 C     0.01978   -0.00618   -0.06560
 17 C     0.04944    0.04753   -0.02650
 18 C     0.03753   -0.01933    0.08447
 19 C    -0.06270    0.04284    0.02734
 20 C    -0.03769    0.02667   -0.00672
 21 C    -0.02927    0.03845   -0.00109
 22 C    -0.04903   -0.02318   -0.01849
 23 C     0.06303   -0.01507   -0.02955