User:   esb@s65n32.grendel.cscaa.dk
Date:   Thu Nov  9 09:52:30 2017
Arch:   x86_64
Pid:    22146
Python: 2.7.13
gpaw:   /home/esb/DFT/gpaw_git/gpaw
_gpaw:  /home/esb/DFT/gpaw_git/build/bin.linux-x86_64-2.7/gpaw-python
ase:    /home/esb/DFT/ase_git/ase (version 3.15.0b1)
numpy:  /comm/swstack/core/python/2.7.13/lib/python2.7/site-packages/numpy (version 1.13.3)
scipy:  /comm/swstack/core/python/2.7.13/lib/python2.7/site-packages/scipy (version 0.19.1)
units:  Angstrom and eV
cores:  16
Extra parameters: {'blacs': True}

Input parameters:
  basis: dzp
  gpts: [80 80 48]
  kpts: [1 1 1]
  maxiter: 99
  mixer: {backend: pulay,
          beta: 0.05,
          method: separate,
          nmaxold: 5,
          weight: 75}
  mode: lcao
  nbands: -50
  occupations: {name: fermi-dirac,
                width: 0.1}
  poissonsolver: {eps: 1e-07,
                  name: fd,
                  nn: 3,
                  relax: GS}
  xc: PBE

System changes: positions, numbers, cell, pbc, initial_charges, initial_magmoms

Initialize ...

C-setup:
  name: Carbon
  id: 4aa54d4b901d75f77cc0ea3eec22967b
  Z: 6
  valence: 4
  core: 2
  charge: 0.0
  file: /home/esb/DFT/gpaw-setups-0.8.7929/C.PBE.gz
  cutoffs: 0.64(comp), 1.14(filt), 1.14(core), lmax=2
  valence states:
                energy  radius
    2s(2.00)   -13.751   0.635
    2p(2.00)    -5.284   0.635
    *s          13.461   0.635
    *p          21.927   0.635
    *d           0.000   0.635

  LCAO basis set for C:
    Name: dzp
    File: /home/esb/DFT/gpaw-setups-0.8.7929/C.dzp.basis.gz
    Number of radial functions: 5
    Number of spherical harmonics: 13
      l=0, rc=5.5469 Bohr: 2s-sz confined orbital
      l=1, rc=6.6719 Bohr: 2p-sz confined orbital
      l=0, rc=3.0312 Bohr: 2s-dz split-valence wave
      l=1, rc=3.7500 Bohr: 2p-dz split-valence wave
      l=2, rc=6.6719 Bohr: d-type Gaussian polarization

Reference energy: -24663.074771

Spin-paired calculation

Occupation numbers:
  Fermi-Dirac: width=0.1000 eV

Convergence criteria:
  Maximum total energy change: 0.0005 eV / electron
  Maximum integral of absolute density change: 0.0001 electrons
  Maximum integral of absolute eigenstate change: 4e-08 eV^2
  Maximum number of iterations: 99

Symmetries present (total): 1

  ( 1  0  0)
  ( 0  1  0)
  ( 0  0  1)

1 k-point (Gamma)
1 k-point in the irreducible part of the Brillouin zone
       k-points in crystal coordinates                weights
   0:     0.00000000    0.00000000    0.00000000          1/1

Wave functions: LCAO
  Diagonalizer: Serial LAPACK
  Atomic Correction: dense with blas
  Datatype: float
  Eigensolver: None

LCAO using direct dense diagonalizer

Densities:
  Coarse grid: 80*80*48 grid
  Fine grid: 160*160*96 grid
  Total Charge: 0.000000

Density mixing:
  Method: separate
  Backend: pulay
  Linear mixing parameter: 0.05
  Mixing with 5 old densities
  Damping of long wave oscillations: 75

Hamiltonian:
  XC and Coulomb potentials evaluated on a 160*160*96 grid
  Using the PBE Exchange-Correlation functional
  Interpolation: tri-quintic (5. degree polynomial)
  Poisson solver: Gauss-Seidel solver with 6 multi-grid levels
    Coarsest grid: 5 x 5 x 3 points
    Stencil: 6*3+1=19 point O(h^6) finite-difference Laplacian
    Max iterations: 1000
    Tolerance: 1.000000e-07

Total number of cores used: 16
Domain decomposition: 2 x 4 x 2

Number of atoms: 24
Number of atomic orbitals: 312
Number of bands in calculation: 98
Bands to converge: occupied states only
Number of valence electrons: 96

... initialized

Initializing position-dependent things.

Density initialized from atomic densities
  /        |    C     C  C  C                     |
 *         |        C         C  C                |
 |         C C       C   C        C               |
 |         .---C----CC------C--C---C--------------.
 |        /    C     C   CC                      /
 |       /       C     C                        /

Positions:
   0 C     10.714943    6.713765    5.040716
   1 C     12.105175    6.472709    4.773346
   2 C     11.572961    8.334422    4.687111
   3 C     10.958559    9.162022    4.984830
   4 C      9.367469    4.132462    5.116581
   5 C      9.519101    5.543678    5.209460
   6 C      9.684321    9.179426    5.015138
   7 C      5.378194    8.712916    5.802876
   8 C      5.713535    3.344428    5.326439
   9 C      2.720154    7.859607    5.107347
  10 C      7.474601    9.965105    5.679214
  11 C      6.241915    9.843237    5.865144
  12 C      6.110368    6.381896    5.365168
  13 C      8.349364    3.398632    5.171257
  14 C      7.701780    7.586696    5.400398
  15 C      4.373421    5.075565    5.625785
  16 C      8.398096    5.672562    4.527958
  17 C      6.237274    7.531132    5.555899
  18 C      7.023028    3.875364    5.245263
  19 C      3.962109    8.671975    5.906811
  20 C      4.691322    4.070902    5.432875
  21 C      8.557080    9.237150    5.941118
  22 C      2.723035    6.136324    5.950055
  23 C      7.020796    5.340016    5.298345

Unit cell:
           periodic     x           y           z      points  spacing
  1. axis:    yes   16.000000    0.000000    0.000000    80     0.2000
  2. axis:    yes    0.000000   16.000000    0.000000    80     0.2000
  3. axis:    yes    0.000000    0.000000   10.000000    48     0.2083

Effective grid spacing dv^(1/3) = 0.2027

                     log10-error:    total        iterations:
           time      wfs    density  energy       fermi  poisson
iter:   1  09:52:31          +inf  -160.318474    3      6
iter:   2  09:52:32         -0.88  -158.387926    4      3
iter:   3  09:52:32         -0.93  -155.523066    4      3
iter:   4  09:52:33         -1.01  -154.758429    4      3
iter:   5  09:52:34         -1.09  -153.788039    33     3
iter:   6  09:52:34         -1.26  -153.617652    33     3
iter:   7  09:52:35         -1.42  -153.433204    4      3
iter:   8  09:52:36         -1.67  -153.408617    3      3
iter:   9  09:52:36         -1.80  -153.386376    3      2
iter:  10  09:52:37         -1.90  -153.370998    3      2
iter:  11  09:52:37         -2.01  -153.364160    3      3
iter:  12  09:52:38         -2.14  -153.359823    3      2
iter:  13  09:52:38         -2.21  -153.353676    3      2
iter:  14  09:52:39         -2.43  -153.347216    3      2
iter:  15  09:52:40         -2.66  -153.344311    3      2
iter:  16  09:52:40         -2.90  -153.341606    3      2
iter:  17  09:52:41         -3.06  -153.343759    2      1
iter:  18  09:52:41         -3.15  -153.343107    2      1
iter:  19  09:52:42         -3.32  -153.340847    2      1
iter:  20  09:52:42         -3.48  -153.338387    2      1
iter:  21  09:52:43         -3.61  -153.337368    2      1
iter:  22  09:52:44         -3.76  -153.337432    2      1
iter:  23  09:52:44         -3.88  -153.338278    2      1
iter:  24  09:52:45         -3.95  -153.339437    2      1
iter:  25  09:52:45         -4.03  -153.339977    2      1

Converged after 25 iterations.

Dipole moment: (0.347870, 0.072051, 0.079242) |e|*Ang

Energy contributions relative to reference atoms: (reference = -24663.074771)

Kinetic:       +158.616505
Potential:     -148.586184
External:        +0.000000
XC:            -166.094180
Entropy (-ST):   -0.390662
Local:           +2.919212
Free energy:   -153.535308
Extrapolated:  -153.339977

Fermi level: -4.28373

 Band  Eigenvalues  Occupancy
    0    -23.20620    2.00000
    1    -22.52011    2.00000
    2    -22.24352    2.00000
    3    -21.45730    2.00000
    4    -20.85708    2.00000
    5    -19.80398    2.00000
    6    -19.59854    2.00000
    7    -18.51051    2.00000
    8    -18.05008    2.00000
    9    -17.74672    2.00000
   10    -17.25219    2.00000
   11    -16.26384    2.00000
   12    -15.80317    2.00000
   13    -15.33824    2.00000
   14    -15.08355    2.00000
   15    -14.06531    2.00000
   16    -13.85443    2.00000
   17    -13.24761    2.00000
   18    -12.89380    2.00000
   19    -12.41711    2.00000
   20    -12.14628    2.00000
   21    -11.88616    2.00000
   22    -11.39392    2.00000
   23    -11.07670    2.00000
   24    -10.66313    2.00000
   25    -10.55014    2.00000
   26    -10.07408    2.00000
   27     -9.85267    2.00000
   28     -9.68789    2.00000
   29     -9.24496    2.00000
   30     -8.85231    2.00000
   31     -8.58749    2.00000
   32     -8.50156    2.00000
   33     -8.31927    2.00000
   34     -7.84661    2.00000
   35     -7.65080    2.00000
   36     -7.34992    2.00000
   37     -7.22115    2.00000
   38     -6.77549    2.00000
   39     -6.47957    2.00000
   40     -6.34193    2.00000
   41     -6.21014    2.00000
   42     -5.98752    2.00000
   43     -5.71883    2.00000
   44     -5.36948    1.99996
   45     -5.15142    1.99966
   46     -4.64020    1.94495
   47     -4.28788    1.02077
   48     -4.21730    0.67956
   49     -4.12712    0.34556
   50     -3.74516    0.00912
   51     -3.38963    0.00026
   52     -3.29834    0.00011
   53     -3.22090    0.00005
   54     -2.80419    0.00000
   55     -2.71700    0.00000
   56     -2.57605    0.00000
   57     -2.00851    0.00000
   58     -1.60632    0.00000
   59     -1.41656    0.00000
[...]
   83      8.41149    0.00000
   84      8.43834    0.00000
   85      8.60003    0.00000
   86      8.80076    0.00000
   87      8.98890    0.00000
   88      9.01976    0.00000
   89      9.09467    0.00000
   90      9.27578    0.00000
   91      9.37926    0.00000
   92      9.53886    0.00000
   93      9.68064    0.00000
   94      9.76055    0.00000
   95      9.81167    0.00000
   96     10.06609    0.00000
   97     10.15482    0.00000

Forces in eV/Ang:
  0 C     3.19456   -4.63127   -0.16647
  1 C    -4.16280    3.88392    0.44591
  2 C    18.63594  -27.14537   -7.19744
  3 C   -14.02034   21.96759    6.62528
  4 C     2.03320    0.04619    0.39084
  5 C     6.27260    2.24868   -0.25206
  6 C    -6.36427    3.24585    4.07556
  7 C    -1.54549    1.18188   -0.12250
  8 C     4.92243   -2.87781   -0.69609
  9 C     4.99380    0.08738    4.66136
 10 C    -2.09276    1.21376    0.73561
 11 C    -1.84740    0.40215    0.39612
 12 C    -3.75898  -20.41650   -1.82702
 13 C    -0.73576   -1.52014    0.18189
 14 C     1.06925    1.37637    0.30033
 15 C   -12.90539   32.36837    5.98844
 16 C    -7.32630    4.42482    2.33514
 17 C     3.54087   17.02892    2.24169
 18 C    -2.72565   -1.45085    0.83523
 19 C    -3.43909   -4.06225   -3.49909
 20 C     6.39043  -25.44215   -4.63667
 21 C     4.20387   -3.00254   -4.69378
 22 C     3.15391    1.32017   -1.94926
 23 C     2.45836   -0.16277   -4.13248

System changes: positions

[...]

Density initialized from wave functions
  /        |    C     C  C  C                     |
 *         |        C         C  C                |
 |         C C       C   C        C               |
 |         .---C----CC------C--C---C--------------.
 |        /    C     C   CC                      /
 |       /       C     C                        /

[...]

Density initialized from wave functions
  /        |          C  C  C                     |
 *         |    C   C         C  C                |
 |         |CC       C   C        C               |
 |         .---C----CC------C--C---C--------------.
 |        /    C     C   CC                      /
 |       /       C     C                        /

[...]

Density initialized from wave functions
  /        |          C  C  C                     |
 *         |    C   C         C  C                |
 |         |CC       C   C        C               |
 |         .---C----C-C-----C--C---C--------------.
 |        /    C     C   CC                      /
 |       /       C     C                        /

[...]

Density initialized from wave functions
  /        |          C  C  C                     |
 *         |    C  C          C  C                |
 |         |CC       C   C        C               |
 |         .---C----C-C-----C--C---C--------------.
 |        /    C     C   CC                      /
 |       /       C      C                       /

[...]

Density initialized from wave functions
  /        |          C  C C                      |
 *         |    C  C          C  C                |
 |         |CC       C   C        C               |
 |         .---C---C--C-----C--C---C--------------.
 |        /    C     C   CC                      /
 |       /       C      C                       /

[...]

Density initialized from wave functions
  /        |          C  C C                      |
 *         |    C  C          C  C                |
 |         |CC       C   C        C               |
 |         .---C---C-C------C--C---C--------------.
 |        /    C     C   C C                     /
 |       /       C      C                       /

[...]

Density initialized from wave functions
  /        |          C  C C                      |
 *         |    C  C          C  C                |
 |         |CC       C   C        C               |
 |         .---C---C-C------C--C---C--------------.
 |        /    C     C   C C                     /
 |       /       C      C                       /

[...]

Density initialized from wave functions
  /        |          C  C C                      |
 *         |    C  C          C  C                |
 |         |CC       C   C        C               |
 |         .---C---C-C---C--C--C---C--------------.
 |        /    C     C     C                     /
 |       /       C      C                       /

[...]

Density initialized from wave functions
  /        |          C  C C                      |
 *         |    C  C          C  C                |
 |         |CC       C   C        C               |
 |         .---C---C-C---C--C--C---C--------------.
 |        /    C     C     C                     /
 |       /       C      C                       /

[...]

Density initialized from wave functions
  /        |          C  C                        |
 *         |    C  C       C  C  C                |
 |         |CC       C   C        C               |
 |         .---C---C-C---C--C--C---C--------------.
 |        /    C     C     C                     /
 |       /       C      C                       /

[...]

Density initialized from wave functions
  /        |          C  C                        |
 *         |    C  C       C  C  C                |
 |         |CC       C   C        C               |
 |         .---C---C-C---C--C--C---C--------------.
 |        /    C C   C     C                     /
 |       /              C                       /

[...]

Density initialized from wave functions
  /        |          C  C                        |
 *         |    C  C       C  C  C                |
 |         |CC       C   C        C               |
 |         .---C---C-C---C--C--C---C--------------.
 |        /    C C   C     C                     /
 |       /              C                       /

[...]

Density initialized from wave functions
  /        |          C  C                        |
 *         |    C  C       C  C  C                |
 |         |CC       C   C        C               |
 |         .---C---C-C---C--C--C--C---------------.
 |        /    C C   C     C                     /
 |       /              C                       /

[...]

Density initialized from wave functions
  /        |          C  C                        |
 *         |    C  C       C  C  C                |
 |         |CC       C   C        C               |
 |         .---C---C-C---C--C--C--C---------------.
 |        /    C C   C     C                     /
 |       /              C                       /

[...]

Density initialized from wave functions
  /        |          C  C                        |
 *         |    C  C       C  C  C                |
 |         |C C      C   C        C               |
 |         .---C---C-C---C--C--C--C---------------.
 |        /    C C   C     C                     /
 |       /              C                       /

[...]

Density initialized from wave functions
  /        |          C  C                        |
 *         |    C  C       C  C  C                |
 |         |C C      C  C         C               |
 |         .---C---C-C---C--C--C--C---------------.
 |        /    C C   C     C                     /
 |       /              C                       /

[...]

Density initialized from wave functions
  /        |          C  C                        |
 *         |    C  C       C  C  C                |
 |         | CC      C  C         C               |
 |         .---C---C-C---C--C--C--C---------------.
 |        /    C C   C     C                     /
 |       /              C                       /

[...]

Density initialized from wave functions
  /        |          C  C                        |
 *         |    C  C       C  C  C                |
 |         | CC      C  C         C               |
 |         .---C---C-C---C--C--C--C---------------.
 |        /    C C   C    C                      /
 |       /             C                        /

[...]

Density initialized from wave functions
  /        |          C  C                        |
 *         |    C  C       C  C  C                |
 |         | CC      C  C         C               |
 |         .---C---C-C---C--C--C--C---------------.
 |        /    C     C    C                      /
 |       /       C     C                        /

[...]

System changes: positions

Initializing position-dependent things.

Density initialized from wave functions
  /        |          C  C                        |
 *         |    C  C       C  C   C               |
 |         | CC      C  C         C               |
 |         .---C---C-C---C--C--C--C---------------.
 |        /    C    C     C                      /
 |       /       C     C                        /

Positions:
   0 C     10.728643    6.159257    4.941554
   1 C     11.794014    6.872692    4.845926
   2 C     11.622649    8.189244    4.753047
   3 C     10.957323    9.292659    5.046860
   4 C      9.362885    4.142559    5.018143
   5 C      9.482443    5.563186    5.090985
   6 C      9.679780    9.182303    5.208618
   7 C      5.343819    8.724480    5.718080
   8 C      5.693357    3.356820    5.328784
   9 C      3.447019    7.472851    5.680070
  10 C      7.452228    9.992248    5.635207
  11 C      6.214783    9.848498    5.769429
  12 C      5.783856    6.124643    5.463819
  13 C      8.333319    3.431194    5.127349
  14 C      7.674241    7.585511    5.405652
  15 C      4.445996    5.483178    5.487673
  16 C      8.168897    6.211899    5.278638
  17 C      6.204064    7.535559    5.538169
  18 C      7.001997    3.888478    5.258514
  19 C      3.926609    8.685694    5.782607
  20 C      4.664149    4.077567    5.412611
  21 C      8.349270    8.894844    5.412792
  22 C      3.203204    6.185329    5.576318
  23 C      6.992678    5.348772    5.325259

Unit cell:
           periodic     x           y           z      points  spacing
  1. axis:    yes   16.000000    0.000000    0.000000    80     0.2000
  2. axis:    yes    0.000000   16.000000    0.000000    80     0.2000
  3. axis:    yes    0.000000    0.000000   10.000000    48     0.2083

Effective grid spacing dv^(1/3) = 0.2027

                     log10-error:    total        iterations:
           time      wfs    density  energy       fermi  poisson
iter:   1  09:59:42          +inf  -184.539181    2      5
iter:   2  09:59:43         -2.91  -184.539002    2      1
iter:   3  09:59:43         -2.98  -184.539239    2      1
iter:   4  09:59:44         -3.20  -184.539471    2      1
iter:   5  09:59:45         -3.43  -184.539934    2      1
iter:   6  09:59:45         -3.62  -184.540353    2      1
iter:   7  09:59:46         -3.93  -184.540288    2      1
iter:   8  09:59:46         -3.91  -184.540546    2      1
iter:   9  09:59:47         -4.22  -184.540661    2      1

Converged after 9 iterations.

Dipole moment: (1.164475, 0.016055, -0.110447) |e|*Ang

Energy contributions relative to reference atoms: (reference = -24663.074771)

Kinetic:       +112.700683
Potential:     -121.308394
External:        +0.000000
XC:            -178.942206
Entropy (-ST):   -0.040755
Local:           +3.029634
Free energy:   -184.561038
Extrapolated:  -184.540661

Fermi level: -3.97498

 Band  Eigenvalues  Occupancy
    0    -22.48303    2.00000
    1    -21.81803    2.00000
    2    -21.57692    2.00000
    3    -20.96934    2.00000
    4    -20.56290    2.00000
    5    -20.07952    2.00000
    6    -19.68376    2.00000
    7    -19.54441    2.00000
    8    -18.44204    2.00000
    9    -18.21853    2.00000
   10    -17.45758    2.00000
   11    -17.16879    2.00000
   12    -16.51217    2.00000
   13    -15.93422    2.00000
   14    -15.44540    2.00000
   15    -15.04594    2.00000
   16    -14.01326    2.00000
   17    -13.64495    2.00000
   18    -13.44510    2.00000
   19    -13.01148    2.00000
   20    -12.67350    2.00000
   21    -12.18733    2.00000
   22    -11.75831    2.00000
   23    -11.65255    2.00000
   24    -10.73308    2.00000
   25    -10.55319    2.00000
   26    -10.35805    2.00000
   27    -10.26751    2.00000
   28     -9.71677    2.00000
   29     -9.57923    2.00000
   30     -9.47841    2.00000
   31     -9.26830    2.00000
   32     -9.09214    2.00000
   33     -8.72831    2.00000
   34     -8.49461    2.00000
   35     -7.79199    2.00000
   36     -7.44491    2.00000
   37     -7.28933    2.00000
   38     -7.14929    2.00000
   39     -6.69464    2.00000
   40     -6.52738    2.00000
   41     -6.28860    2.00000
   42     -6.16673    2.00000
   43     -5.97189    2.00000
   44     -5.68531    2.00000
   45     -5.39944    2.00000
   46     -4.81593    1.99955
   47     -4.36292    1.95951
   48     -3.58560    0.03992
   49     -3.16608    0.00061
   50     -3.11508    0.00037
   51     -2.82877    0.00002
   52     -2.74411    0.00001
   53     -2.65514    0.00000
   54     -2.60127    0.00000
   55     -2.29515    0.00000
   56     -1.39524    0.00000
   57     -1.09900    0.00000
   58     -0.81137    0.00000
   59      0.12408    0.00000
[...]
   83      8.89553    0.00000
   84      9.08579    0.00000
   85      9.13050    0.00000
   86      9.35761    0.00000
   87      9.55332    0.00000
   88      9.63422    0.00000
   89      9.66265    0.00000
   90      9.71149    0.00000
   91      9.84672    0.00000
   92      9.98741    0.00000
   93     10.29725    0.00000
   94     10.33628    0.00000
   95     10.40303    0.00000
   96     10.42561    0.00000
   97     10.47508    0.00000

Forces in eV/Ang:
  0 C    -0.02644   -0.00793    0.02805
  1 C    -0.07694   -0.00103    0.06293
  2 C    -0.00801    0.01632   -0.07125
  3 C     0.02013   -0.03213    0.05264
  4 C    -0.03131    0.05239    0.03796
  5 C    -0.02092    0.02394   -0.05911
  6 C    -0.00363    0.02965   -0.00855
  7 C     0.03561   -0.01167   -0.05482
  8 C    -0.01699   -0.03559   -0.03577
  9 C    -0.04448   -0.01371    0.00517
 10 C     0.01029    0.02066   -0.02585
 11 C    -0.01452    0.01604    0.00764
 12 C     0.02244   -0.01436   -0.02947
 13 C    -0.01762    0.02791   -0.02237
 14 C     0.08702    0.00843    0.02195
 15 C     0.01254   -0.04486    0.05642
 16 C     0.01962   -0.00793   -0.03686
 17 C     0.06850    0.02469   -0.03032
 18 C    -0.01871   -0.01122   -0.05387
 19 C    -0.00984    0.03725   -0.00346
 20 C     0.00954    0.01651   -0.01085
 21 C     0.02306    0.01326    0.00544
 22 C     0.00769   -0.04111    0.02250
 23 C    -0.00795   -0.00787    0.04802