User:   esb@s65n63.grendel.cscaa.dk
Date:   Wed Nov  8 14:13:01 2017
Arch:   x86_64
Pid:    72009
Python: 2.7.13
gpaw:   /home/esb/DFT/gpaw_git/gpaw
_gpaw:  /home/esb/DFT/gpaw_git/build/bin.linux-x86_64-2.7/gpaw-python
ase:    /home/esb/DFT/ase_git/ase (version 3.15.0b1)
numpy:  /comm/swstack/core/python/2.7.13/lib/python2.7/site-packages/numpy (version 1.13.3)
scipy:  /comm/swstack/core/python/2.7.13/lib/python2.7/site-packages/scipy (version 0.19.1)
units:  Angstrom and eV
cores:  16
Extra parameters: {'blacs': True}

Input parameters:
  basis: dzp
  gpts: [80 80 48]
  kpts: [1 1 1]
  maxiter: 99
  mixer: {backend: pulay,
          beta: 0.05,
          method: separate,
          nmaxold: 5,
          weight: 75}
  mode: lcao
  nbands: -50
  occupations: {name: fermi-dirac,
                width: 0.1}
  poissonsolver: {eps: 1e-07,
                  name: fd,
                  nn: 3,
                  relax: GS}
  xc: PBE

System changes: positions, numbers, cell, pbc, initial_charges, initial_magmoms

Initialize ...

C-setup:
  name: Carbon
  id: 4aa54d4b901d75f77cc0ea3eec22967b
  Z: 6
  valence: 4
  core: 2
  charge: 0.0
  file: /home/esb/DFT/gpaw-setups-0.8.7929/C.PBE.gz
  cutoffs: 0.64(comp), 1.14(filt), 1.14(core), lmax=2
  valence states:
                energy  radius
    2s(2.00)   -13.751   0.635
    2p(2.00)    -5.284   0.635
    *s          13.461   0.635
    *p          21.927   0.635
    *d           0.000   0.635

  LCAO basis set for C:
    Name: dzp
    File: /home/esb/DFT/gpaw-setups-0.8.7929/C.dzp.basis.gz
    Number of radial functions: 5
    Number of spherical harmonics: 13
      l=0, rc=5.5469 Bohr: 2s-sz confined orbital
      l=1, rc=6.6719 Bohr: 2p-sz confined orbital
      l=0, rc=3.0312 Bohr: 2s-dz split-valence wave
      l=1, rc=3.7500 Bohr: 2p-dz split-valence wave
      l=2, rc=6.6719 Bohr: d-type Gaussian polarization

Reference energy: -24663.074771

Spin-paired calculation

Occupation numbers:
  Fermi-Dirac: width=0.1000 eV

Convergence criteria:
  Maximum total energy change: 0.0005 eV / electron
  Maximum integral of absolute density change: 0.0001 electrons
  Maximum integral of absolute eigenstate change: 4e-08 eV^2
  Maximum number of iterations: 99

Symmetries present (total): 1

  ( 1  0  0)
  ( 0  1  0)
  ( 0  0  1)

1 k-point (Gamma)
1 k-point in the irreducible part of the Brillouin zone
       k-points in crystal coordinates                weights
   0:     0.00000000    0.00000000    0.00000000          1/1

Wave functions: LCAO
  Diagonalizer: Serial LAPACK
  Atomic Correction: dense with blas
  Datatype: float
  Eigensolver: None

LCAO using direct dense diagonalizer

Densities:
  Coarse grid: 80*80*48 grid
  Fine grid: 160*160*96 grid
  Total Charge: 0.000000

Density mixing:
  Method: separate
  Backend: pulay
  Linear mixing parameter: 0.05
  Mixing with 5 old densities
  Damping of long wave oscillations: 75

Hamiltonian:
  XC and Coulomb potentials evaluated on a 160*160*96 grid
  Using the PBE Exchange-Correlation functional
  Interpolation: tri-quintic (5. degree polynomial)
  Poisson solver: Gauss-Seidel solver with 6 multi-grid levels
    Coarsest grid: 5 x 5 x 3 points
    Stencil: 6*3+1=19 point O(h^6) finite-difference Laplacian
    Max iterations: 1000
    Tolerance: 1.000000e-07

Total number of cores used: 16
Domain decomposition: 2 x 4 x 2

Number of atoms: 24
Number of atomic orbitals: 312
Number of bands in calculation: 98
Bands to converge: occupied states only
Number of valence electrons: 96

... initialized

Initializing position-dependent things.

Density initialized from atomic densities
  /        |             C C     C                |
 *         |        C  C         C                |
 |         | C   C    C        C                  |
 |         .--C-C---C-----CC--C----C--------------.
 |        /         C            C               /
 |       /       C    C C    C                  /

Positions:
   0 C      4.957074   10.735038    4.448998
   1 C      5.775716    3.660885    4.870523
   2 C      3.232842    8.419182    4.341114
   3 C      8.001307   10.921092    5.052093
   4 C      6.817625   11.354088    4.558086
   5 C     11.655694    6.078421    4.700011
   6 C      9.889496    8.736725    4.497498
   7 C      6.077536    7.174304    4.325622
   8 C      8.662530    3.153978    5.265677
   9 C      6.963649    6.950972    5.737504
  10 C     10.248612    6.632931    4.792788
  11 C      4.588945    6.787994    4.954982
  12 C      8.994353    6.003097    5.168682
  13 C      6.812587    8.955051    5.247360
  14 C      7.550194    4.388850    4.733740
  15 C      4.061782    9.242409    4.328906
  16 C      4.768908    5.575734    5.227847
  17 C      9.179973    4.802947    5.692455
  18 C     11.136129    8.180440    5.366009
  19 C     10.425700   10.879250    5.185961
  20 C      3.382252    6.599764    5.353777
  21 C     11.913064    7.687019    4.490337
  22 C      6.455303    5.661617    4.363444
  23 C     10.393285    4.635914    4.616817

Unit cell:
           periodic     x           y           z      points  spacing
  1. axis:    yes   16.000000    0.000000    0.000000    80     0.2000
  2. axis:    yes    0.000000   16.000000    0.000000    80     0.2000
  3. axis:    yes    0.000000    0.000000   10.000000    48     0.2083

Effective grid spacing dv^(1/3) = 0.2027

                     log10-error:    total        iterations:
           time      wfs    density  energy       fermi  poisson
iter:   1  14:13:03          +inf  -135.290378    2      6
iter:   2  14:13:04         -0.87  -132.293800    3      3
iter:   3  14:13:04         -0.93  -130.492381    33     3
iter:   4  14:13:05         -0.98  -129.729254    3      2
iter:   5  14:13:05         -1.02  -129.055514    3      3
iter:   6  14:13:06         -1.12  -129.367631    3      3
iter:   7  14:13:06         -1.15  -128.654269    2      3
iter:   8  14:13:07         -1.27  -128.279193    4      3
iter:   9  14:13:07         -1.55  -128.171149    3      3
iter:  10  14:13:08         -1.79  -128.155410    3      3
iter:  11  14:13:08         -1.95  -128.145097    2      2
iter:  12  14:13:09         -2.03  -128.135752    3      2
iter:  13  14:13:09         -2.16  -128.129352    3      2
iter:  14  14:13:10         -2.33  -128.127961    3      2
iter:  15  14:13:10         -2.47  -128.126500    2      2
iter:  16  14:13:11         -2.72  -128.125583    2      2
iter:  17  14:13:11         -2.85  -128.128953    2      1
iter:  18  14:13:12         -2.95  -128.126720    2      1
iter:  19  14:13:12         -3.01  -128.127927    2      1
iter:  20  14:13:13         -3.17  -128.126781    2      1
iter:  21  14:13:13         -3.27  -128.125392    2      1
iter:  22  14:13:14         -3.41  -128.124109    2      1
iter:  23  14:13:14         -3.56  -128.122514    2      1
iter:  24  14:13:15         -3.72  -128.124332    2      1
iter:  25  14:13:15         -3.88  -128.123749    2      1
iter:  26  14:13:16         -4.02  -128.124204    2      1

Converged after 26 iterations.

Dipole moment: (0.696537, -0.219551, -0.000045) |e|*Ang

Energy contributions relative to reference atoms: (reference = -24663.074771)

Kinetic:        +41.182320
Potential:      -56.036613
External:        +0.000000
XC:            -115.507060
Entropy (-ST):   -0.470983
Local:           +2.472641
Free energy:   -128.359696
Extrapolated:  -128.124204

Fermi level: -4.80641

 Band  Eigenvalues  Occupancy
    0    -23.94989    2.00000
    1    -23.33439    2.00000
    2    -22.16986    2.00000
    3    -20.66238    2.00000
    4    -18.88454    2.00000
    5    -18.86767    2.00000
    6    -17.99672    2.00000
    7    -17.65129    2.00000
    8    -16.91816    2.00000
    9    -15.89100    2.00000
   10    -15.64310    2.00000
   11    -15.09338    2.00000
   12    -14.70214    2.00000
   13    -14.15399    2.00000
   14    -13.90722    2.00000
   15    -13.37206    2.00000
   16    -13.08100    2.00000
   17    -12.41128    2.00000
   18    -12.00083    2.00000
   19    -11.14285    2.00000
   20    -11.00406    2.00000
   21    -10.78102    2.00000
   22    -10.44103    2.00000
   23    -10.23387    2.00000
   24    -10.02725    2.00000
   25     -9.52070    2.00000
   26     -9.26853    2.00000
   27     -9.13655    2.00000
   28     -8.55086    2.00000
   29     -8.36378    2.00000
   30     -8.17897    2.00000
   31     -7.85051    2.00000
   32     -7.62427    2.00000
   33     -7.40423    2.00000
   34     -7.30656    2.00000
   35     -7.17899    2.00000
   36     -6.99243    2.00000
   37     -6.70621    2.00000
   38     -6.56135    2.00000
   39     -6.44430    2.00000
   40     -6.32967    2.00000
   41     -6.22116    2.00000
   42     -5.98444    1.99998
   43     -5.63397    1.99949
   44     -5.44267    1.99656
   45     -5.35523    1.99176
   46     -5.06186    1.85576
   47     -4.79539    0.94495
   48     -4.77000    0.81997
   49     -4.60134    0.22796
   50     -4.54341    0.13447
   51     -4.35884    0.02251
   52     -4.23289    0.00644
   53     -3.78929    0.00008
   54     -3.78107    0.00007
   55     -3.53818    0.00001
   56     -3.43085    0.00000
   57     -3.36396    0.00000
   58     -3.20931    0.00000
   59     -3.03938    0.00000
[...]
   83      4.03195    0.00000
   84      4.46044    0.00000
   85      4.56910    0.00000
   86      5.05433    0.00000
   87      5.76373    0.00000
   88      7.15189    0.00000
   89      7.72709    0.00000
   90      7.76114    0.00000
   91      8.04444    0.00000
   92      8.75636    0.00000
   93      8.87712    0.00000
   94      9.02966    0.00000
   95      9.12211    0.00000
   96      9.20343    0.00000
   97      9.32944    0.00000

Forces in eV/Ang:
  0 C    -0.41545   -2.78258    0.50142
  1 C     1.60804    3.86043    0.06063
  2 C    -8.43123   -8.50500    0.82172
  3 C     0.02753    0.25636   -0.88616
  4 C    -0.54812   -2.94768    0.44993
  5 C    -4.78456    1.51753    0.03726
  6 C     2.62457    0.44045    2.88222
  7 C     0.70892   -0.59091    2.72655
  8 C    -2.23550    5.25563   -0.92900
  9 C     0.57716    1.38602   -2.41464
 10 C     0.88109   -0.70508    0.37682
 11 C     7.90272    7.92631   -3.70113
 12 C    -0.01533    6.10614   -0.08935
 13 C    -0.35319   -2.04693   -0.53857
 14 C    -4.24663   -1.69952   -0.12381
 15 C    10.94239   12.46153   -0.14768
 16 C     1.97650  -11.31167    1.52992
 17 C     2.25570   -6.16164   -1.25415
 18 C    -6.08966    4.13023    1.29488
 19 C    -3.16948   -2.03103   -0.88693
 20 C    -6.20439    1.47976    0.53790
 21 C     5.35980   -3.11768   -3.32723
 22 C     2.24730   -2.73197    1.72515
 23 C    -0.59070   -0.23397    1.42605

System changes: positions

[...]

Density initialized from wave functions
  /        |             C C     C                |
 *         |        C  C         C                |
 |         | C   C    C        C                  |
 |         .--C-C---C-----CC--C----C--------------.
 |        /         C            C               /
 |       /       C    C C    C                  /

[...]

Density initialized from wave functions
  /        |             C C     C                |
[...]
 |       /                    C                 /

[...]

Density initialized from wave functions
  /        |               C                      |
 *         |      C  C  CC  C   C                 |
 |         |   C      C   C     C                 |
 |         .--C-C---C-C------C---C----------------.
 |        /     C C  C C   C   C                 /
 |       /                    C                 /

[...]

Density initialized from wave functions
  /        |            C  C                      |
 *         |      C  C   C  C  C                  |
 |         |   C      C   C     C                 |
 |         .--C-C---C-C------C---C----------------.
 |        /     C C  C C   C   C                 /
 |       /                    C                 /

[...]

Density initialized from wave functions
  /        |            C  C                      |
 *         |      C  C   C  C  C                  |
 |         |   C      C   C     C                 |
 |         .--C-C---C-C------C---C----------------.
 |        /     CC   C C   C   C                 /
 |       /                   C                  /

[...]

Density initialized from wave functions
  /        |            C  C                      |
 *         |      C  C   C  C  C                  |
 |         |   C      C   C     C                 |
 |         .--C-C---C-C------C---C----------------.
 |        /     CC   C C  C    C                 /
 |       /                   C                  /

[...]

Density initialized from wave functions
  /        |            C  C                      |
 *         |     C   C   C  C  C                  |
 |         |   C      C   C     C                 |
 |         .--C-C---C-C------C---C----------------.
 |        /     CC   C C       C                 /
 |       /                C  C                  /

[...]

Density initialized from wave functions
  /        |            C  C                      |
 *         |     C   C   C  C  C                  |
 |         |   C      C   C     C                 |
 |         .--C-C---C-C------C---C----------------.
 |        /     CC   C C       C                 /
 |       /                C  C                  /

[...]

Density initialized from wave functions
  /        |            C  C                      |
 *         |     C   C   C  C  C                  |
 |         |   C      C   C     C                 |
 |         .--C-C---C-C------C---C----------------.
 |        /    C C   C         C                 /
 |       /             C  C  C                  /

[...]

Density initialized from wave functions
  /        |            C  C                      |
 *         |     C   C   C  C  C                  |
 |         |   C      C   C     CC                |
 |         .--C-C---C-C------C--------------------.
 |        /    C C   C         C                 /
 |       /             C  C  C                  /

[...]

Density initialized from wave functions
  /        |            C  C                      |
 *         |     C   C   C  C  C                  |
 |         |   C      C  C      CC                |
 |         .--C-C---C-C------C--------------------.
 |        /    C C   C         C                 /
 |       /             C  C  C                  /

[...]

Density initialized from wave functions
  /        |            C  C                      |
 *         |     C   C   C  C  C                  |
 |         |   C      C  C     C C                |
 |         .--C-C---C-C------C--------------------.
 |        /    C C   C         C                 /
 |       /             C  C  C                  /

[...]

Density initialized from wave functions
  /        |            C  C                      |
 *         |     C   C   C  C  C                  |
 |         |   C      C  C     C C                |
 |         .--C-C---C-C------C--------------------.
 |        /    C C   C         C                 /
 |       /             C  C   C                 /

[...]

Density initialized from wave functions
  /        |            C  CC                     |
 *         |     C   C   C     C                  |
 |         |   C      C  C     C C                |
 |         .--C-C---C-C------C--------------------.
 |        /    C C   C         C                 /
 |       /             C  C   C                 /

[...]

Density initialized from wave functions
  /        |            C  CC                     |
 *         |     C   C   C     C                  |
 |         |   C      C  C     C C                |
 |         .--C-C---C-C------C--------------------.
 |        /    C C   C         C                 /
 |       /             C  C   C                 /

[...]

Density initialized from wave functions
  /        |            C  CC                     |
 *         |     C   CC  C     C                  |
 |         |   C         C     C C                |
 |         .--C-C---C-C------C--------------------.
 |        /    C C   C         C                 /
 |       /             C  C   C                 /

[...]

Density initialized from wave functions
  /        |           C   CC  C                  |
 *         |     C   C   C                        |
 |         |   C         C     C C                |
 |         .--C-C--C--C------C--------------------.
 |        /    C C   C         C                 /
 |       /             C  C   C                 /

[...]

Density initialized from wave functions
  /        |           C  C C  C                  |
 *         |     C   C   C     C                  |
 |         |   C         C   C   C                |
 |         .--C-C--C--C---------------------------.
 |        /    C C   C         C                 /
 |       /             C  C   C                 /

[...]

Density initialized from wave functions
  /        |           C  C C  C                  |
 *         |     C  CC   C     C                  |
 |         |   C         C   C   C                |
 |         .--C-C--C--C---------------------------.
 |        /    C C   C         C                 /
 |       /             C  C   C                 /

[...]

Density initialized from wave functions
  /        |           C  C C  C                  |
 *         |     C  CC   C     C                  |
 |         |   C         C   C   C                |
 |         .--C-C--C--C--------C------------------.
 |        /    C C   C                           /
 |       /             C  C   C                 /

[...]

Density initialized from wave functions
  /        |           C  C C  C                  |
 *         |     C  CC   C     C                  |
 |         |   C   C     C   C   C                |
 |         .--C-C-----C--------C------------------.
 |        /    C C   C                           /
 |       /             C  C   C                 /

[...]

Density initialized from wave functions
  /        |           C  C C  C                  |
 *         |     C  CC   C     C                  |
 |         |   C   C     C   C   C                |
 |         .-C--C-----C--------C------------------.
 |        /    C C   C                           /
 |       /             C  C   C                 /

[...]

Density initialized from wave functions
  /        |           C  C C  C                  |
 *         |     C  CC   C     C                  |
 |         |   C   C     C  C    C                |
 |         .-C--C-----C--------C------------------.
 |        /    C C   C                           /
 |       /             C  C   C                 /

[...]

Density initialized from wave functions
  /        |           C  CC   C                  |
 *         |     C  CC   C     C                  |
 |         |   C   C     C  C    C                |
 |         .-C--C-----C--------C------------------.
 |        /    C C   C                           /
 |       /             C  C   C                 /

[...]

Density initialized from wave functions
  /        |           C  CC  C                   |
 *         |    C   CC  C      C                  |
 |         |  C    C     C  C    C                |
 |         .-C--C-----C--------C------------------.
 |        /    C C   C                           /
 |       /             C  C   C                 /

[...]

Density initialized from wave functions
  /        |           C  CC  C                   |
 *         |    C   CC  C      C                  |
 |         |  C    C     C  C    C                |
 |         .-C-C------C--------C------------------.
 |        /    C C   C        C                  /
 |       /             C  C                     /

[...]

Density initialized from wave functions
  /        |           C  CC  C                   |
 *         |    C   CC  C      C                  |
 |         |  C    C     C  C    C                |
 |         .-C-C------C--------C------------------.
 |        /    C C   C        C                  /
 |       /             C  C                     /

[...]

Density initialized from wave functions
  /        |           C  CC  C                   |
 *         |    C   CC  C      C                  |
 |         |  C    C     C  C    C                |
 |         .-C-C------C-------C-------------------.
 |        /    C C   C        C                  /
 |       /             C  C                     /

[...]

Density initialized from wave functions
  /        |           C  CC  C                   |
 *         |    C   CC  C      C                  |
 |         |  C          C  C    C                |
 |         .-C-C---C--C-------C-------------------.
 |        /    C C   C        C                  /
 |       /             C  C                     /

[...]

Density initialized from wave functions
  /        |           C  CC  C                   |
 *         |    C   CC  C      C                  |
 |         |  C          C  C    C                |
 |         .-C-C---C--C-------C-------------------.
 |        /    C C   C        C                  /
 |       /             C  C                     /

[...]

Density initialized from wave functions
  /        |           C  CC  C                   |
 *         |    C   CC  C      C                  |
 |         |  C          C  C    C                |
 |         .-C-C---C-C--------C-------------------.
 |        /    C C   C        C                  /
 |       /             C  C                     /

[...]

System changes: positions

Initializing position-dependent things.

Density initialized from wave functions
  /        |           C  CC  C                   |
 *         |    C   CC  C      C                  |
 |         |  C          C  C    C                |
 |         .-C-C---C-C--------C-------------------.
 |        /    C C   C        C                  /
 |       /             C  C                     /

Positions:
   0 C      5.392185    8.824464    5.777172
   1 C      5.679253    3.437032    5.309392
   2 C      3.453317    7.613960    5.574594
   3 C      7.547506    9.927920    6.079185
   4 C      6.292227    9.906462    5.955954
   5 C     10.726437    5.232759    5.649679
   6 C      9.804456    8.588518    6.205694
   7 C      5.821230    6.144205    5.530180
   8 C      8.231229    3.193640    5.166810
   9 C      7.623718    7.619452    5.783774
  10 C      9.566873    6.171946    5.751354
  11 C      4.465677    5.535511    5.440128
  12 C      8.187501    6.278243    5.673598
  13 C      6.199631    7.574717    5.690599
  14 C      7.020895    3.892263    5.339407
  15 C      3.974626    8.810581    5.679516
  16 C      4.628810    4.129828    5.354420
  17 C      9.489486    3.319451    5.320676
  18 C     10.382163    7.408801    6.006993
  19 C      8.422937    8.818233    6.022144
  20 C      3.288245    6.325099    5.437312
  21 C     11.454974    6.415528    5.935323
  22 C      7.030295    5.348430    5.504043
  23 C     10.697761    3.903902    5.296983

Unit cell:
           periodic     x           y           z      points  spacing
  1. axis:    yes   16.000000    0.000000    0.000000    80     0.2000
  2. axis:    yes    0.000000   16.000000    0.000000    80     0.2000
  3. axis:    yes    0.000000    0.000000   10.000000    48     0.2083

Effective grid spacing dv^(1/3) = 0.2027

                     log10-error:    total        iterations:
           time      wfs    density  energy       fermi  poisson
iter:   1  14:39:02          +inf  -184.031235    3      4
iter:   2  14:39:02         -2.74  -184.034481    2      1
iter:   3  14:39:03         -3.21  -184.034902    2      1
iter:   4  14:39:03         -3.36  -184.034021    2      1
iter:   5  14:39:04         -3.42  -184.036319    2      1
iter:   6  14:39:04         -3.07  -184.034082    2      1
iter:   7  14:39:05         -3.52  -184.032946    2      1
iter:   8  14:39:06         -3.13  -184.034123    2      1
iter:   9  14:39:06         -3.93  -184.034445    2      1
iter:  10  14:39:07         -3.95  -184.034062    2      1
iter:  11  14:39:07         -3.95  -184.034260    2      1
iter:  12  14:39:08         -4.49  -184.034326    2      1

Converged after 12 iterations.

Dipole moment: (0.306395, -0.040108, 0.069724) |e|*Ang

Energy contributions relative to reference atoms: (reference = -24663.074771)

Kinetic:       +114.541644
Potential:     -122.352923
External:        +0.000000
XC:            -179.085041
Entropy (-ST):   -0.300229
Local:           +3.012108
Free energy:   -184.184441
Extrapolated:  -184.034326

Fermi level: -4.55315

 Band  Eigenvalues  Occupancy
    0    -23.37592    2.00000
    1    -22.47448    2.00000
    2    -21.57831    2.00000
    3    -20.90755    2.00000
    4    -20.42695    2.00000
    5    -20.22767    2.00000
    6    -19.61525    2.00000
    7    -19.37652    2.00000
    8    -18.27303    2.00000
    9    -18.17992    2.00000
   10    -17.66812    2.00000
   11    -17.33577    2.00000
   12    -16.46308    2.00000
   13    -16.10531    2.00000
   14    -15.15005    2.00000
   15    -14.62159    2.00000
   16    -14.44075    2.00000
   17    -13.76891    2.00000
   18    -13.39356    2.00000
   19    -12.56753    2.00000
   20    -12.36023    2.00000
   21    -12.27333    2.00000
   22    -11.79437    2.00000
   23    -11.30651    2.00000
   24    -11.03311    2.00000
   25    -10.73214    2.00000
   26    -10.67099    2.00000
   27    -10.62491    2.00000
   28    -10.32349    2.00000
   29     -9.94194    2.00000
   30     -9.55125    2.00000
   31     -9.41620    2.00000
   32     -9.18540    2.00000
   33     -8.68124    2.00000
   34     -8.42281    2.00000
   35     -7.98741    2.00000
   36     -7.50794    2.00000
   37     -7.16761    2.00000
   38     -7.12445    2.00000
   39     -7.07862    2.00000
   40     -6.37013    2.00000
   41     -6.29987    2.00000
   42     -6.28672    2.00000
   43     -5.82012    1.99999
   44     -5.61578    1.99995
   45     -5.16474    1.99559
   46     -4.75336    1.76203
   47     -4.70270    1.63380
   48     -4.46783    0.59752
   49     -4.03435    0.01110
   50     -3.06070    0.00000
   51     -2.91360    0.00000
   52     -2.78704    0.00000
   53     -2.72447    0.00000
   54     -2.58945    0.00000
   55     -1.38872    0.00000
   56     -1.09707    0.00000
   57     -0.74576    0.00000
   58     -0.30903    0.00000
   59      0.38245    0.00000
[...]
   83      8.75677    0.00000
   84      9.00716    0.00000
   85      9.04135    0.00000
   86      9.19246    0.00000
   87      9.35081    0.00000
   88      9.48229    0.00000
   89      9.66873    0.00000
   90      9.69644    0.00000
   91      9.92258    0.00000
   92     10.02002    0.00000
   93     10.13056    0.00000
   94     10.30000    0.00000
   95     10.37886    0.00000
   96     10.40864    0.00000
   97     10.63706    0.00000

Forces in eV/Ang:
  0 C     0.00877    0.01391    0.02435
  1 C    -0.04229   -0.01507   -0.02693
  2 C     0.03783    0.02095   -0.02475
  3 C    -0.00810   -0.00030    0.00664
  4 C     0.00428   -0.00877    0.01063
  5 C     0.03283   -0.06067   -0.01986
  6 C     0.00474    0.02471   -0.07011
  7 C    -0.00487   -0.01927   -0.00145
  8 C     0.00025    0.01508    0.03802
  9 C     0.02229    0.00141    0.04536
 10 C    -0.03244    0.00438   -0.01941
 11 C    -0.02229   -0.02824    0.00373
 12 C    -0.06218   -0.00172    0.03149
 13 C     0.01788   -0.01294   -0.00936
 14 C     0.09368    0.00531   -0.00429
 15 C    -0.04507   -0.02110    0.02136
 16 C     0.06296    0.03048    0.01956
 17 C    -0.00643    0.04719   -0.01624
 18 C    -0.01026   -0.01961    0.00891
 19 C     0.02425    0.01852   -0.02422
 20 C     0.04031   -0.00594   -0.00042
 21 C    -0.02504   -0.02246   -0.00372
 22 C    -0.00688    0.01273   -0.01007
 23 C     0.04073   -0.01794    0.01153