User:   esb@s66n64.grendel.cscaa.dk
Date:   Wed Nov  8 14:13:05 2017
Arch:   x86_64
Pid:    70339
Python: 2.7.13
gpaw:   /home/esb/DFT/gpaw_git/gpaw
_gpaw:  /home/esb/DFT/gpaw_git/build/bin.linux-x86_64-2.7/gpaw-python
ase:    /home/esb/DFT/ase_git/ase (version 3.15.0b1)
numpy:  /comm/swstack/core/python/2.7.13/lib/python2.7/site-packages/numpy (version 1.13.3)
scipy:  /comm/swstack/core/python/2.7.13/lib/python2.7/site-packages/scipy (version 0.19.1)
units:  Angstrom and eV
cores:  16
Extra parameters: {'blacs': True}

Input parameters:
  basis: dzp
  gpts: [80 80 48]
  kpts: [1 1 1]
  maxiter: 99
  mixer: {backend: pulay,
          beta: 0.05,
          method: separate,
          nmaxold: 5,
          weight: 75}
  mode: lcao
  nbands: -50
  occupations: {name: fermi-dirac,
                width: 0.1}
  poissonsolver: {eps: 1e-07,
                  name: fd,
                  nn: 3,
                  relax: GS}
  xc: PBE

System changes: positions, numbers, cell, pbc, initial_charges, initial_magmoms

Initialize ...

C-setup:
  name: Carbon
  id: 4aa54d4b901d75f77cc0ea3eec22967b
  Z: 6
  valence: 4
  core: 2
  charge: 0.0
  file: /home/esb/DFT/gpaw-setups-0.8.7929/C.PBE.gz
  cutoffs: 0.64(comp), 1.14(filt), 1.14(core), lmax=2
  valence states:
                energy  radius
    2s(2.00)   -13.751   0.635
    2p(2.00)    -5.284   0.635
    *s          13.461   0.635
    *p          21.927   0.635
    *d           0.000   0.635

  LCAO basis set for C:
    Name: dzp
    File: /home/esb/DFT/gpaw-setups-0.8.7929/C.dzp.basis.gz
    Number of radial functions: 5
    Number of spherical harmonics: 13
      l=0, rc=5.5469 Bohr: 2s-sz confined orbital
      l=1, rc=6.6719 Bohr: 2p-sz confined orbital
      l=0, rc=3.0312 Bohr: 2s-dz split-valence wave
      l=1, rc=3.7500 Bohr: 2p-dz split-valence wave
      l=2, rc=6.6719 Bohr: d-type Gaussian polarization

Reference energy: -24663.074771

Spin-paired calculation

Occupation numbers:
  Fermi-Dirac: width=0.1000 eV

Convergence criteria:
  Maximum total energy change: 0.0005 eV / electron
  Maximum integral of absolute density change: 0.0001 electrons
  Maximum integral of absolute eigenstate change: 4e-08 eV^2
  Maximum number of iterations: 99

Symmetries present (total): 1

  ( 1  0  0)
  ( 0  1  0)
  ( 0  0  1)

1 k-point (Gamma)
1 k-point in the irreducible part of the Brillouin zone
       k-points in crystal coordinates                weights
   0:     0.00000000    0.00000000    0.00000000          1/1

Wave functions: LCAO
  Diagonalizer: Serial LAPACK
  Atomic Correction: dense with blas
  Datatype: float
  Eigensolver: None

LCAO using direct dense diagonalizer

Densities:
  Coarse grid: 80*80*48 grid
  Fine grid: 160*160*96 grid
  Total Charge: 0.000000

Density mixing:
  Method: separate
  Backend: pulay
  Linear mixing parameter: 0.05
  Mixing with 5 old densities
  Damping of long wave oscillations: 75

Hamiltonian:
  XC and Coulomb potentials evaluated on a 160*160*96 grid
  Using the PBE Exchange-Correlation functional
  Interpolation: tri-quintic (5. degree polynomial)
  Poisson solver: Gauss-Seidel solver with 6 multi-grid levels
    Coarsest grid: 5 x 5 x 3 points
    Stencil: 6*3+1=19 point O(h^6) finite-difference Laplacian
    Max iterations: 1000
    Tolerance: 1.000000e-07

Total number of cores used: 16
Domain decomposition: 2 x 4 x 2

Number of atoms: 24
Number of atomic orbitals: 312
Number of bands in calculation: 98
Bands to converge: occupied states only
Number of valence electrons: 96

... initialized

Initializing position-dependent things.

Density initialized from atomic densities
   /       |           C                          |
  /        |             C                        |
 *         |   C         C      C                 |
 |         |      C    C   C   C                  |
 |         .-C-C-------C----C--C--C---------------.
 |        /   C      C   C     C                 /
 |       /       C    C     C                   /

Positions:
   0 C      7.023900    4.827013    5.231747
   1 C     10.007311    8.371440    4.552540
   2 C      8.339429    9.214011    4.729283
   3 C      9.892671   10.621964    4.549269
   4 C      8.357644    5.443744    4.424789
   5 C      6.175918   11.275456    5.666907
   6 C     10.711400    5.626366    4.589115
   7 C      3.844990    7.855032    5.492540
   8 C      9.005892    7.752259    4.564951
   9 C      4.205539    6.527491    5.332230
  10 C      7.614001    3.895345    4.411201
  11 C      5.601594    3.616070    4.397317
  12 C      7.252115   10.586614    5.695578
  13 C     10.019259    4.088258    4.260996
  14 C      7.314637    3.449326    5.606140
  15 C      7.155227    9.701396    4.960647
  16 C     11.847904    6.767800    4.643970
  17 C      3.309186    7.034896    4.467026
  18 C     10.308683    9.444951    4.935090
  19 C     10.741079    6.598921    5.119168
  20 C      4.499575    9.588003    4.331134
  21 C      3.775334    5.385659    4.663510
  22 C      7.254484    7.538334    5.536663
  23 C      7.305523    7.038132    4.339548

Unit cell:
           periodic     x           y           z      points  spacing
  1. axis:    yes   16.000000    0.000000    0.000000    80     0.2000
  2. axis:    yes    0.000000   16.000000    0.000000    80     0.2000
  3. axis:    yes    0.000000    0.000000   10.000000    48     0.2083

Effective grid spacing dv^(1/3) = 0.2027

                     log10-error:    total        iterations:
           time      wfs    density  energy       fermi  poisson
iter:   1  14:13:06          +inf  -134.816087    3      6
iter:   2  14:13:07         -0.82  -131.649588    3      3
iter:   3  14:13:07         -0.87  -129.825713    4      3
iter:   4  14:13:08         -0.88  -128.416499    3      2
iter:   5  14:13:08         -0.93  -127.524614    4      3
iter:   6  14:13:09         -1.03  -126.324696    4      3
iter:   7  14:13:09         -1.22  -126.122393    3      3
iter:   8  14:13:10         -1.33  -125.901538    3      3
iter:   9  14:13:11         -1.52  -125.782177    3      3
iter:  10  14:13:11         -1.73  -125.746566    3      3
iter:  11  14:13:12         -1.89  -125.739948    3      2
iter:  12  14:13:12         -2.00  -125.736425    3      2
iter:  13  14:13:13         -2.09  -125.733705    3      2
iter:  14  14:13:13         -2.23  -125.728025    3      2
iter:  15  14:13:14         -2.31  -125.725633    3      2
iter:  16  14:13:14         -2.41  -125.722503    3      2
iter:  17  14:13:15         -2.65  -125.719178    2      2
iter:  18  14:13:15         -2.83  -125.718081    2      2
iter:  19  14:13:16         -2.99  -125.722371    2      1
iter:  20  14:13:16         -3.14  -125.720381    2      1
iter:  21  14:13:16         -3.31  -125.716248    2      1
iter:  22  14:13:17         -3.41  -125.715862    2      1
iter:  23  14:13:17         -3.47  -125.715958    2      1
iter:  24  14:13:18         -3.56  -125.716636    2      1
iter:  25  14:13:18         -3.80  -125.717449    2      1
iter:  26  14:13:19         -4.06  -125.716853    2      1

Converged after 26 iterations.

Dipole moment: (0.404922, 0.107129, 0.079005) |e|*Ang

Energy contributions relative to reference atoms: (reference = -24663.074771)

Kinetic:       +199.353617
Potential:     -171.630950
External:        +0.000000
XC:            -155.896794
Entropy (-ST):   -0.528663
Local:           +2.721605
Free energy:   -125.981185
Extrapolated:  -125.716853

Fermi level: -5.05779

 Band  Eigenvalues  Occupancy
    0    -25.59240    2.00000
    1    -25.13859    2.00000
    2    -24.92373    2.00000
    3    -24.64941    2.00000
    4    -23.20283    2.00000
    5    -21.21308    2.00000
    6    -19.49904    2.00000
    7    -18.92375    2.00000
    8    -17.96197    2.00000
    9    -17.74680    2.00000
   10    -16.70926    2.00000
   11    -16.09640    2.00000
   12    -15.23620    2.00000
   13    -14.59128    2.00000
   14    -14.28533    2.00000
   15    -13.93828    2.00000
   16    -13.33987    2.00000
   17    -12.71553    2.00000
   18    -12.45267    2.00000
   19    -12.20530    2.00000
   20    -12.09621    2.00000
   21    -11.85183    2.00000
   22    -11.30633    2.00000
   23    -10.67364    2.00000
   24    -10.53578    2.00000
   25    -10.42983    2.00000
   26    -10.21391    2.00000
   27     -9.93038    2.00000
   28     -9.51844    2.00000
   29     -9.05335    2.00000
   30     -8.62228    2.00000
   31     -8.52527    2.00000
   32     -8.09513    2.00000
   33     -7.78645    2.00000
   34     -7.39230    2.00000
   35     -7.32129    2.00000
   36     -7.12517    2.00000
   37     -7.02474    2.00000
   38     -6.85572    2.00000
   39     -6.78558    2.00000
   40     -6.65204    2.00000
   41     -6.18926    1.99998
   42     -6.10821    1.99995
   43     -6.04147    1.99989
   44     -5.44773    1.96030
   45     -5.29174    1.82419
   46     -5.25327    1.75194
   47     -5.11802    1.29236
   48     -5.02751    0.84973
   49     -4.86897    0.26290
   50     -4.68026    0.04483
   51     -4.54827    0.01218
   52     -4.35419    0.00176
   53     -3.78524    0.00001
   54     -3.55785    0.00000
   55     -3.31353    0.00000
   56     -2.93283    0.00000
   57     -2.85289    0.00000
   58     -2.74868    0.00000
   59     -2.46544    0.00000
[...]
   83      6.48510    0.00000
   84      6.80366    0.00000
   85      7.08552    0.00000
   86      7.19610    0.00000
   87      7.80389    0.00000
   88      7.93697    0.00000
   89      8.16072    0.00000
   90      8.34389    0.00000
   91      8.60005    0.00000
   92      8.66565    0.00000
   93      8.75689    0.00000
   94      9.00994    0.00000
   95      9.15041    0.00000
   96      9.21750    0.00000
   97      9.45586    0.00000

Forces in eV/Ang:
  0 C    -0.01838    4.32611    4.15295
  1 C     9.42372   -8.59183   -4.25587
  2 C     4.03783   -4.21787   -3.41222
  3 C    -0.97652    0.56667    0.37479
  4 C    -4.47771   -2.50661    0.82946
  5 C    -2.93828    2.58801    0.88178
  6 C    -3.73185  -26.62184  -12.25738
  7 C     1.11353    3.98107   -1.49173
  8 C   -16.70594   -4.44690   -1.24761
  9 C     4.91580   -3.25486    4.77022
 10 C     3.80145   -1.23087   -9.44080
 11 C     2.20592    0.88526    0.55706
 12 C    -0.42180   15.78859   12.31420
 13 C     0.56851    4.76366    0.65632
 14 C    -3.14566   -2.20855    4.13565
 15 C    -2.33098  -14.15981  -10.05244
 16 C    10.36474    1.94674   -3.78652
 17 C    -4.27992    0.43708   -5.05642
 18 C     5.99486   14.61046    4.60472
 19 C    -7.16207   20.36910   15.82748
 20 C    -0.18107   -2.34083    2.16617
 21 C    -0.23901    0.96892   -0.01164
 22 C    -0.53184    2.16018    4.28388
 23 C     4.71995   -3.72706   -4.53826

System changes: positions

[...]

Density initialized from wave functions
   /       |           C                          |
  /        |             C                        |
 *         |   C        C       C                 |
 |         |      C    C   C   C                  |
 |         .-C-C-------C----C--C--C---------------.
 |        /   C      C   C     C                 /
 |       /       C    C     C                   /

[...]

[...]
 |        /       C C  C         C               /
 |       /           C  C  C  C                 /

[...]

Density initialized from wave functions
   /       |           C                          |
  /        |         C                            |
 *         |      C    C   C  C  C                |
 |         |    C C   C     C   C                 |
 |         .--CC---------C-------C----------------.
 |        /       C C  C         C               /
 |       /           C  C  C  C                 /

[...]

Density initialized from wave functions
   /       |           C                          |
  /        |         C                            |
 *         |      C    C   C  C C                 |
 |         |    C C   C     C   C                 |
 |         .--CC---------C-------C----------------.
 |        /       C C  C        C                /
 |       /           C  C  C  C                 /

[...]

Density initialized from wave functions
   /       |            C                         |
  /        |         C                            |
 *         |      C    C   C  C C                 |
 |         |   C      C     C   C                 |
 |         .--CC--C------C-------C----------------.
 |        /       C C  C        C                /
 |       /           C  C  C  C                 /

[...]

Density initialized from wave functions
   /       |            C                         |
  /        |         C                            |
 *         |      C    C   C  C C                 |
 |         |   C      C     C   C                 |
 |         .--CC--C------C-------C----------------.
 |        /       C C  C        C                /
 |       /           C  C  C  C                 /

[...]

Density initialized from wave functions
   /       |            C                         |
  /        |         C                            |
 *         |      C    C   C  C C                 |
 |         |   C      C     C  C                  |
 |         .---C--C------C-------C----------------.
 |        /       C C  C        C                /
 |       /           C  C  C  C                 /

[...]

Density initialized from wave functions
   /       |            C                         |
  /        |         C                            |
 *         |      C    C   C  C C                 |
 |         |   C      C     C  C                  |
 |         .---C---C-----C-------C----------------.
 |        /       C C  C        C                /
 |       /           C  C   C C                 /

[...]

Density initialized from wave functions
   /       |            C                         |
  /        |         C                            |
 *         |      C    C   C  C C                 |
 |         |   C      C     C  C                  |
 |         .---C---C-----C-------C----------------.
 |        /       C C   C       C                /
 |       /           C   C  C  C                /

[...]

Density initialized from wave functions
   /       |            C                         |
 *         |      C  C C   C  C C                 |
 |         |   C      C     C  C                  |
 |         .---C---C-----C-------C----------------.
 |        /       C C   C       C                /
 |       /           C   C  C  C                /

[...]

Density initialized from wave functions
   /       |            C                         |
 *         |      C  C C  C  C  C                 |
 |         |   C      C     C  C                  |
 |         .---C---C-----C-------C----------------.
 |        /       C C   C       C                /
 |       /           C   C  C  C                /

[...]

Density initialized from wave functions
   /       |           C                          |
 *         |      C  C    C  C  C                 |
 |         |   C      CC    C  C                  |
 |         .---C---C-----C-------C----------------.
 |        /       C C   C        C               /
 |       /           C   C  C  C                /

[...]

Density initialized from wave functions
   /       |            C                         |
 *         |      C  C    C  C  C                 |
 |         |   C      CC    C  C                  |
 |         .---C---C-----C-------C----------------.
 |        /       C C   C        C               /
 |       /           C   C  C  C                /

[...]

Density initialized from wave functions
   /       |            C                         |
 *         |      C  C    C  C  C                 |
 |         |  CC      CC    C  C                  |
 |         .---C---C-----C-------C----------------.
 |        /       C C   C        C               /
 |       /           C  C   C  C                /

[...]

Density initialized from wave functions
   /       |            C                         |
 *         |      C  C    C  C  C                 |
 |         |  CC      CC    C  C                  |
 |         .---C---C-----C-------C----------------.
 |        /         C   C        C               /
 |       /        C  C  C   C  C                /

[...]

Density initialized from wave functions
   /       |            C                         |
 *         |      C  C    C  C  C                 |
 |         |  CC      CC    C  C                  |
 |         .---C---C-----C-------C----------------.
 |        /         C   C        C               /
 |       /        C  C  C   C  C                /

[...]

Density initialized from wave functions
   /       |            C                         |
 *         |      C  C C   C C  C                 |
 |         |  CC      C     C  C                  |
 |         .---C---C-----C-------C----------------.
 |        /         C   C        C               /
 |       /         C C  C   C  C                /

[...]

Density initialized from wave functions
   /       |           C                          |
 *         |      C  C C  C  C  C                 |
 |         |  CC      C     C  C                  |
 |         .---C---C-----C-------C----------------.
 |        /         C   C        C               /
 |       /         C C  C   C  C                /

[...]

Density initialized from wave functions
   /       |           C                          |
 *         |      C  C C  C  C  C                 |
 |         |  CC      C     C  C                  |
 |         .----C--C-----C-------C----------------.
 |        /         C  C         C               /
 |       /         C C  C   C  C                /

[...]

Density initialized from wave functions
   /       |           C                          |
 *         |      C  C C  C  C  C                 |
 |         |  CC      C     C  C                  |
 |         .----C--C-----C-------C----------------.
 |        /         C  C         C               /
 |       /         C C  C   C  C                /

[...]

Density initialized from wave functions
  /        |           C                          |
 *         |   C  C  C C  C  C  C                 |
 |         |  C       C     C  C                  |
 |         .----C--C-----C-------C----------------.
 |        /         C  C         C               /
 |       /         C C  C   C  C                /

[...]

Density initialized from wave functions
  /        |           C                          |
 *         |    C C  C C  C  C  C                 |
 |         |  C       C     C  C                  |
 |         .----C--C-----C-------C----------------.
 |        /         C   C        C               /
 |       /         C C  C   C  C                /

[...]

Density initialized from wave functions
  /        |      C    C                          |
 *         |    C    C C  C  C  C                 |
 |         |  C       C     C  C                  |
 |         .----C--C-----C-------C----------------.
 |        /         C   C        C               /
 |       /         C C  C   C  C                /

[...]

Density initialized from wave functions
  /        |      C    C                          |
 *         |    C     CC  C  C  C                 |
 |         |  C       C     C  C                  |
 |         .----C--C-----C-------C----------------.
 |        /         C   C        C               /
 |       /         C C  C   C  C                /

[...]

Density initialized from wave functions
  /        |      C   C                           |
 *         |    C     CC  C  C  C                 |
 |         |  C       C     C  C                  |
 |         .----C--C-----C-------C----------------.
 |        /         C   C        C               /
 |       /         C C  C   C  C                /

[...]

Density initialized from wave functions
  /        |      C   C                           |
 *         |    C     CC  C  C                    |
 |         |  C       C     C  CC                 |
 |         .----C--C-----C-------C----------------.
 |        /         C   C        C               /
 |       /         C C  C   C  C                /

[...]

Density initialized from wave functions
  /        |      C  C                            |
 *         |   C      CC   C  C                   |
 |         |   C      C     C  CC                 |
 |         .----C--C-----C-------C----------------.
 |        /         C  C         C               /
 |       /         C C  C   C  C                /

[...]

Density initialized from wave functions
  /        |      C  C                            |
 *         |   C     C C   C  C                   |
 |         |   C      C     C  CC                 |
 |         .----C--C-----C-------C----------------.
 |        /         C  C         C               /
 |       /         C C  C   C  C                /

[...]

Density initialized from wave functions
  /        |      C  C                            |
 *         |   C     C C   C  C                   |
 |         |   C      C     C   C                 |
 |         .----C--C-----C-------C----------------.
 |        /         C  C         C               /
 |       /         C C  C   C  C                /

[...]

Density initialized from wave functions
  /        |      C  C                            |
 *         |   C     C C   C  C                   |
 |         |   C      C     C   C                 |
 |         .----C--C-----C-------C----------------.
 |        /         C   C        C               /
 |       /         C C  C   C  C                /

[...]

System changes: positions

Initializing position-dependent things.

Density initialized from wave functions
  /        |      C  C                            |
 *         |   C     C C   C  C C                 |
 |         |   C      C     C   C                 |
 |         .----C--C-----C-------C----------------.
 |        /         C   C        C               /
 |       /         C C  C   C  C                /

Positions:
   0 C      6.416642    5.116293    4.848747
   1 C     10.411743    8.224185    4.590560
   2 C      8.209131    9.116301    4.894501
   3 C      9.176732   10.156395    4.837818
   4 C      7.862051    5.373453    4.735827
   5 C      5.219559   11.089190    5.180892
   6 C     10.952966    4.740367    4.385995
   7 C      3.535893    8.967056    5.608579
   8 C      8.973515    7.857468    4.765100
   9 C      5.689543    6.346647    4.996583
  10 C      8.537420    4.075329    4.618014
  11 C      7.418139    3.133528    4.660842
  12 C      5.837175    9.883487    5.147357
  13 C      9.920320    4.012459    4.481606
  14 C      6.268980    3.692731    4.791019
  15 C      6.791063    8.829986    5.011235
  16 C     11.501752    5.963904    4.353978
  17 C      3.599999    7.638371    5.410843
  18 C     10.354348    9.664102    4.630652
  19 C     11.354136    7.221803    4.406927
  20 C      4.302111    9.993732    5.405246
  21 C      4.331492    6.621161    5.250309
  22 C      6.678523    7.403346    4.941158
  23 C      8.068162    6.783381    4.793334

Unit cell:
           periodic     x           y           z      points  spacing
  1. axis:    yes   16.000000    0.000000    0.000000    80     0.2000
  2. axis:    yes    0.000000   16.000000    0.000000    80     0.2000
  3. axis:    yes    0.000000    0.000000   10.000000    48     0.2083

Effective grid spacing dv^(1/3) = 0.2027

                     log10-error:    total        iterations:
           time      wfs    density  energy       fermi  poisson
iter:   1  14:38:12          +inf  -181.911650    2      5
iter:   2  14:38:12         -2.60  -181.908280    2      1
iter:   3  14:38:13         -2.79  -181.905763    2      1
iter:   4  14:38:13         -2.94  -181.904907    2      1
iter:   5  14:38:13         -3.07  -181.904875    2      1
iter:   6  14:38:14         -3.20  -181.905486    2      2
iter:   7  14:38:14         -3.51  -181.905609    2      1
iter:   8  14:38:15         -3.25  -181.905527    2      1
iter:   9  14:38:15         -3.84  -181.905347    2      1
iter:  10  14:38:16         -3.93  -181.905501    1      1
iter:  11  14:38:16         -4.02  -181.905571    2      1

Converged after 11 iterations.

Dipole moment: (0.104573, -0.270060, -0.015265) |e|*Ang

Energy contributions relative to reference atoms: (reference = -24663.074771)

Kinetic:       +110.998704
Potential:     -117.617959
External:        +0.000000
XC:            -178.249468
Entropy (-ST):   -0.140896
Local:           +3.033600
Free energy:   -181.976019
Extrapolated:  -181.905571

Fermi level: -4.26109

 Band  Eigenvalues  Occupancy
    0    -22.86713    2.00000
    1    -22.53602    2.00000
    2    -22.07619    2.00000
    3    -21.07154    2.00000
    4    -20.30750    2.00000
    5    -20.21325    2.00000
    6    -19.60079    2.00000
    7    -18.93578    2.00000
    8    -18.88758    2.00000
    9    -17.89194    2.00000
   10    -17.42140    2.00000
   11    -16.96315    2.00000
   12    -16.37546    2.00000
   13    -16.13889    2.00000
   14    -14.96657    2.00000
   15    -14.52306    2.00000
   16    -14.33556    2.00000
   17    -14.11925    2.00000
   18    -13.12597    2.00000
   19    -12.95824    2.00000
   20    -12.53909    2.00000
   21    -12.49700    2.00000
   22    -11.21714    2.00000
   23    -10.98779    2.00000
   24    -10.61593    2.00000
   25    -10.46777    2.00000
   26    -10.24652    2.00000
   27     -9.90690    2.00000
   28     -9.72509    2.00000
   29     -9.52628    2.00000
   30     -9.49757    2.00000
   31     -9.10447    2.00000
   32     -8.98331    2.00000
   33     -8.92419    2.00000
   34     -8.36258    2.00000
   35     -8.22703    2.00000
   36     -7.89754    2.00000
   37     -7.56555    2.00000
   38     -7.23503    2.00000
   39     -6.91653    2.00000
   40     -6.16814    2.00000
   41     -6.06688    2.00000
   42     -5.98148    2.00000
   43     -5.82023    2.00000
   44     -5.39013    1.99998
   45     -5.31425    1.99995
   46     -4.68233    1.97081
   47     -4.51989    1.86018
   48     -3.96710    0.10043
   49     -3.87841    0.04263
   50     -3.82339    0.02481
   51     -3.50283    0.00102
   52     -3.33805    0.00020
   53     -2.36956    0.00000
   54     -1.71555    0.00000
   55     -1.14798    0.00000
   56     -1.06181    0.00000
   57     -0.50429    0.00000
   58     -0.38426    0.00000
   59      0.51616    0.00000
[...]
   83      9.02841    0.00000
   84      9.05549    0.00000
   85      9.17316    0.00000
   86      9.21188    0.00000
   87      9.26076    0.00000
   88      9.52415    0.00000
   89      9.64138    0.00000
   90      9.69961    0.00000
   91      9.94503    0.00000
   92      9.98620    0.00000
   93     10.21734    0.00000
   94     10.32803    0.00000
   95     10.34992    0.00000
   96     10.52930    0.00000
   97     10.67116    0.00000

Forces in eV/Ang:
  0 C    -0.02733   -0.01765    0.04141
  1 C     0.01241   -0.01475   -0.03414
  2 C     0.01706   -0.02246    0.01200
  3 C     0.01104   -0.00155   -0.01618
  4 C     0.03846   -0.00476   -0.00248
  5 C     0.01598   -0.04709   -0.01009
  6 C    -0.00068   -0.04041   -0.00757
  7 C    -0.03609    0.01349    0.02455
  8 C    -0.02178   -0.03408    0.00926
  9 C     0.01393   -0.01459    0.00475
 10 C     0.03847    0.00944   -0.05634
 11 C    -0.00705    0.03103    0.01589
 12 C    -0.00571    0.05359    0.06200
 13 C    -0.00788   -0.00820   -0.02705
 14 C     0.00272   -0.02677    0.04461
 15 C    -0.00053   -0.03950   -0.03954
 16 C     0.01250    0.01440    0.00940
 17 C    -0.00302    0.02987   -0.01271
 18 C     0.02470    0.04365   -0.00581
 19 C    -0.00229    0.03221    0.04429
 20 C     0.00345   -0.00589   -0.00109
 21 C    -0.01439    0.03719    0.02002
 22 C     0.00094   -0.01953    0.00696
 23 C    -0.00900   -0.00708   -0.02524