User:   esb@s65n84.grendel.cscaa.dk
Date:   Thu Nov  9 11:53:20 2017
Arch:   x86_64
Pid:    57888
Python: 2.7.13
gpaw:   /home/esb/DFT/gpaw_git/gpaw
_gpaw:  /home/esb/DFT/gpaw_git/build/bin.linux-x86_64-2.7/gpaw-python
ase:    /home/esb/DFT/ase_git/ase (version 3.15.0b1)
numpy:  /comm/swstack/core/python/2.7.13/lib/python2.7/site-packages/numpy (version 1.13.3)
scipy:  /comm/swstack/core/python/2.7.13/lib/python2.7/site-packages/scipy (version 0.19.1)
units:  Angstrom and eV
cores:  16
Extra parameters: {'blacs': True}

Input parameters:
  basis: dzp
  gpts: [80 80 48]
  kpts: [1 1 1]
  maxiter: 99
  mixer: {backend: pulay,
          beta: 0.05,
          method: separate,
          nmaxold: 5,
          weight: 75}
  mode: lcao
  nbands: -50
  occupations: {name: fermi-dirac,
                width: 0.1}
  poissonsolver: {eps: 1e-07,
                  name: fd,
                  nn: 3,
                  relax: GS}
  xc: PBE

System changes: positions, numbers, cell, pbc, initial_charges, initial_magmoms

Initialize ...

C-setup:
  name: Carbon
  id: 4aa54d4b901d75f77cc0ea3eec22967b
  Z: 6
  valence: 4
  core: 2
  charge: 0.0
  file: /home/esb/DFT/gpaw-setups-0.8.7929/C.PBE.gz
  cutoffs: 0.64(comp), 1.14(filt), 1.14(core), lmax=2
  valence states:
                energy  radius
    2s(2.00)   -13.751   0.635
    2p(2.00)    -5.284   0.635
    *s          13.461   0.635
    *p          21.927   0.635
    *d           0.000   0.635

  LCAO basis set for C:
    Name: dzp
    File: /home/esb/DFT/gpaw-setups-0.8.7929/C.dzp.basis.gz
    Number of radial functions: 5
    Number of spherical harmonics: 13
      l=0, rc=5.5469 Bohr: 2s-sz confined orbital
      l=1, rc=6.6719 Bohr: 2p-sz confined orbital
      l=0, rc=3.0312 Bohr: 2s-dz split-valence wave
      l=1, rc=3.7500 Bohr: 2p-dz split-valence wave
      l=2, rc=6.6719 Bohr: d-type Gaussian polarization

Reference energy: -24663.074771

Spin-paired calculation

Occupation numbers:
  Fermi-Dirac: width=0.1000 eV

Convergence criteria:
  Maximum total energy change: 0.0005 eV / electron
  Maximum integral of absolute density change: 0.0001 electrons
  Maximum integral of absolute eigenstate change: 4e-08 eV^2
  Maximum number of iterations: 99

Symmetries present (total): 1

  ( 1  0  0)
  ( 0  1  0)
  ( 0  0  1)

1 k-point (Gamma)
1 k-point in the irreducible part of the Brillouin zone
       k-points in crystal coordinates                weights
   0:     0.00000000    0.00000000    0.00000000          1/1

Wave functions: LCAO
  Diagonalizer: Serial LAPACK
  Atomic Correction: dense with blas
  Datatype: float
  Eigensolver: None

LCAO using direct dense diagonalizer

Densities:
  Coarse grid: 80*80*48 grid
  Fine grid: 160*160*96 grid
  Total Charge: 0.000000

Density mixing:
  Method: separate
  Backend: pulay
  Linear mixing parameter: 0.05
  Mixing with 5 old densities
  Damping of long wave oscillations: 75

Hamiltonian:
  XC and Coulomb potentials evaluated on a 160*160*96 grid
  Using the PBE Exchange-Correlation functional
  Interpolation: tri-quintic (5. degree polynomial)
  Poisson solver: Gauss-Seidel solver with 6 multi-grid levels
    Coarsest grid: 5 x 5 x 3 points
    Stencil: 6*3+1=19 point O(h^6) finite-difference Laplacian
    Max iterations: 1000
    Tolerance: 1.000000e-07

Total number of cores used: 16
Domain decomposition: 2 x 4 x 2

Number of atoms: 24
Number of atomic orbitals: 312
Number of bands in calculation: 98
Bands to converge: occupied states only
Number of valence electrons: 96

... initialized

Initializing position-dependent things.

Density initialized from atomic densities
    /      |              C                       |
   /       |           C                          |
  /        |       C                              |
 *        C|C       C   C C         C   C  C  C   |
 |         |                     C                |
 |         .---C---C--C--C------------------------.
 |        /                 C                    /
 |       /   C C C  C     C                     /
 |      /              C                       /

Positions:
   0 C     13.235858   10.181147    4.835089
   1 C     10.736632    9.633917    4.497382
   2 C     11.944535    9.984150    4.643444
   3 C      4.164821    3.160794    5.347074
   4 C      1.018280    9.713925    5.205495
   5 C     14.493343   10.206242    5.001241
   6 C     15.795164   10.040548    5.153407
   7 C      2.263067    9.246492    5.179399
   8 C      9.332627    3.767634    4.716609
   9 C      9.631439    5.061326    5.156957
  10 C      8.196483    3.245403    4.540888
  11 C      8.394267    5.846468    5.416312
  12 C      6.943952    3.837904    4.726915
  13 C      8.544142    7.221970    5.899394
  14 C      7.068234    5.245421    5.193502
  15 C      4.568295    4.148335    4.788929
  16 C      4.446234    5.501828    5.204266
  17 C      5.591759    3.443262    4.585524
  18 C      5.836822    6.007366    5.420372
  19 C      5.344271    8.523028    6.330901
  20 C      6.038954    7.312438    5.900365
  21 C      7.455503   10.300399    7.034101
  22 C      6.761873    9.152721    6.591205
  23 C      7.331085    7.889891    6.135476

Unit cell:
           periodic     x           y           z      points  spacing
  1. axis:    yes   16.000000    0.000000    0.000000    80     0.2000
  2. axis:    yes    0.000000   16.000000    0.000000    80     0.2000
  3. axis:    yes    0.000000    0.000000   10.000000    48     0.2083

Effective grid spacing dv^(1/3) = 0.2027

                     log10-error:    total        iterations:
           time      wfs    density  energy       fermi  poisson
iter:   1  11:53:22          +inf  -172.078948    3      6
iter:   2  11:53:22         -0.86  -171.136349    3      3
iter:   3  11:53:23         -0.89  -169.568590    30     3
iter:   4  11:53:24         -0.98  -168.169061    33     4
iter:   5  11:53:24         -1.19  -167.740064    3      3
iter:   6  11:53:25         -1.31  -168.135672    34     3
iter:   7  11:53:25         -1.35  -167.583701    3      3
iter:   8  11:53:26         -1.63  -167.553852    3      3
iter:   9  11:53:27         -1.75  -167.521153    2      3
iter:  10  11:53:27         -1.96  -167.506130    2      2
iter:  11  11:53:28         -2.06  -167.495669    3      2
iter:  12  11:53:28         -2.18  -167.489891    3      2
iter:  13  11:53:29         -2.36  -167.484651    3      2
iter:  14  11:53:29         -2.49  -167.483669    3      2
iter:  15  11:53:30         -2.65  -167.480955    2      2
iter:  16  11:53:30         -2.85  -167.480030    2      2
iter:  17  11:53:31         -2.98  -167.479125    2      1
iter:  18  11:53:32         -3.10  -167.478936    2      2
iter:  19  11:53:32         -3.36  -167.477865    2      1
iter:  20  11:53:33         -3.47  -167.478604    2      1
iter:  21  11:53:33         -3.57  -167.476369    2      1
iter:  22  11:53:34         -3.85  -167.478451    2      1
iter:  23  11:53:34         -3.95  -167.478834    2      1
iter:  24  11:53:35         -3.96  -167.477961    2      1
iter:  25  11:53:35         -4.19  -167.478875    2      1

Converged after 25 iterations.

Dipole moment: (16.682636, -0.140789, -0.266264) |e|*Ang

Energy contributions relative to reference atoms: (reference = -24663.074771)

Kinetic:       +129.711303
Potential:     -133.460769
External:        +0.000000
XC:            -166.380558
Entropy (-ST):   -0.500546
Local:           +2.901422
Free energy:   -167.729148
Extrapolated:  -167.478875

Fermi level: -4.78258

 Band  Eigenvalues  Occupancy
    0    -24.25561    2.00000
    1    -22.79199    2.00000
    2    -21.91527    2.00000
    3    -21.13364    2.00000
    4    -20.29972    2.00000
    5    -20.13883    2.00000
    6    -19.71339    2.00000
    7    -18.85556    2.00000
    8    -18.79498    2.00000
    9    -17.56518    2.00000
   10    -17.45663    2.00000
   11    -17.29274    2.00000
   12    -16.58985    2.00000
   13    -15.96302    2.00000
   14    -15.85469    2.00000
   15    -15.10055    2.00000
   16    -14.54032    2.00000
   17    -14.30631    2.00000
   18    -12.85111    2.00000
   19    -12.58464    2.00000
   20    -12.33345    2.00000
   21    -11.68809    2.00000
   22    -11.42965    2.00000
   23    -10.71844    2.00000
   24    -10.18148    2.00000
   25     -9.94845    2.00000
   26     -9.80614    2.00000
   27     -9.80436    2.00000
   28     -9.74937    2.00000
   29     -9.55932    2.00000
   30     -9.35862    2.00000
   31     -8.38781    2.00000
   32     -8.37962    2.00000
   33     -7.82956    2.00000
   34     -7.68596    2.00000
   35     -7.52118    2.00000
   36     -7.20114    2.00000
   37     -6.69604    2.00000
   38     -6.52679    2.00000
   39     -6.45552    2.00000
   40     -6.44230    2.00000
   41     -6.26268    2.00000
   42     -6.10033    2.00000
   43     -5.99078    1.99999
   44     -5.62948    1.99958
   45     -5.42123    1.99664
   46     -4.89441    1.50736
   47     -4.84383    1.29704
   48     -4.74202    0.79995
   49     -4.62449    0.34133
   50     -4.37050    0.03194
   51     -4.35021    0.02616
   52     -3.43182    0.00000
   53     -3.33973    0.00000
   54     -3.21941    0.00000
   55     -2.96408    0.00000
   56     -1.99769    0.00000
   57     -1.54481    0.00000
   58     -1.33885    0.00000
   59     -1.30589    0.00000
[...]
   83      8.34024    0.00000
   84      8.50448    0.00000
   85      8.67956    0.00000
   86      8.71174    0.00000
   87      8.82472    0.00000
   88      8.90486    0.00000
   89      9.08751    0.00000
   90      9.13759    0.00000
   91      9.16792    0.00000
   92      9.25951    0.00000
   93      9.50421    0.00000
   94      9.69887    0.00000
   95      9.74377    0.00000
   96      9.82839    0.00000
   97      9.89671    0.00000

Forces in eV/Ang:
  0 C    -1.48302   -0.36232   -0.22658
  1 C    -3.26781   -0.92635   -0.33038
  2 C     3.14035    1.03753    0.46826
  3 C    -2.64763  -13.00583    4.68976
  4 C     3.18693   -0.69175    0.27858
  5 C     2.63336    0.06818    0.41906
  6 C    -3.98860    0.54829   -0.49676
  7 C    -0.26134    0.13960   -0.04992
  8 C     1.22467    2.20309    1.05059
  9 C    -1.63291   -1.17610   -0.67096
 10 C    -1.05212   -0.97438   -0.43877
 11 C     1.93078    0.28007    0.23087
 12 C    -0.10880    0.66907   -0.13752
 13 C    -2.70766   -0.87192   -0.22925
 14 C     0.11303   -0.33537   -0.45378
 15 C    -4.18157   16.99070   -4.25656
 16 C     3.09869    2.10941   -0.04798
 17 C     6.15624   -6.35216    0.14695
 18 C    -1.97568   -0.89990   -0.32519
 19 C     1.64573   -0.37775   -0.13153
 20 C    -1.32664    0.29131    0.11099
 21 C    -1.77943   -2.60015   -1.03912
 22 C     0.77290    3.90844    1.54091
 23 C     2.54652    0.28759   -0.08329

System changes: positions

[...]

Density initialized from wave functions
    /      |              C                       |
   /       |           C                          |
  /        |       C                              |
 *        C|C       C   C C         C   C  C  C   |
 |         |                     C                |
 |         .---C---C--C--C------------------------.
[...]
 |         .----C-----C--C------------------------.
 |        /   C             C                    /
 |       /   C   C  C     C                     /
 |      /              C                       /

[...]

Density initialized from wave functions
   /       |            C C                       |
  /        |        C                             |
 *       C | C       C   C      C  C   C  C  C    |
 |         |       C      C                       |
 |         .----C-----C--C------------------------.
 |        /   C             C                    /
 |       /   C   C  C     C                     /
 |      /              C                       /

[...]

Density initialized from wave functions
   /       |            C C                       |
  /        |        C                             |
 *       C |C        C   C      C  C   C  C  C    |
 |         |       C       C                      |
 |         .----C-----C--C------------------------.
 |        /   C             C                    /
 |       /   C   C  C     C                     /
 |      /              C                       /

[...]

Density initialized from wave functions
   /       |            C C                       |
  /        |        C                             |
 *       C |C        C   C      C  C   C  C  C    |
 |         |        C      C                      |
 |         .----C-----C---C-----------------------.
 |        /   C             C                    /
 |       /   C   C  C     C                     /
 |      /              C                       /

[...]

Density initialized from wave functions
   /       |            C C                       |
  /        |        C                             |
 *       C |C        C   C      C  C  C   C  C    |
 |         |        C      C                      |
 |         .----C-----C---C-----------------------.
 |        /   C             C                    /
 |       /   C   C  C     C                     /
 |      /              C                       /

[...]

Density initialized from wave functions
   /       |              C                       |
  /        |        C   C                         |
 *       C |C        C   C      C  C  C   C  C    |
 |         |        C      C                      |
 |         .----C-----C---C-----------------------.
 |        /   C             C                    /
 |       /   C   C  C     C                     /
 |      /              C                       /

[...]

Density initialized from wave functions
    /      |              C                       |
  /        |        C   C                         |
 *       C |C        C   C     C   C  C  C   C    |
 |         |        C       C                     |
 |         .----C-----C---C-----------------------.
 |        /   C             C                    /
 |       /   C   C  C     C                     /
 |      /              C                       /

[...]

Density initialized from wave functions
    /      |              C                       |
  /        |        C   C                         |
 *       C |C        C   C     C   C  C  C   C    |
 |         |        C       C                     |
 |         .-----C----C---C-----------------------.
 |        /   C             C                    /
 |       /   C   C  C     C                     /
 |      /              C                       /

[...]

Density initialized from wave functions
    /      |              C                       |
  /        |        C   C                         |
 *       C |C        C   C     C   C  C  C   C    |
 |         |        C       C                     |
 |         .-----C----C---C-----------------------.
 |        /    C            C                    /
 |       /   C   C  C     C                     /
 |      /              C                       /

[...]

Density initialized from wave functions
    /      |              C                       |
  /        |        C   C                         |
 *       C |C        C   C     C  C   C  C  C     |
 |         |     C  C       C                     |
 |         .----------C---C-----------------------.
 |        /    C            C                    /
 |       /   C   C  C     C                     /
 |      /              C                       /

[...]

Density initialized from wave functions
    /      |              C                       |
  /        |        C   C                         |
 *       C |C        C   C     C  C   C  C  C     |
 |         |     C  C      C                      |
 |         .----------C---C-----------------------.
 |        /    C            C                    /
 |       /   C   C  C     C                     /
 |      /              C                       /

[...]

Density initialized from wave functions
    /      |              C                       |
  /        |        C    C                        |
 *      C  C         C   C     C  C   C  C  C     |
 |         |     C  C      C                      |
 |         .----------C---C-----------------------.
 |        /    C            C                    /
 |       /   C   C   C    C                     /
 |      /              C                       /

[...]

Density initialized from wave functions
    /      |              C                       |
  /        |        C    C                        |
 *      C  C         C   C     C  C   C  C  C     |
 |         |     C  C      C                      |
 |         .----------C---C-----------------------.
 |        /    C            C                    /
 |       /   C   C   C    C                     /
 |      /              C                       /

[...]

Density initialized from wave functions
    /      |              C                       |
  /        |        C    C                        |
 *      C  C          C  C        C  C   C  C     |
 |         |     C  C      C   C                  |
 |         .----------C---C-----------------------.
 |        /    C            C                    /
 |       /   C   C   C    C                     /
 |      /              C                       /

[...]

Density initialized from wave functions
   /       |              C                       |
  /        |        C    C                        |
 *      C  C          C  C        C  C  C   C     |
 |         |     C  C      C   C                  |
 |         .----------C---C-----------------------.
 |        /    C            C                    /
 |       /    C  C   C    C                     /
 |      /              C                       /

[...]

Density initialized from wave functions
   /       |              C                       |
  /        |        C    C                        |
 *      C  C         C   C           C  C   C     |
 |         |     C  C      C   C  C               |
 |         .----------C---C-----------------------.
 |        /    C            C                    /
 |       /    C  C   C    C                     /
 |      /              C                       /

[...]

Density initialized from wave functions
   /       |              C                       |
  /        |         C   C                        |
 *      C  C         C   C           C  C   C     |
 |         |    C   C      C   C  C               |
 |         .----------C---C-----------------------.
 |        /    C            C                    /
 |       /    C  C   C    C                     /
 |      /              C                       /

[...]

Density initialized from wave functions
   /       |         C    C                       |
  /        |             C                        |
 *      C  C         C   C           C  C   C     |
 |         |        C      C   C  C               |
 |         .----C-----C---C-----------------------.
 |        /    C            C                    /
 |       /    C  C   C    C                     /
 |      /              C                       /

[...]

Density initialized from wave functions
   /       |         C     C                      |
  /        |             C                        |
 *      C  C         C   C           C  C  C      |
 |         |        C      C   C  C               |
 |         .----C-----C---C-----------------------.
 |        /    C            C                    /
 |       /    C  C   C    C                     /
 |      /              C                       /

[...]

Density initialized from wave functions
   /       |         C   C C                      |
 *      C  C         C   C           C  C  C      |
 |         |        C      C   C  C               |
 |         .----C-----C---C-----------------------.
 |        /    C            C                    /
 |       /       C   C    C                     /
 |      /     C        C                       /

[...]

Density initialized from wave functions
   /       |         C   C C                      |
 *      C  C         C   C           C  C  C      |
 |         |        C      C   C  C               |
 |         .----C-----C---C-----------------------.
 |        /    C            C                    /
 |       /       C   C    C                     /
 |      /     C        C                       /

[...]

Density initialized from wave functions
   /       |         C   C C                      |
 *      C  C         C   C           C  C  C      |
 |         |        C      C   C  C               |
 |         .----C-----C---C-----------------------.
 |        /    C            C                    /
 |       /    C  C   C    C                     /
 |      /              C                       /

[...]

Density initialized from wave functions
   /       |         C   C C                      |
 *      C  C         C   C           C  C  C      |
 |         |        C      C   C  C               |
 |         .----C-----C---C-----------------------.
 |        /    C            C                    /
 |       /    C  C   C    C                     /
 |      /              C                       /

[...]

Density initialized from wave functions
   /       |         C   C C                      |
 *      C  C         C   C        C  C  C  C      |
 |         |        C      C   C                  |
 |         .----C-----C---C-----------------------.
 |        /    C            C                    /
 |       /    C  C   C    C                     /
 |      /              C                       /

[...]

System changes: positions

Initializing position-dependent things.

Density initialized from wave functions
   /       |         C   C C                      |
 *      C  C         C   C        C  C  C  C      |
 |         |        C      C   C                  |
 |         .----C-----C---C-----------------------.
 |        /    C            C                    /
 |       /    C  C   C    C                     /
 |      /              C                       /

Positions:
   0 C     12.437563    9.019114    5.057011
   1 C     10.032416    8.107376    5.295897
   2 C     11.193039    8.611858    5.160134
   3 C      4.392139    3.108908    4.837853
   4 C      0.278249    9.632969    5.093271
   5 C     13.688112    9.330949    4.990955
   6 C     14.972657    9.517905    5.023933
   7 C      1.582486    9.557112    5.287128
   8 C      9.123149    4.068424    4.534626
   9 C      9.638516    5.261146    4.752149
  10 C      8.085563    3.260012    4.456515
  11 C      8.538693    6.121890    5.096275
  12 C      6.995132    4.121979    4.801057
  13 C      8.773787    7.552025    5.396778
  14 C      7.197770    5.555748    5.144504
  15 C      4.460401    4.477125    5.265148
  16 C      4.820408    5.677022    5.598462
  17 C      5.657260    3.629399    4.834392
  18 C      6.038697    6.357604    5.565697
  19 C      6.098618    8.755252    6.872971
  20 C      6.323327    7.725716    5.879772
  21 C      7.843706   10.799068    6.077406
  22 C      7.251715    9.625839    6.298041
  23 C      7.603317    8.312772    5.691067

Unit cell:
           periodic     x           y           z      points  spacing
  1. axis:    yes   16.000000    0.000000    0.000000    80     0.2000
  2. axis:    yes    0.000000   16.000000    0.000000    80     0.2000
  3. axis:    yes    0.000000    0.000000   10.000000    48     0.2083

Effective grid spacing dv^(1/3) = 0.2027

                     log10-error:    total        iterations:
           time      wfs    density  energy       fermi  poisson
iter:   1  12:12:18          +inf  -178.073799    2      4
iter:   2  12:12:19         -2.83  -178.077062    2      1
iter:   3  12:12:19         -3.11  -178.078963    2      1
iter:   4  12:12:20         -3.26  -178.074855    2      1
iter:   5  12:12:20         -3.39  -178.080701    2      1
iter:   6  12:12:21         -3.24  -178.080435    2      1
iter:   7  12:12:21         -3.60  -178.077121    2      1
iter:   8  12:12:22         -3.40  -178.079448    2      1
iter:   9  12:12:22         -3.76  -178.079655    2      1
iter:  10  12:12:23         -4.02  -178.078094    2      1

Converged after 10 iterations.

Dipole moment: (-13.892943, -0.322508, -0.126128) |e|*Ang

Energy contributions relative to reference atoms: (reference = -24663.074771)

Kinetic:       +110.339131
Potential:     -120.798902
External:        +0.000000
XC:            -170.486157
Entropy (-ST):   -0.165635
Local:           +2.950652
Free energy:   -178.160912
Extrapolated:  -178.078094

Fermi level: -4.66249

 Band  Eigenvalues  Occupancy
    0    -23.95438    2.00000
    1    -23.27191    2.00000
    2    -22.04424    2.00000
    3    -21.06545    2.00000
    4    -20.82387    2.00000
    5    -20.61538    2.00000
    6    -19.88673    2.00000
    7    -19.15215    2.00000
    8    -18.86609    2.00000
    9    -18.48330    2.00000
   10    -18.06710    2.00000
   11    -17.38739    2.00000
   12    -17.19680    2.00000
   13    -16.27933    2.00000
   14    -15.84315    2.00000
   15    -15.34426    2.00000
   16    -14.93121    2.00000
   17    -14.31289    2.00000
   18    -13.70939    2.00000
   19    -13.22717    2.00000
   20    -12.31413    2.00000
   21    -11.99438    2.00000
   22    -11.54763    2.00000
   23    -11.10407    2.00000
   24    -11.00902    2.00000
   25    -10.52797    2.00000
   26    -10.23732    2.00000
   27    -10.15869    2.00000
   28     -9.98745    2.00000
   29     -9.65135    2.00000
   30     -9.56870    2.00000
   31     -9.48055    2.00000
   32     -9.27917    2.00000
   33     -8.70975    2.00000
   34     -8.31144    2.00000
   35     -8.21110    2.00000
   36     -7.67244    2.00000
   37     -7.00360    2.00000
   38     -6.91899    2.00000
   39     -6.61437    2.00000
   40     -6.48594    2.00000
   41     -6.43923    2.00000
   42     -6.10986    2.00000
   43     -6.01297    2.00000
   44     -5.90380    1.99999
   45     -5.57219    1.99978
   46     -5.16994    1.98757
   47     -4.86123    1.75893
   48     -4.45962    0.23244
   49     -4.20154    0.01972
   50     -3.94606    0.00155
   51     -3.56533    0.00003
   52     -3.17278    0.00000
   53     -2.73891    0.00000
   54     -2.27693    0.00000
   55     -2.00162    0.00000
   56     -1.52547    0.00000
   57     -1.48488    0.00000
   58     -1.04784    0.00000
   59      0.16487    0.00000
[...]
   83      8.17249    0.00000
   84      8.35587    0.00000
   85      8.52397    0.00000
   86      8.75622    0.00000
   87      8.87993    0.00000
   88      9.02523    0.00000
   89      9.07625    0.00000
   90      9.20832    0.00000
   91      9.39098    0.00000
   92      9.42268    0.00000
   93      9.51270    0.00000
   94      9.61051    0.00000
   95      9.69377    0.00000
   96      9.76568    0.00000
   97      9.85049    0.00000

Forces in eV/Ang:
  0 C     0.02569   -0.02075    0.03920
  1 C    -0.02224   -0.02665    0.00411
  2 C     0.02180   -0.00622   -0.00253
  3 C    -0.00561   -0.01556    0.01589
  4 C     0.04463   -0.01803    0.03487
  5 C    -0.02971    0.00023    0.03686
  6 C     0.02078   -0.03402    0.00639
  7 C    -0.03691    0.03392   -0.05362
  8 C     0.02525   -0.00910   -0.06049
  9 C     0.01750    0.04173   -0.01590
 10 C    -0.00726   -0.02246   -0.02323
 11 C    -0.01830   -0.01095   -0.01594
 12 C    -0.00983   -0.00822    0.00613
 13 C     0.01685    0.02081    0.00746
 14 C     0.00772   -0.02205   -0.01078
 15 C    -0.03600   -0.01807    0.00553
 16 C     0.01041    0.05113    0.00166
 17 C     0.04431   -0.01832   -0.00214
 18 C     0.02744   -0.01405   -0.00331
 19 C     0.00935    0.01113   -0.03347
 20 C    -0.00309   -0.01175   -0.01225
 21 C    -0.01831    0.01738    0.02231
 22 C    -0.00569   -0.01051    0.00513
 23 C     0.05322    0.02474   -0.00794