User:   esb@s65n12.grendel.cscaa.dk
Date:   Thu Nov  9 09:52:32 2017
Arch:   x86_64
Pid:    18863
Python: 2.7.13
gpaw:   /home/esb/DFT/gpaw_git/gpaw
_gpaw:  /home/esb/DFT/gpaw_git/build/bin.linux-x86_64-2.7/gpaw-python
ase:    /home/esb/DFT/ase_git/ase (version 3.15.0b1)
numpy:  /comm/swstack/core/python/2.7.13/lib/python2.7/site-packages/numpy (version 1.13.3)
scipy:  /comm/swstack/core/python/2.7.13/lib/python2.7/site-packages/scipy (version 0.19.1)
units:  Angstrom and eV
cores:  16
Extra parameters: {'blacs': True}

Input parameters:
  basis: dzp
  gpts: [80 80 48]
  kpts: [1 1 1]
  maxiter: 99
  mixer: {backend: pulay,
          beta: 0.05,
          method: separate,
          nmaxold: 5,
          weight: 75}
  mode: lcao
  nbands: -50
  occupations: {name: fermi-dirac,
                width: 0.1}
  poissonsolver: {eps: 1e-07,
                  name: fd,
                  nn: 3,
                  relax: GS}
  xc: PBE

System changes: positions, numbers, cell, pbc, initial_charges, initial_magmoms

Initialize ...

C-setup:
  name: Carbon
  id: 4aa54d4b901d75f77cc0ea3eec22967b
  Z: 6
  valence: 4
  core: 2
  charge: 0.0
  file: /home/esb/DFT/gpaw-setups-0.8.7929/C.PBE.gz
  cutoffs: 0.64(comp), 1.14(filt), 1.14(core), lmax=2
  valence states:
                energy  radius
    2s(2.00)   -13.751   0.635
    2p(2.00)    -5.284   0.635
    *s          13.461   0.635
    *p          21.927   0.635
    *d           0.000   0.635

  LCAO basis set for C:
    Name: dzp
    File: /home/esb/DFT/gpaw-setups-0.8.7929/C.dzp.basis.gz
    Number of radial functions: 5
    Number of spherical harmonics: 13
      l=0, rc=5.5469 Bohr: 2s-sz confined orbital
      l=1, rc=6.6719 Bohr: 2p-sz confined orbital
      l=0, rc=3.0312 Bohr: 2s-dz split-valence wave
      l=1, rc=3.7500 Bohr: 2p-dz split-valence wave
      l=2, rc=6.6719 Bohr: d-type Gaussian polarization

Reference energy: -24663.074771

Spin-paired calculation

Occupation numbers:
  Fermi-Dirac: width=0.1000 eV

Convergence criteria:
  Maximum total energy change: 0.0005 eV / electron
  Maximum integral of absolute density change: 0.0001 electrons
  Maximum integral of absolute eigenstate change: 4e-08 eV^2
  Maximum number of iterations: 99

Symmetries present (total): 1

  ( 1  0  0)
  ( 0  1  0)
  ( 0  0  1)

1 k-point (Gamma)
1 k-point in the irreducible part of the Brillouin zone
       k-points in crystal coordinates                weights
   0:     0.00000000    0.00000000    0.00000000          1/1

Wave functions: LCAO
  Diagonalizer: Serial LAPACK
  Atomic Correction: dense with blas
  Datatype: float
  Eigensolver: None

LCAO using direct dense diagonalizer

Densities:
  Coarse grid: 80*80*48 grid
  Fine grid: 160*160*96 grid
  Total Charge: 0.000000

Density mixing:
  Method: separate
  Backend: pulay
  Linear mixing parameter: 0.05
  Mixing with 5 old densities
  Damping of long wave oscillations: 75

Hamiltonian:
  XC and Coulomb potentials evaluated on a 160*160*96 grid
  Using the PBE Exchange-Correlation functional
  Interpolation: tri-quintic (5. degree polynomial)
  Poisson solver: Gauss-Seidel solver with 6 multi-grid levels
    Coarsest grid: 5 x 5 x 3 points
    Stencil: 6*3+1=19 point O(h^6) finite-difference Laplacian
    Max iterations: 1000
    Tolerance: 1.000000e-07

Total number of cores used: 16
Domain decomposition: 2 x 4 x 2

Number of atoms: 24
Number of atomic orbitals: 312
Number of bands in calculation: 98
Bands to converge: occupied states only
Number of valence electrons: 96

... initialized

Initializing position-dependent things.

Density initialized from atomic densities
  /        |           C                          |
 *         |     C  C           CC                |
 |         |  C          CC C C                   |
 |         .-C-C---C-C--C--C--C-------------------.
 |        /          C  C     C                  /
 |       /             C  C                     /

Positions:
   0 C      6.234102   10.583463    4.956606
   1 C      5.089952   10.068947    5.095744
   2 C      4.075351    9.228465    5.358003
   3 C      8.076811    9.132592    4.189437
   4 C     10.434076    9.421653    5.216394
   5 C      7.401878    7.872845    4.010417
   6 C      9.447729    8.806943    4.304330
   7 C     11.284718    6.998066    6.380354
   8 C      9.136253    6.350992    4.784174
   9 C     10.963267    8.034841    5.513893
  10 C      7.846957    6.713280    4.256454
  11 C      9.949949    7.491084    4.585505
  12 C      3.453317    7.613960    5.574594
  13 C     10.726437    5.232759    5.649679
  14 C      5.821230    6.144205    5.530180
  15 C      8.231229    3.193640    5.166810
  16 C      9.566873    6.171946    5.751354
  17 C      4.465677    5.535511    5.440128
  18 C      8.187501    6.278243    5.673598
  19 C      7.020895    3.892263    5.339407
  20 C      9.489486    3.319451    5.320676
  21 C      3.288245    6.325099    5.437312
  22 C      7.030295    5.348430    5.504043
  23 C     10.697761    3.903902    5.296983

Unit cell:
           periodic     x           y           z      points  spacing
  1. axis:    yes   16.000000    0.000000    0.000000    80     0.2000
  2. axis:    yes    0.000000   16.000000    0.000000    80     0.2000
  3. axis:    yes    0.000000    0.000000   10.000000    48     0.2083

Effective grid spacing dv^(1/3) = 0.2027

                     log10-error:    total        iterations:
           time      wfs    density  energy       fermi  poisson
iter:   1  09:52:34          +inf  -156.414147    3      6
iter:   2  09:52:34         -0.92  -155.405881    3      3
iter:   3  09:52:35         -0.96  -153.736864    4      3
iter:   4  09:52:36         -1.07  -152.841502    35     3
iter:   5  09:52:36         -1.26  -152.642050    4      3
iter:   6  09:52:37         -1.46  -152.584830    3      3
iter:   7  09:52:37         -1.57  -152.544409    3      3
iter:   8  09:52:38         -1.75  -152.525662    3      3
iter:   9  09:52:39         -1.88  -152.508447    3      2
iter:  10  09:52:39         -1.99  -152.498942    3      2
iter:  11  09:52:40         -2.19  -152.496722    3      2
iter:  12  09:52:40         -2.34  -152.495413    3      2
iter:  13  09:52:41         -2.57  -152.487370    3      2
iter:  14  09:52:42         -2.68  -152.484985    2      2
iter:  15  09:52:42         -2.89  -152.484071    2      2
iter:  16  09:52:43         -3.23  -152.483813    2      1
iter:  17  09:52:43         -3.28  -152.480924    2      1
iter:  18  09:52:44         -3.35  -152.476795    2      1
iter:  19  09:52:44         -3.47  -152.485910    2      1
iter:  20  09:52:45         -3.64  -152.487032    2      1
iter:  21  09:52:46         -3.80  -152.487658    2      1
iter:  22  09:52:46         -4.26  -152.485884    2      1

Converged after 22 iterations.

Dipole moment: (-0.136813, -0.503248, -0.250967) |e|*Ang

Energy contributions relative to reference atoms: (reference = -24663.074771)

Kinetic:       +137.680832
Potential:     -124.267574
External:        +0.000000
XC:            -168.669403
Entropy (-ST):   -0.333449
Local:           +2.936985
Free energy:   -152.652608
Extrapolated:  -152.485884

Fermi level: -4.54385

 Band  Eigenvalues  Occupancy
    0    -29.40577    2.00000
    1    -23.57386    2.00000
    2    -22.78983    2.00000
    3    -21.09627    2.00000
    4    -20.50887    2.00000
    5    -20.23212    2.00000
    6    -19.59215    2.00000
    7    -19.49004    2.00000
    8    -19.05633    2.00000
    9    -18.86851    2.00000
   10    -17.95210    2.00000
   11    -17.07119    2.00000
   12    -16.60013    2.00000
   13    -16.27964    2.00000
   14    -15.81632    2.00000
   15    -15.70927    2.00000
   16    -14.20433    2.00000
   17    -14.12208    2.00000
   18    -13.46509    2.00000
   19    -13.31190    2.00000
   20    -12.59967    2.00000
   21    -12.49832    2.00000
   22    -12.20832    2.00000
   23    -11.64914    2.00000
   24    -10.82386    2.00000
   25    -10.38487    2.00000
   26    -10.19332    2.00000
   27     -9.65078    2.00000
   28     -9.38026    2.00000
   29     -9.06879    2.00000
   30     -8.95487    2.00000
   31     -8.55167    2.00000
   32     -8.48531    2.00000
   33     -8.21411    2.00000
   34     -7.94804    2.00000
   35     -7.85325    2.00000
   36     -7.67006    2.00000
   37     -7.33276    2.00000
   38     -6.74230    2.00000
   39     -6.44115    2.00000
   40     -6.34308    2.00000
   41     -6.08632    2.00000
   42     -5.69711    1.99998
   43     -5.59288    1.99994
   44     -5.40578    1.99964
   45     -5.25747    1.99841
   46     -4.77015    1.81152
   47     -4.69049    1.62500
   48     -4.39058    0.35519
   49     -4.30644    0.17033
   50     -4.14513    0.03643
   51     -3.89430    0.00302
   52     -3.71576    0.00051
   53     -3.40539    0.00002
   54     -3.27663    0.00001
   55     -2.89495    0.00000
   56     -2.28252    0.00000
   57     -2.26331    0.00000
   58     -1.65213    0.00000
   59     -1.46533    0.00000
[...]
   83      7.91409    0.00000
   84      8.20307    0.00000
   85      8.38697    0.00000
   86      8.45339    0.00000
   87      8.66550    0.00000
   88      8.68767    0.00000
   89      8.97420    0.00000
   90      9.21801    0.00000
   91      9.33377    0.00000
   92      9.46556    0.00000
   93      9.62742    0.00000
   94      9.76771    0.00000
   95      9.81463    0.00000
   96      9.93246    0.00000
   97      9.96216    0.00000

Forces in eV/Ang:
  0 C     4.70506    2.13382   -0.79576
  1 C    -4.34546   -4.51289    1.03088
  2 C    -2.39278   -5.60582    0.22829
  3 C    -3.48705   -3.20862   -1.10226
  4 C     1.00478   -2.15469    0.35849
  5 C    -0.18562    7.41496   -0.58121
  6 C    -0.50949    2.22179    0.87130
  7 C     0.23890   -1.44440   -0.01119
  8 C    -4.82781    8.32289  -41.84274
  9 C     1.37346    0.37858   -0.13631
 10 C    -0.50786   -4.37363   -1.03329
 11 C     0.98926    4.54889   -3.42351
 12 C     2.65833    6.57692   -1.04662
 13 C     0.69534    0.72568    1.21372
 14 C    -3.68607   -4.45822   -0.25075
 15 C    -4.49371    1.64830    0.63550
 16 C    15.82842  -11.50754   34.25978
 17 C     3.16342    4.09486    0.35542
 18 C   -10.69155   -1.16189   10.32087
 19 C     3.74646   -0.30421   -0.19272
 20 C     2.01294   -0.30794   -0.72931
 21 C     1.10360    0.49851    0.25799
 22 C    -2.04409   -1.08723    0.01710
 23 C    -0.26216    1.65393    1.52748

System changes: positions

[...]

Density initialized from wave functions
  /        |           C                          |
 *         |     C  C           CC                |
 |         |  C          CC C C                   |
 |         .-C-C---C-C--C--C--C-------------------.
 |        /          C  C     C                  /
 |       /             C  C                     /

[...]

Density initialized from wave functions
  /        |           C                          |
 *         |     C  C           CC                |
 |         |  C          CC C C                   |
 |         .-C-C---C-C--C--C--C-------------------.
 |        /          C  C     C                  /
[...]
 |       /              C                       /

[...]

Density initialized from wave functions
  /        |                    C                 |
 *         |   C C  C   C                         |
 |         |  C           C   C  C                |
 |         .---C-C--C--CC--C--C-------------------.
 |        /          C     C                     /
 |       /              C                       /

[...]

Density initialized from wave functions
  /        |                    C                 |
 *         |   C C  C   C                         |
 |         |  C           C   C  C                |
 |         .---C-C--C--CC--C--C-------------------.
 |        /          C     C                     /
 |       /              C                       /

[...]

Density initialized from wave functions
  /        |                     C                |
 *         |     C  C  C                          |
 |         |  CC           C  C  C                |
 |         .---C-C--C--CC--C--C-------------------.
 |        /          C     C                     /
 |       /              C                       /

[...]

Density initialized from wave functions
  /        |                     C                |
 *         |     C  C  C                          |
 |         |  CC           C  C  C                |
 |         .---C-C--C--CC--C--C-------------------.
 |        /          C  C  C                     /

[...]

Density initialized from wave functions
  /        |                     C                |
 *         |     C  C  C                          |
 |         |  CC           C  C  C                |
 |         .---C-C--C--CC--C--C-------------------.
 |        /          C  C  C                     /

[...]

Density initialized from wave functions
  /        |                     C                |
 *         |     C  C  C                          |
 |         |  CC           C  C CC                |
 |         .---C-C--C--CC--C--C-------------------.
 |        /          C  C  C                     /

[...]

Density initialized from wave functions
  /        |                     C                |
 *         |     C  C  C                          |
 |         |  CC           C  C CC                |
 |         .---C-C--C--CC--C--C-------------------.
 |        /          C  C  C                     /

[...]

Density initialized from wave functions
  /        |                     C                |
 *         |   C C  C  C                          |
 |         |  C            C  C CC                |
 |         .---C-C--C--CC--C--C-------------------.
 |        /          C  C  C                     /

[...]

Density initialized from wave functions
  /        |                     C                |
 *         |   C C  C  C                          |
 |         |  C            C  C  C                |
 |         .---C-C--C--CC--C--C-------------------.
 |        /          C  C  C                     /

[...]

Density initialized from wave functions
  /        |                     C                |
 *         |   C C  C  C                          |
 |         |  C            C  C CC                |
 |         .---C-C--C--CC--C--C-------------------.
 |        /          C  C  C                     /

[...]

Density initialized from wave functions
  /        |                     C                |
 *         |   C C  C  C                          |
 |         |  C            C  C CC                |
 |         .---C-C-----CC--C--C-------------------.
 |        /         CC  C  C                     /

[...]

Density initialized from wave functions
  /        |                     C                |
 *         |   C C  C  C                          |
 |         |   C          C   C CC                |
 |         .---C-C-----CC--C--C-------------------.
 |        /         CC  C  C                     /

[...]

Density initialized from wave functions
  /        |                     C                |
 *         |   C C  C  C                          |
 |         |   C          C   C CC                |
 |         .---C-C------C--C--C-------------------.
 |        /         CC CC  C                     /

[...]

Density initialized from wave functions
  /        |                     C                |
 *         |   C C  C  C                          |
 |         |   C          C   C CC                |
 |         .---C-C------C-----C-------------------.
 |        /         CC CC  C                     /

[...]

Density initialized from wave functions
  /        |                     C                |
 *         |   C C  C  C                          |
 |         |   C          C   C CC                |
 |         .---C-C------C-----C-------------------.
 |        /         CC CC  C                     /

[...]

Density initialized from wave functions
  /        |                     C                |
 *         |   C C  C  C                          |
 |         |   C          C   C CC                |
 |         .----CC------C-----C-------------------.
 |        /         CC CC  C                     /

[...]

Density initialized from wave functions
  /        |                     C                |
 *         |   C C  C  C                          |
 |         |   C          C   C C                 |
 |         .----C-C-----C-----C-------------------.
 |        /         CC CC  C                     /

[...]

Density initialized from wave functions
  /        |                     C                |
 *         |   C C  C  C                          |
 |         |   C          C   C C                 |
 |         .----C-C-----C-----C-------------------.
 |        /          C CC  C                     /

[...]

Density initialized from wave functions
  /        |                     C                |
 *         |   C C  C  C                          |
 |         |   C          C   C CC                |
 |         .----C-C-----C-----C-------------------.
 |        /          C CC  C                     /

[...]

Density initialized from wave functions
  /        |                     C                |
 *         |   C C  C  C         C                |
 |         |   C          C   C C                 |
 |         .----C-C-----C-----C-------------------.
 |        /          C CC  C                     /

[...]

Density initialized from wave functions
  /        |                     C                |
 *         |   C C  C  C         C                |
 |         |   C          C   C C                 |
 |         .----C-C-----C-----C-------------------.
 |        /          C CC  C                     /

[...]

Density initialized from wave functions
  /        |                     C                |
 *         |   C C  C  C         C                |
 |         |   C          C   C C                 |
 |         .----C-C-----C-----C-------------------.
 |        /         CC CC  C                     /

[...]

Density initialized from wave functions
  /        |                     C                |
 *         |   C C  C  C         C                |
 |         |   C          C   C C                 |
 |         .----C-C-----C-----C-------------------.
 |        /         CC CC  C                     /

[...]

Density initialized from wave functions
  /        |                     C                |
 *         |   C C  C  C                          |
 |         |   C          C   C CC                |
 |         .----C-C-----C-----C-------------------.
 |        /         CC CC  CC                    /

[...]

Density initialized from wave functions
  /        |                     C                |
 *         |   C C  C  C                          |
 |         |   C          C   C CC                |
 |         .----C-C-----C-----C-------------------.
 |        /         CC CC  CC                    /

[...]

Density initialized from wave functions
  /        |                     C                |
 *         |   C C  C  C         C                |
 |         |   C          C   C C                 |
 |         .----C-C-----C-----C-------------------.
 |        /         CC CC  CC                    /

[...]

Density initialized from wave functions
  /        |                     C                |
 *         |   C C  C  C         C                |
 |         |   C          C   C C                 |
 |         .----C-C-----C-----C-------------------.
 |        /          C CC  CC                    /

[...]

Density initialized from wave functions
  /        |                     C                |
 *         |   C C  C  C         C                |
 |         |   C          C   C C                 |
 |         .----C-C-----C--C--C-------------------.
 |        /          C CC  CC                    /

[...]

Density initialized from wave functions
  /        |                     C                |
 *         |   C C  C  C         C                |
 |         |   C          C   C C                 |
 |         .----C-C-----C--C--C-------------------.
 |        /          C CC  CC                    /

[...]

Density initialized from wave functions
  /        |                     C                |
 *         |   C C  C  C         C                |
 |         |   C          C   C C                 |
 |         .----C-C-----C-----C-------------------.
 |        /          C CC  CC                    /

[...]

Density initialized from wave functions
  /        |                     C                |
 *         |   C C  C  C                          |
 |         |   C          C   C CC                |
 |         .----C-C-----C-----C-------------------.
 |        /          C CC  CC                    /

[...]

Density initialized from wave functions
  /        |                     C                |
 *         |   C C  C  C                          |
 |         |  C           C   C CC                |
 |         .---C--C-----C--C--C-------------------.
 |        /          C CC  CC                    /

[...]

Density initialized from wave functions
  /        |                     C                |
 *         |   C C  C  C                          |
 |         |  C           C   C CC                |
 |         .---C--C-----C--C--C-------------------.
 |        /          C CC  CC                    /

[...]

Density initialized from wave functions
  /        |                     C                |
 *         |   C C  C  C                          |
 |         |  C           C   C CC                |
 |         .---C--C-----C--C-CC-------------------.
 |        /          C CC  CC                    /

[...]

System changes: positions

Initializing position-dependent things.

Density initialized from wave functions
  /        |                     C                |
 *         |   C C  C  C                          |
 |         |  C           C   C CC                |
 |         .---C--C-----C--C-CC-------------------.
 |        /          C CC  CC                    /

Positions:
   0 C      6.574307    9.490624    4.761632
   1 C      5.347547    9.924878    5.214262
   2 C      4.294354    9.235447    5.470909
   3 C      7.976964    9.476208    4.493692
   4 C     10.586889    9.393848    5.599240
   5 C      7.176032    8.297578    4.169973
   6 C      9.382087    9.362136    4.674173
   7 C     11.172403    6.732734    5.772591
   8 C      9.136403    6.993110    3.988826
   9 C     10.925538    8.004258    5.396021
  10 C      7.666185    6.997713    4.036054
  11 C      9.870179    8.110458    4.250011
  12 C      3.471672    8.194347    5.624896
  13 C     10.473597    5.544398    5.498890
  14 C      5.493739    5.133664    5.398411
  15 C      8.502862    3.038220    6.111362
  16 C      9.246489    5.726779    4.654709
  17 C      4.420421    5.804344    5.508050
  18 C      7.771085    5.632514    4.666411
  19 C      7.378803    3.522707    5.817611
  20 C      9.836022    3.257922    6.266143
  21 C      3.736771    6.933861    5.645999
  22 C      6.808699    4.707181    5.272603
  23 C     10.603457    4.237578    6.051116

Unit cell:
           periodic     x           y           z      points  spacing
  1. axis:    yes   16.000000    0.000000    0.000000    80     0.2000
  2. axis:    yes    0.000000   16.000000    0.000000    80     0.2000
  3. axis:    yes    0.000000    0.000000   10.000000    48     0.2083

Effective grid spacing dv^(1/3) = 0.2027

                     log10-error:    total        iterations:
           time      wfs    density  energy       fermi  poisson
iter:   1  10:04:53          +inf  -180.562752    2      4
iter:   2  10:04:53         -3.06  -180.561670    2      1
iter:   3  10:04:54         -3.22  -180.560580    2      1
iter:   4  10:04:54         -3.41  -180.560104    2      1
iter:   5  10:04:55         -3.58  -180.559646    2      1
iter:   6  10:04:55         -3.64  -180.561638    2      1
iter:   7  10:04:56         -3.37  -180.560652    2      1
iter:   8  10:04:56         -3.98  -180.560777    2      1
iter:   9  10:04:57         -4.28  -180.561059    2      1

Converged after 9 iterations.

Dipole moment: (-0.245904, -0.095527, -0.131818) |e|*Ang

Energy contributions relative to reference atoms: (reference = -24663.074771)

Kinetic:       +106.095183
Potential:     -111.931452
External:        +0.000000
XC:            -177.708258
Entropy (-ST):   -0.095301
Local:           +3.031117
Free energy:   -180.608709
Extrapolated:  -180.561059

Fermi level: -3.93697

 Band  Eigenvalues  Occupancy
    0    -23.41033    2.00000
    1    -22.31915    2.00000
    2    -21.95580    2.00000
    3    -20.74492    2.00000
    4    -20.50768    2.00000
    5    -20.37342    2.00000
    6    -19.46724    2.00000
    7    -19.26385    2.00000
    8    -18.22600    2.00000
    9    -17.94196    2.00000
   10    -17.56415    2.00000
   11    -17.28451    2.00000
   12    -16.50237    2.00000
   13    -16.07308    2.00000
   14    -15.78629    2.00000
   15    -14.68977    2.00000
   16    -14.30596    2.00000
   17    -13.95358    2.00000
   18    -13.33742    2.00000
   19    -12.99572    2.00000
   20    -12.61581    2.00000
   21    -12.30411    2.00000
   22    -11.97209    2.00000
   23    -11.02227    2.00000
   24    -10.75703    2.00000
   25    -10.61593    2.00000
   26    -10.33336    2.00000
   27     -9.84294    2.00000
   28     -9.59017    2.00000
   29     -9.38304    2.00000
   30     -9.25800    2.00000
   31     -8.91387    2.00000
   32     -8.73838    2.00000
   33     -8.53711    2.00000
   34     -8.43726    2.00000
   35     -8.10206    2.00000
   36     -8.03706    2.00000
   37     -7.59378    2.00000
   38     -7.20360    2.00000
   39     -7.12593    2.00000
   40     -6.85354    2.00000
   41     -5.68792    2.00000
   42     -5.60099    2.00000
   43     -5.45315    2.00000
   44     -5.34201    2.00000
   45     -4.97342    1.99994
   46     -4.82678    1.99973
   47     -4.20717    1.87429
   48     -3.66558    0.12432
   49     -3.22700    0.00165
   50     -2.90759    0.00007
   51     -2.73674    0.00001
   52     -2.53881    0.00000
   53     -2.33951    0.00000
   54     -1.65498    0.00000
   55     -1.59682    0.00000
   56     -1.35665    0.00000
   57     -0.62704    0.00000
   58     -0.09097    0.00000
   59      0.08406    0.00000
[...]
   83      8.95695    0.00000
   84      9.21605    0.00000
   85      9.37560    0.00000
   86      9.52552    0.00000
   87      9.55266    0.00000
   88      9.63937    0.00000
   89      9.73457    0.00000
   90      9.86561    0.00000
   91      9.87562    0.00000
   92     10.12391    0.00000
   93     10.17959    0.00000
   94     10.29279    0.00000
   95     10.42441    0.00000
   96     10.50072    0.00000
   97     10.58293    0.00000

Forces in eV/Ang:
  0 C     0.01851    0.07068    0.02761
  1 C     0.02916   -0.00556    0.02107
  2 C     0.03373    0.00843    0.04779
  3 C     0.00723   -0.01808   -0.01924
  4 C    -0.06529    0.04482   -0.00986
  5 C     0.00092    0.02585   -0.01504
  6 C    -0.03302   -0.03037    0.01176
  7 C     0.00707    0.01805   -0.01548
  8 C     0.02407    0.01044   -0.03072
  9 C    -0.03897    0.00969    0.03341
 10 C    -0.04573   -0.00597    0.02002
 11 C     0.02134   -0.02926   -0.02506
 12 C     0.00469    0.02322   -0.00791
 13 C    -0.00314    0.01635    0.01674
 14 C     0.01630   -0.04257   -0.06553
 15 C    -0.00687   -0.02579    0.03583
 16 C    -0.01408   -0.00423    0.02114
 17 C    -0.01492   -0.02448    0.03205
 18 C    -0.00845    0.02409   -0.03765
 19 C    -0.01073   -0.05513   -0.00449
 20 C    -0.03205    0.01887    0.01015
 21 C    -0.01429   -0.03847   -0.02917
 22 C     0.00613    0.00627   -0.02686
 23 C     0.06890   -0.00380   -0.02911