User:   esb@s65n34.grendel.cscaa.dk
Date:   Wed Nov  8 14:13:00 2017
Arch:   x86_64
Pid:    114139
Python: 2.7.13
gpaw:   /home/esb/DFT/gpaw_git/gpaw
_gpaw:  /home/esb/DFT/gpaw_git/build/bin.linux-x86_64-2.7/gpaw-python
ase:    /home/esb/DFT/ase_git/ase (version 3.15.0b1)
numpy:  /comm/swstack/core/python/2.7.13/lib/python2.7/site-packages/numpy (version 1.13.3)
scipy:  /comm/swstack/core/python/2.7.13/lib/python2.7/site-packages/scipy (version 0.19.1)
units:  Angstrom and eV
cores:  16
Extra parameters: {'blacs': True}

Input parameters:
  basis: dzp
  gpts: [80 80 48]
  kpts: [1 1 1]
  maxiter: 99
  mixer: {backend: pulay,
          beta: 0.05,
          method: separate,
          nmaxold: 5,
          weight: 75}
  mode: lcao
  nbands: -50
  occupations: {name: fermi-dirac,
                width: 0.1}
  poissonsolver: {eps: 1e-07,
                  name: fd,
                  nn: 3,
                  relax: GS}
  xc: PBE

System changes: positions, numbers, cell, pbc, initial_charges, initial_magmoms

Initialize ...

C-setup:
  name: Carbon
  id: 4aa54d4b901d75f77cc0ea3eec22967b
  Z: 6
  valence: 4
  core: 2
  charge: 0.0
  file: /home/esb/DFT/gpaw-setups-0.8.7929/C.PBE.gz
  cutoffs: 0.64(comp), 1.14(filt), 1.14(core), lmax=2
  valence states:
                energy  radius
    2s(2.00)   -13.751   0.635
    2p(2.00)    -5.284   0.635
    *s          13.461   0.635
    *p          21.927   0.635
    *d           0.000   0.635

  LCAO basis set for C:
    Name: dzp
    File: /home/esb/DFT/gpaw-setups-0.8.7929/C.dzp.basis.gz
    Number of radial functions: 5
    Number of spherical harmonics: 13
      l=0, rc=5.5469 Bohr: 2s-sz confined orbital
      l=1, rc=6.6719 Bohr: 2p-sz confined orbital
      l=0, rc=3.0312 Bohr: 2s-dz split-valence wave
      l=1, rc=3.7500 Bohr: 2p-dz split-valence wave
      l=2, rc=6.6719 Bohr: d-type Gaussian polarization

Reference energy: -24663.074771

Spin-paired calculation

Occupation numbers:
  Fermi-Dirac: width=0.1000 eV

Convergence criteria:
  Maximum total energy change: 0.0005 eV / electron
  Maximum integral of absolute density change: 0.0001 electrons
  Maximum integral of absolute eigenstate change: 4e-08 eV^2
  Maximum number of iterations: 99

Symmetries present (total): 1

  ( 1  0  0)
  ( 0  1  0)
  ( 0  0  1)

1 k-point (Gamma)
1 k-point in the irreducible part of the Brillouin zone
       k-points in crystal coordinates                weights
   0:     0.00000000    0.00000000    0.00000000          1/1

Wave functions: LCAO
  Diagonalizer: Serial LAPACK
  Atomic Correction: dense with blas
  Datatype: float
  Eigensolver: None

LCAO using direct dense diagonalizer

Densities:
  Coarse grid: 80*80*48 grid
  Fine grid: 160*160*96 grid
  Total Charge: 0.000000

Density mixing:
  Method: separate
  Backend: pulay
  Linear mixing parameter: 0.05
  Mixing with 5 old densities
  Damping of long wave oscillations: 75

Hamiltonian:
  XC and Coulomb potentials evaluated on a 160*160*96 grid
  Using the PBE Exchange-Correlation functional
  Interpolation: tri-quintic (5. degree polynomial)
  Poisson solver: Gauss-Seidel solver with 6 multi-grid levels
    Coarsest grid: 5 x 5 x 3 points
    Stencil: 6*3+1=19 point O(h^6) finite-difference Laplacian
    Max iterations: 1000
    Tolerance: 1.000000e-07

Total number of cores used: 16
Domain decomposition: 2 x 4 x 2

Number of atoms: 24
Number of atomic orbitals: 312
Number of bands in calculation: 98
Bands to converge: occupied states only
Number of valence electrons: 96

... initialized

Initializing position-dependent things.

Density initialized from atomic densities
   /       |             C    C                   |
  /        |      C    C  C                       |
 *         |      C  C  C  C CC    C              |
 |         |         C  C        C                |
 |         .---C---C----------C-------------------.
 |        /    C      C       C C                /
 |       /            C                         /

Positions:
   0 C      8.745445   11.771008    5.244841
   1 C     10.783817    8.725587    4.871074
   2 C      5.489048    7.350192    4.487277
   3 C     10.090709    7.567602    4.547737
   4 C      7.268485    5.880091    4.333411
   5 C      6.832218   11.823476    5.360192
   6 C     11.857567    8.606747    5.342830
   7 C      4.353926   10.527572    5.297780
   8 C     11.347422    5.694850    4.494712
   9 C     10.144176    7.631752    5.729938
  10 C      4.881100    8.837323    5.247302
  11 C      7.025842    9.851500    4.328641
  12 C      6.714129   10.752713    4.813279
  13 C     10.541111    4.575407    4.966126
  14 C      6.542922    9.585292    5.578241
  15 C      5.703241   10.280762    4.405545
  16 C      4.521957    4.650466    5.566918
  17 C      9.139192    9.252225    5.033092
  18 C      4.431201    5.766079    4.754636
  19 C      6.430204    7.274099    5.587355
  20 C      7.938295    9.385107    5.588444
  21 C      7.750408    3.531758    4.957417
  22 C      8.332695    8.382376    5.371012
  23 C      8.881263   11.059547    4.393439

Unit cell:
           periodic     x           y           z      points  spacing
  1. axis:    yes   16.000000    0.000000    0.000000    80     0.2000
  2. axis:    yes    0.000000   16.000000    0.000000    80     0.2000
  3. axis:    yes    0.000000    0.000000   10.000000    48     0.2083

Effective grid spacing dv^(1/3) = 0.2027

                     log10-error:    total        iterations:
           time      wfs    density  energy       fermi  poisson
iter:   1  14:13:03          +inf  -119.510456    3      6
iter:   2  14:13:03         -0.77  -113.144457    4      3
iter:   3  14:13:04         -0.87  -110.198671    3      3
iter:   4  14:13:05         -0.93  -109.497061    2      3
iter:   5  14:13:05         -0.97  -108.027040    3      3
iter:   6  14:13:06         -1.03  -107.495859    3      2
iter:   7  14:13:06         -1.10  -106.430671    3      3
iter:   8  14:13:07         -1.37  -106.400706    3      3
iter:   9  14:13:07         -1.47  -106.324546    3      3
iter:  10  14:13:08         -1.61  -106.253533    3      3
iter:  11  14:13:09         -1.71  -106.195569    2      3
iter:  12  14:13:09         -1.90  -106.175442    2      2
iter:  13  14:13:10         -2.02  -106.166609    3      2
iter:  14  14:13:10         -2.17  -106.160355    3      2
iter:  15  14:13:11         -2.29  -106.159266    3      2
iter:  16  14:13:11         -2.44  -106.156952    3      2
iter:  17  14:13:12         -2.59  -106.167385    2      1
iter:  18  14:13:12         -2.67  -106.163407    2      1
iter:  19  14:13:13         -2.73  -106.159009    2      1
iter:  20  14:13:13         -2.80  -106.155190    2      1
iter:  21  14:13:14         -2.84  -106.151746    2      1
iter:  22  14:13:14         -2.89  -106.153910    2      2
iter:  23  14:13:15         -3.05  -106.154904    2      2
iter:  24  14:13:16         -3.27  -106.154947    2      1
iter:  25  14:13:16         -3.40  -106.155029    2      1
iter:  26  14:13:17         -3.53  -106.152491    2      1
iter:  27  14:13:17         -3.76  -106.153825    2      1
iter:  28  14:13:18         -3.90  -106.153825    2      1
iter:  29  14:13:18         -4.00  -106.153996    2      1
iter:  30  14:13:19         -4.20  -106.154296    2      1

Converged after 30 iterations.

Dipole moment: (-0.694854, 0.157493, -0.342411) |e|*Ang

Energy contributions relative to reference atoms: (reference = -24663.074771)

Kinetic:       +273.521236
Potential:     -215.896624
External:        +0.000000
XC:            -166.285115
Entropy (-ST):   -0.510065
Local:           +2.761239
Free energy:   -106.409329
Extrapolated:  -106.154296

Fermi level: -5.43351

 Band  Eigenvalues  Occupancy
    0    -33.05262    2.00000
    1    -28.93331    2.00000
    2    -26.32015    2.00000
    3    -22.88292    2.00000
    4    -22.06812    2.00000
    5    -21.30066    2.00000
    6    -19.93364    2.00000
    7    -19.53654    2.00000
    8    -19.40945    2.00000
    9    -17.50158    2.00000
   10    -17.26014    2.00000
   11    -16.93736    2.00000
   12    -16.74817    2.00000
   13    -15.43753    2.00000
   14    -15.35438    2.00000
   15    -14.80370    2.00000
   16    -14.53944    2.00000
   17    -14.01173    2.00000
   18    -13.19874    2.00000
   19    -13.06719    2.00000
   20    -12.54141    2.00000
   21    -12.16948    2.00000
   22    -11.66581    2.00000
   23    -10.89029    2.00000
   24    -10.73404    2.00000
   25    -10.16583    2.00000
   26     -9.61582    2.00000
   27     -9.39332    2.00000
   28     -9.28001    2.00000
   29     -9.08645    2.00000
   30     -8.93971    2.00000
   31     -8.46614    2.00000
   32     -7.91923    2.00000
   33     -7.84950    2.00000
   34     -7.46909    2.00000
   35     -7.36234    2.00000
   36     -7.17375    2.00000
   37     -7.08125    2.00000
   38     -6.62761    1.99999
   39     -6.57840    1.99998
   40     -6.37193    1.99983
   41     -6.05916    1.99617
   42     -6.00628    1.99351
   43     -5.94767    1.98837
   44     -5.78439    1.94188
   45     -5.71642    1.88846
   46     -5.61825    1.72764
   47     -5.56480    1.57600
   48     -5.33658    0.55007
   49     -5.20887    0.19132
   50     -5.14993    0.11085
   51     -5.01576    0.03021
   52     -4.84031    0.00529
   53     -4.57325    0.00037
   54     -4.38172    0.00005
   55     -4.09533    0.00000
   56     -3.77765    0.00000
   57     -3.48346    0.00000
   58     -3.27244    0.00000
   59     -3.14022    0.00000
[...]
   83      6.00736    0.00000
   84      6.45361    0.00000
   85      6.87830    0.00000
   86      7.51934    0.00000
   87      7.59600    0.00000
   88      8.00245    0.00000
   89      8.06192    0.00000
   90      8.32421    0.00000
   91      8.54424    0.00000
   92      8.72149    0.00000
   93      8.84784    0.00000
   94      8.94398    0.00000
   95      9.03219    0.00000
   96      9.20648    0.00000
   97      9.40184    0.00000

Forces in eV/Ang:
  0 C    -5.15676   13.93394   14.52433
  1 C   -12.08946    6.26292   -6.58541
  2 C    -3.04264   -0.54299    4.03281
  3 C    -0.35392   -8.73907  -18.96087
  4 C    -1.14744   -0.89915    2.62121
  5 C     4.90043   14.51192    7.92754
  6 C    13.87192   -0.81038    6.32559
  7 C     1.97681   -3.04188   -2.28122
  8 C    -3.69431   -2.02563    1.50249
  9 C     0.60520   -3.40785   19.52550
 10 C     1.52479    1.40188   -0.34566
 11 C    12.81150  -30.50188  -25.68007
 12 C     0.05533   32.86093   13.95300
 13 C     1.54242    3.76347   -1.51948
 14 C    -4.45944   -3.28037    9.62110
 15 C   -23.53985   -6.39136   -7.33073
 16 C    -0.02588    2.52609   -1.88111
 17 C    11.51968   12.34753   -5.48934
 18 C     3.21309    0.89067    0.75740
 19 C     1.75000   -3.59505   -3.61965
 20 C   -12.88397   21.25261   10.41235
 21 C     0.38740    2.68251   -0.63308
 22 C     6.60074  -35.10152   -2.42557
 23 C     5.63197  -14.14373  -14.65890

System changes: positions

[...]

Density initialized from wave functions
   /       |             C    C                   |
  /        |      C    CC C                       |
[...]
Density initialized from wave functions
   /       |              C  C                    |
  /        |            C      C                  |
 *         |        C  C  C   C C                 |
 |         |     C CC CC     C    C               |
 |         .-----C-----C--------C-----------------.
 |        /   C          C    C                  /
 |       /                  C                   /

[...]

Density initialized from wave functions
   /       |               C C                    |
  /        |            C      C                  |
 *         |        C  C  C   C C                 |
 |         |     C CC CC     C    C               |
 |         .-----C-----C--------C-----------------.
 |        /   C          C    C                  /
 |       /                  C                   /

[...]

Density initialized from wave functions
   /       |               C C                    |
  /        |            C      C                  |
 *         |        C CC  C   C C                 |
 |         |     C CC  C     C    C               |
 |         .-----C-----C--------C-----------------.
 |        /   C          C    C                  /
 |       /                  C                   /

[...]

Density initialized from wave functions
   /       |               C C                    |
  /        |            C      C                  |
 *         |        C CC  C   C C                 |
 |         |     C CC  C  C  C    C               |
 |         .-----C-----C--------C-----------------.
 |        /   C          C    C                  /
 |       /                  C                   /

[...]

Density initialized from wave functions
   /       |               C C                    |
  /        |            C      C                  |
 *         |        C CC  C   C C                 |
 |         |     C CC  C  C  C     C              |
 |         .-----C-----C--------C-----------------.
 |        /   C          C     C                 /
 |       /                  C                   /

[...]

Density initialized from wave functions
   /       |               C  C                   |
  /        |            C      C                  |
 *         |        C CC  C   C C                 |
 |         |     C CC  C  C  C     C              |
 |         .----C------C--------C-----------------.
 |        /   C          C     C                 /
 |       /                  C                   /

[...]

Density initialized from wave functions
   /       |               C  C                   |
  /        |            C      C                  |
 *         |        C CC  C   C C                 |
 |         |     C CC  C  C  C     C              |
 |         .----C------C--------C-----------------.
 |        /   C          C     C                 /
 |       /                  C                   /

[...]

Density initialized from wave functions
   /       |               C  C                   |
  /        |            C      C                  |
 *         |          CC  C   C C                 |
 |         |     C CC  C  C  C     C              |
 |         .----C------C--------C-----------------.
 |        /   C          C     C                 /
 |       /                  C                   /

[...]

Density initialized from wave functions
   /       |               C  C                   |
  /        |            C      C                  |
 *         |          CC  C   C C                 |
 |         |     C CC  C  C  C     C              |
 |         .----C------C--------C-----------------.
 |        /   C          C     C                 /
 |       /                  C                   /

[...]

Density initialized from wave functions
   /       |               C  C                   |
  /        |            C      C                  |
 *         |          CC  C   C C                 |
 |         |     CC C  C  C  C     C              |
 |         .----C------C--------C-----------------.
 |        /   C          C     C                 /
 |       /                  C                   /

[...]

Density initialized from wave functions
   /       |               C  C                   |
  /        |            C      C                  |
 *         |          CC  C   C C                 |
 |         |     CC C  C  C  C    C               |
 |         .----C------C--------C-----------------.
 |        /   C          C     C                 /
 |       /                  C                   /

[...]

Density initialized from wave functions
   /       |               C  C                   |
  /        |            C      C                  |
 *         |          CC  C   C C                 |
 |         |     CC C  C  C  C    C               |
 |         .-----C-----C--------C-----------------.
 |        /   C          C     C                 /
 |       /                  C                   /

[...]

Density initialized from wave functions
   /       |               C  C                   |
  /        |            C      C                  |
 *         |          CC  C   C C                 |
 |         |     CC C  C  C  C    C               |
 |         .-----C-----C--------C-----------------.
 |        /   C          C     C                 /
 |       /                  C                   /

[...]

Density initialized from wave functions
   /       |               C  C                   |
  /        |            C      C                  |
 *         |      C   CC  C   C C                 |
 |         |     C  C  C  C  C    C               |
 |         .-----C-----C--------C-----------------.
 |        /   C          C     C                 /
 |       /                  C                   /

[...]

Density initialized from wave functions
   /       |               C  C                   |
  /        |            C      C                  |
 *         |      C   CC  C   C C                 |
 |         |     C  C  C  C  C    C               |
 |         .----C------C--------C-----------------.
 |        /   C          C     C                 /
 |       /                  C                   /

[...]

Density initialized from wave functions
   /       |               C  C                   |
  /        |            C      C                  |
 *         |      C   CC  C   C C                 |
 |         |     C  C  C  C  C    C               |
 |         .----C------C--------C-----------------.
 |        /   C          C  C  C                 /

[...]

Density initialized from wave functions
   /       |               C  C                   |
  /        |            C      C                  |
 *         |      C   CC  C   C C                 |
 |         |     C  C  C  C  C    C               |
 |         .----C------C--------C-----------------.
 |        /  C           C  C  C                 /

[...]

Density initialized from wave functions
   /       |               C  C                   |
  /        |            C      C                  |
 *         |      C   CC  C   C C                 |
 |         |     C  C     C  C    C               |
 |         .----C------C--------C-----------------.
 |        /  C           C  C  C                 /

[...]

Density initialized from wave functions
   /       |               C  C                   |
  /        |            C      C                  |
 *         |      C   CC  C   C C                 |
 |         |     C  C     C  C    C               |
 |         .----C------C--------C-----------------.
 |        /  C         C C  C  C                 /

[...]

Density initialized from wave functions
   /       |               C  C                   |
  /        |            C      C                  |
 *         |      C   CC  C   C C                 |
 |         |     C  C     C  C    C               |
 |         .----C------C--------C-----------------.
 |        /  C         C C  C  C                 /

[...]

Density initialized from wave functions
   /       |               C  C                   |
  /        |            C      C                  |
 *         |      C   CC  C   C C                 |
 |         |     C  C     C  C    C               |
 |         .----C---C--C--------C-----------------.
 |        /  C           C  C  C                 /

[...]

Density initialized from wave functions
   /       |               C  C                   |
  /        |            C      C                  |
 *         |      C   CC  C   C C                 |
 |         |     C  C     C  C    C               |
 |         .----C---C--C--------C-----------------.
 |        /  C           C  C  C                 /

[...]

Density initialized from wave functions
   /       |               C  C                   |
  /        |            C      C                  |
 *         |      C   CC  C   C C                 |
 |         |     C  C     C  C    C               |
 |         .----C---C--C--------C-----------------.
 |        /  C         C C  C  C                 /

[...]

Density initialized from wave functions
   /       |               C  C                   |
  /        |            C      C                  |
 *         |      C   CC  C   C C                 |
 |         |     C  C     C  C    C               |
 |         .----C---C--C--------C-----------------.
 |        /   C        C C  C  C                 /

[...]

Density initialized from wave functions
   /       |               C  C                   |
  /        |          C C      C                  |
 *         |      C    C  C   C C                 |
 |         |     C  C     C  C    C               |
 |         .----C---C--C--------C-----------------.
 |        /   C        C C  C  C                 /

[...]

Density initialized from wave functions
   /       |               C  C                   |
  /        |          C C      C                  |
 *         |      C    C  C   C C                 |
 |         |     C  C     C  C    C               |
 |         .----C---C--C--------C-----------------.
 |        /   C        C C  C  C                 /

[...]

Density initialized from wave functions
   /       |               C  C                   |
  /        |          C C      C                  |
 *         |      C    C  C   C C                 |
 |         |     C  C     C  C    C               |
 |         .-----C--C--C--------C-----------------.
 |        /   C        C C  C  C                 /

[...]

System changes: positions

Initializing position-dependent things.

Density initialized from wave functions
   /       |               C  C                   |
  /        |          C C      C                  |
 *         |      C    C  C   C C                 |
 |         |     C  C     C  C    C               |
 |         .-----C--C--C--------C-----------------.
 |        /   C        C C  C  C                 /

Positions:
   0 C      8.736451   12.272804    5.124204
   1 C     10.303161    8.802951    5.165952
   2 C      5.844465    7.016849    4.922718
   3 C     10.946590    6.802402    5.062800
   4 C      7.738730    5.334763    5.029469
   5 C      7.458763   12.701140    5.058168
   6 C     11.587164    8.103667    4.913630
   7 C      4.353017    9.112821    4.736709
   8 C     11.054788    5.413106    5.012059
   9 C      9.638970    7.542546    5.171233
  10 C      5.585096    8.427419    4.865610
  11 C      5.752325   10.821572    4.886438
  12 C      6.371706   12.051826    4.968731
  13 C     10.053360    4.613990    5.035753
  14 C      6.594734    9.512660    4.957488
  15 C      4.398502   10.393250    4.754713
  16 C      3.896361    5.167622    5.043943
  17 C      9.338760    9.845176    5.137252
  18 C      4.815422    6.072822    4.934587
  19 C      7.230082    6.638665    5.009779
  20 C      7.967018    9.130469    5.068925
  21 C      8.710916    4.519004    5.035741
  22 C      8.237226    7.682800    5.071397
  23 C      9.452264   11.230632    5.161709

Unit cell:
           periodic     x           y           z      points  spacing
  1. axis:    yes   16.000000    0.000000    0.000000    80     0.2000
  2. axis:    yes    0.000000   16.000000    0.000000    80     0.2000
  3. axis:    yes    0.000000    0.000000   10.000000    48     0.2083

Effective grid spacing dv^(1/3) = 0.2027

                     log10-error:    total        iterations:
           time      wfs    density  energy       fermi  poisson
iter:   1  14:33:44          +inf  -180.196045    2      4
iter:   2  14:33:44         -2.68  -180.195551    3      1
iter:   3  14:33:44         -2.83  -180.195212    2      1
iter:   4  14:33:45         -2.96  -180.194616    2      1
iter:   5  14:33:45         -3.15  -180.193561    3      1
iter:   6  14:33:46         -3.33  -180.194557    2      1
iter:   7  14:33:46         -3.35  -180.195563    3      1
iter:   8  14:33:47         -3.46  -180.195984    2      1
iter:   9  14:33:47         -3.68  -180.195365    2      1
iter:  10  14:33:48         -3.58  -180.194984    3      1
iter:  11  14:33:48         -3.49  -180.195919    2      1
iter:  12  14:33:49         -4.06  -180.195969    2      1

Converged after 12 iterations.

Dipole moment: (0.816428, 0.801695, 0.037910) |e|*Ang

Energy contributions relative to reference atoms: (reference = -24663.074771)

Kinetic:       +111.714203
Potential:     -119.098005
External:        +0.000000
XC:            -175.654130
Entropy (-ST):   -0.334868
Local:           +3.009397
Free energy:   -180.363403
Extrapolated:  -180.195969

Fermi level: -4.76401

 Band  Eigenvalues  Occupancy
    0    -23.33479    2.00000
    1    -22.45205    2.00000
    2    -21.46447    2.00000
    3    -21.24926    2.00000
    4    -20.91419    2.00000
    5    -20.16223    2.00000
    6    -19.63550    2.00000
    7    -19.24630    2.00000
    8    -18.40755    2.00000
    9    -18.18782    2.00000
   10    -17.91785    2.00000
   11    -17.00261    2.00000
   12    -16.45835    2.00000
   13    -15.93033    2.00000
   14    -15.46291    2.00000
   15    -15.22780    2.00000
   16    -14.19335    2.00000
   17    -14.16929    2.00000
   18    -13.53905    2.00000
   19    -13.16959    2.00000
   20    -12.83591    2.00000
   21    -12.51015    2.00000
   22    -11.95715    2.00000
   23    -11.39134    2.00000
   24    -11.16756    2.00000
   25    -10.85704    2.00000
   26    -10.46962    2.00000
   27    -10.01010    2.00000
   28     -9.86274    2.00000
   29     -9.78690    2.00000
   30     -9.55808    2.00000
   31     -9.45792    2.00000
   32     -9.04209    2.00000
   33     -8.81487    2.00000
   34     -8.65454    2.00000
   35     -8.40295    2.00000
   36     -7.83955    2.00000
   37     -7.66552    2.00000
   38     -6.93587    2.00000
   39     -6.40724    2.00000
   40     -6.21137    2.00000
   41     -6.03682    1.99999
   42     -5.85582    1.99996
   43     -5.58925    1.99948
   44     -5.35248    1.99445
   45     -5.11648    1.94276
   46     -5.05803    1.89960
   47     -4.83195    1.32723
   48     -4.73077    0.83530
   49     -4.00729    0.00103
   50     -3.83946    0.00019
   51     -3.08214    0.00000
   52     -3.01243    0.00000
   53     -2.91017    0.00000
   54     -2.42385    0.00000
   55     -2.22984    0.00000
   56     -2.17446    0.00000
   57     -1.79878    0.00000
   58      0.20480    0.00000
   59      0.48203    0.00000
[...]
   83      8.77286    0.00000
   84      8.90855    0.00000
   85      8.97830    0.00000
   86      9.05667    0.00000
   87      9.18896    0.00000
   88      9.35678    0.00000
   89      9.57329    0.00000
   90      9.67032    0.00000
   91      9.70084    0.00000
   92      9.86160    0.00000
   93      9.96591    0.00000
   94     10.05066    0.00000
   95     10.08192    0.00000
   96     10.29192    0.00000
   97     10.35793    0.00000

Forces in eV/Ang:
  0 C    -0.03262    0.07501   -0.00566
  1 C    -0.04508   -0.00915   -0.00416
  2 C    -0.03045    0.03934    0.04271
  3 C    -0.01701   -0.00206    0.07275
  4 C     0.00974   -0.04709    0.03039
  5 C     0.08732   -0.01561    0.02845
  6 C     0.04204   -0.01431    0.03447
  7 C    -0.02240   -0.02101    0.05671
  8 C     0.02719    0.01473   -0.02013
  9 C    -0.02115    0.01122   -0.08597
 10 C    -0.04336   -0.01048    0.04542
 11 C    -0.00924    0.04828   -0.01297
 12 C     0.02668    0.00355   -0.05574
 13 C    -0.01357    0.01964    0.00916
 14 C    -0.03047   -0.01018   -0.02334
 15 C     0.07797    0.01474   -0.01075
 16 C     0.02272    0.02594   -0.01795
 17 C    -0.01843    0.02016    0.01656
 18 C     0.02858   -0.05294   -0.06946
 19 C    -0.00811   -0.01805   -0.00295
 20 C    -0.01565   -0.00871    0.03113
 21 C     0.06013    0.00360   -0.01295
 22 C     0.01297   -0.02463   -0.02105
 23 C    -0.01187   -0.04824   -0.02579