User:   esb@s65n31.grendel.cscaa.dk
Date:   Thu Nov  9 11:33:17 2017
Arch:   x86_64
Pid:    17925
Python: 2.7.13
gpaw:   /home/esb/DFT/gpaw_git/gpaw
_gpaw:  /home/esb/DFT/gpaw_git/build/bin.linux-x86_64-2.7/gpaw-python
ase:    /home/esb/DFT/ase_git/ase (version 3.15.0b1)
numpy:  /comm/swstack/core/python/2.7.13/lib/python2.7/site-packages/numpy (version 1.13.3)
scipy:  /comm/swstack/core/python/2.7.13/lib/python2.7/site-packages/scipy (version 0.19.1)
units:  Angstrom and eV
cores:  16
Extra parameters: {'blacs': True}

Input parameters:
  basis: dzp
  gpts: [80 80 48]
  kpts: [1 1 1]
  maxiter: 99
  mixer: {backend: pulay,
          beta: 0.05,
          method: separate,
          nmaxold: 5,
          weight: 75}
  mode: lcao
  nbands: -50
  occupations: {name: fermi-dirac,
                width: 0.1}
  poissonsolver: {eps: 1e-07,
                  name: fd,
                  nn: 3,
                  relax: GS}
  xc: PBE

System changes: positions, numbers, cell, pbc, initial_charges, initial_magmoms

Initialize ...

C-setup:
  name: Carbon
  id: 4aa54d4b901d75f77cc0ea3eec22967b
  Z: 6
  valence: 4
  core: 2
  charge: 0.0
  file: /home/esb/DFT/gpaw-setups-0.8.7929/C.PBE.gz
  cutoffs: 0.64(comp), 1.14(filt), 1.14(core), lmax=2
  valence states:
                energy  radius
    2s(2.00)   -13.751   0.635
    2p(2.00)    -5.284   0.635
    *s          13.461   0.635
    *p          21.927   0.635
    *d           0.000   0.635

  LCAO basis set for C:
    Name: dzp
    File: /home/esb/DFT/gpaw-setups-0.8.7929/C.dzp.basis.gz
    Number of radial functions: 5
    Number of spherical harmonics: 13
      l=0, rc=5.5469 Bohr: 2s-sz confined orbital
      l=1, rc=6.6719 Bohr: 2p-sz confined orbital
      l=0, rc=3.0312 Bohr: 2s-dz split-valence wave
      l=1, rc=3.7500 Bohr: 2p-dz split-valence wave
      l=2, rc=6.6719 Bohr: d-type Gaussian polarization

Reference energy: -24663.074771

Spin-paired calculation

Occupation numbers:
  Fermi-Dirac: width=0.1000 eV

Convergence criteria:
  Maximum total energy change: 0.0005 eV / electron
  Maximum integral of absolute density change: 0.0001 electrons
  Maximum integral of absolute eigenstate change: 4e-08 eV^2
  Maximum number of iterations: 99

Symmetries present (total): 1

  ( 1  0  0)
  ( 0  1  0)
  ( 0  0  1)

1 k-point (Gamma)
1 k-point in the irreducible part of the Brillouin zone
       k-points in crystal coordinates                weights
   0:     0.00000000    0.00000000    0.00000000          1/1

Wave functions: LCAO
  Diagonalizer: Serial LAPACK
  Atomic Correction: dense with blas
  Datatype: float
  Eigensolver: None

LCAO using direct dense diagonalizer

Densities:
  Coarse grid: 80*80*48 grid
  Fine grid: 160*160*96 grid
  Total Charge: 0.000000

Density mixing:
  Method: separate
  Backend: pulay
  Linear mixing parameter: 0.05
  Mixing with 5 old densities
  Damping of long wave oscillations: 75

Hamiltonian:
  XC and Coulomb potentials evaluated on a 160*160*96 grid
  Using the PBE Exchange-Correlation functional
  Interpolation: tri-quintic (5. degree polynomial)
  Poisson solver: Gauss-Seidel solver with 6 multi-grid levels
    Coarsest grid: 5 x 5 x 3 points
    Stencil: 6*3+1=19 point O(h^6) finite-difference Laplacian
    Max iterations: 1000
    Tolerance: 1.000000e-07

Total number of cores used: 16
Domain decomposition: 2 x 4 x 2

Number of atoms: 24
Number of atomic orbitals: 312
Number of bands in calculation: 98
Bands to converge: occupied states only
Number of valence electrons: 96

... initialized

Initializing position-dependent things.

Density initialized from atomic densities
     /     |           C                          |
    /      |             C   C                    |
   /       |       C           C                  |
  /        |      C C   C                         |
 *         |   CC         C   C                   |
 |         |       C            C                 |
 |         .-C-C------C--C-----C------------------.
 |        /                 C                    /
 |       /       C  C     C                     /
 |      /              C                       /

Positions:
   0 C      3.452536    6.449881    5.329125
   1 C      4.509466    5.510854    5.398143
   2 C      3.598071    7.694019    5.817577
   3 C      4.765502    9.527786    6.367555
   4 C      4.886975    8.061701    6.382060
   5 C      3.695002    9.171620    5.480076
   6 C     10.692401    5.970584    4.880153
   7 C      9.255071    3.886307    4.346313
   8 C      9.564880    5.142666    4.880196
   9 C     10.811222    7.104521    5.404637
  10 C      8.159939    3.277575    4.418648
  11 C      9.844170    7.819532    6.118883
  12 C      8.409757    5.753245    5.621567
  13 C      6.989294    3.696174    5.058286
  14 C      8.549781    7.066304    6.239489
  15 C      7.146232    5.035173    5.719325
  16 C      9.799762    9.063655    6.756290
  17 C      5.708739    3.158161    5.223853
  18 C      6.435183    9.389219    8.317726
  19 C      7.584756    8.996214    7.623858
  20 C      6.179866    6.917527    7.096930
  21 C      7.436440    7.646826    6.979654
  22 C      6.031018    5.618635    6.452140
  23 C      8.840903    9.566706    7.392013

Unit cell:
           periodic     x           y           z      points  spacing
  1. axis:    yes   16.000000    0.000000    0.000000    80     0.2000
  2. axis:    yes    0.000000   16.000000    0.000000    80     0.2000
  3. axis:    yes    0.000000    0.000000   10.000000    48     0.2083

Effective grid spacing dv^(1/3) = 0.2027

                     log10-error:    total        iterations:
           time      wfs    density  energy       fermi  poisson
iter:   1  11:33:18          +inf  -176.806660    2      6
iter:   2  11:33:19         -0.89  -175.968689    3      3
iter:   3  11:33:20         -0.92  -173.925573    33     4
iter:   4  11:33:20         -1.11  -173.808304    2      2
iter:   5  11:33:21         -1.12  -172.857798    32     3
iter:   6  11:33:22         -1.39  -172.709414    4      3
iter:   7  11:33:22         -1.53  -172.609070    3      3
iter:   8  11:33:23         -1.71  -172.524407    3      3
iter:   9  11:33:24         -1.84  -172.514963    3      3
iter:  10  11:33:24         -1.92  -172.501116    3      2
iter:  11  11:33:25         -1.98  -172.498169    3      2
iter:  12  11:33:26         -2.15  -172.462727    3      2
iter:  13  11:33:26         -2.43  -172.463195    3      2
iter:  14  11:33:27         -2.75  -172.474847    3      1
iter:  15  11:33:28         -2.87  -172.456755    3      2
iter:  16  11:33:28         -3.04  -172.456842    3      1
iter:  17  11:33:29         -3.15  -172.458156    3      1
iter:  18  11:33:29         -3.26  -172.458767    2      1
iter:  19  11:33:30         -3.44  -172.456265    2      1
iter:  20  11:33:31         -3.68  -172.452864    2      1
iter:  21  11:33:31         -3.85  -172.453940    2      1
iter:  22  11:33:32         -4.00  -172.454501    2      1
iter:  23  11:33:33         -4.07  -172.453378    2      1

Converged after 23 iterations.

Dipole moment: (0.594609, -0.021790, 0.112160) |e|*Ang

Energy contributions relative to reference atoms: (reference = -24663.074771)

Kinetic:        +85.844908
Potential:      -97.220764
External:        +0.000000
XC:            -163.830383
Entropy (-ST):   -0.322373
Local:           +2.914046
Free energy:   -172.614565
Extrapolated:  -172.453378

Fermi level: -4.35322

 Band  Eigenvalues  Occupancy
    0    -23.05949    2.00000
    1    -22.64692    2.00000
    2    -21.79443    2.00000
    3    -21.13313    2.00000
    4    -20.35165    2.00000
    5    -19.82796    2.00000
    6    -19.34208    2.00000
    7    -18.95279    2.00000
    8    -18.46672    2.00000
    9    -18.19085    2.00000
   10    -17.07833    2.00000
   11    -16.27755    2.00000
   12    -15.71534    2.00000
   13    -15.39805    2.00000
   14    -15.08875    2.00000
   15    -14.23031    2.00000
   16    -14.04070    2.00000
   17    -13.91520    2.00000
   18    -12.99098    2.00000
   19    -12.62339    2.00000
   20    -12.51976    2.00000
   21    -12.27266    2.00000
   22    -11.70025    2.00000
   23    -10.99526    2.00000
   24    -10.78291    2.00000
   25    -10.60776    2.00000
   26    -10.38580    2.00000
   27    -10.02962    2.00000
   28     -9.99780    2.00000
   29     -9.73834    2.00000
   30     -9.55392    2.00000
   31     -8.81065    2.00000
   32     -8.58094    2.00000
   33     -8.01349    2.00000
   34     -7.59422    2.00000
   35     -7.45181    2.00000
   36     -7.16540    2.00000
   37     -7.02600    2.00000
   38     -6.86529    2.00000
   39     -6.62809    2.00000
   40     -6.40414    2.00000
   41     -6.35389    2.00000
   42     -6.34030    2.00000
   43     -5.97094    2.00000
   44     -5.76474    2.00000
   45     -5.30197    1.99985
   46     -4.71624    1.94834
   47     -4.44145    1.41456
   48     -4.22573    0.43682
   49     -4.12176    0.17983
   50     -3.89284    0.01983
   51     -3.52766    0.00052
   52     -3.41950    0.00018
   53     -3.31805    0.00006
   54     -3.08747    0.00001
   55     -2.84938    0.00000
   56     -2.70474    0.00000
   57     -2.13993    0.00000
   58     -1.89910    0.00000
   59     -1.05831    0.00000
[...]
   83      8.49502    0.00000
   84      8.51309    0.00000
   85      8.86747    0.00000
   86      8.96282    0.00000
   87      9.07569    0.00000
   88      9.16748    0.00000
   89      9.26550    0.00000
   90      9.29065    0.00000
   91      9.56756    0.00000
   92      9.58804    0.00000
   93      9.69538    0.00000
   94      9.81660    0.00000
   95     10.00553    0.00000
   96     10.05188    0.00000
   97     10.12605    0.00000

Forces in eV/Ang:
  0 C     2.56398   -4.59135    0.75003
  1 C    -0.09875    1.07982    1.32824
  2 C     1.42738    0.72793   -0.95497
  3 C     0.92492   -0.58330    0.57146
  4 C     1.19916    0.71138    2.68462
  5 C     0.01587   -0.55250    0.49041
  6 C    -0.36814   -0.75873   -0.26985
  7 C    -0.37745   -0.62212   -0.25068
  8 C     0.38499    0.49571    0.11503
  9 C    -0.22830    0.76918    0.39442
 10 C     0.70550   -0.07516   -0.14889
 11 C     0.44139   -0.32019   -0.25900
 12 C    -0.06105   -0.13269    0.40896
 13 C    -2.18437    0.42077    0.59868
 14 C    -0.05668   -0.10761    0.44000
 15 C    -0.20604    0.43717    0.86434
 16 C    -0.09983    0.43856    0.21512
 17 C     0.07485    0.16502   -0.42459
 18 C     0.03809    0.21558   -0.18522
 19 C    -1.62820   -0.57324   -0.04233
 20 C    -2.10469    0.57560   -3.98119
 21 C     0.43433   -0.45856    0.24313
 22 C    -1.24753    2.50549   -2.45643
 23 C     0.52282    0.21159   -0.10887

System changes: positions

[...]

Density initialized from wave functions
     /     |           C                          |
    /      |             C   C                    |
   /       |       C           C                  |
  /        |      C C   C                         |
 *         |   CC         C   C                   |
 |         |       C            C                 |
 |         .-C-C------C--C-----C------------------.
[...]
    /      |             C  C                     |
   /       |       C          C                   |
  /        |      C     C                         |
 *         |   CC    C    C   C                   |
 |         |  C    C            C                 |
 |         .----C-----C--C-----C------------------.
 |        /                C                     /
 |       /      C   C     C                     /
 |      /              C                       /

[...]

Density initialized from wave functions
     /     |          C                           |
    /      |             C  C                     |
   /       |       C          C                   |
  /        |      C     C                         |
 *         |   CC    C    C   C                   |
 |         |  C    C            C                 |
 |         .----C-----C--C-----C------------------.
 |        /                C                     /
 |       /      C   C  C  C                     /

[...]

Density initialized from wave functions
     /     |          C                           |
    /      |             C  C                     |
   /       |       C          C                   |
  /        |      C     C                         |
 *         |   CC    C    C   C                   |
 |         |  C    C            C                 |
 |         .----C-----C--C-----C------------------.
 |        /                C                     /
 |       /      C   C  C  C                     /

[...]

Density initialized from wave functions
     /     |          C                           |
    /      |             C  C                     |
   /       |       C          C                   |
  /        |      C     C                         |
 *         |   CC    C    C   C                   |
 |         |  C    C            C                 |
 |         .----C-----C--C-----C------------------.
 |        /         C      C                     /
 |       /      C      C  C                     /

[...]

Density initialized from wave functions
     /     |          C                           |
    /      |             C  C                     |
   /       |       C          C                   |
  /        |      C     C                         |
 *         |   CC    C    C   C                   |
 |         |  C     C           C                 |
 |         .----C-----C--C-----C------------------.
 |        /         C      C                     /
 |       /      C      C  C                     /

[...]

Density initialized from wave functions
     /     |          C                           |
    /      |            C   C                     |
   /       |       C          C                   |
  /        |      C     C                         |
 *         |   C C   C    C   C                   |
 |         |  C                 C                 |
 |         .----C---C-C--C-----C------------------.
 |        /         C      C                     /
 |       /      C     C   C                     /

[...]

Density initialized from wave functions
    /      |          C C   C                     |
   /       |       C          C                   |
  /        |      C     C                         |
 *         |   C C   C    C   C                   |
 |         |  C                 C                 |
 |         .----C---C-C--C-----C------------------.
 |        /         C      C                     /
 |       /      C     C   C                     /

[...]

Density initialized from wave functions
    /      |          C C   C                     |
   /       |       C          C                   |
  /        |      C     C                         |
 *         |   C C   C    C   C                   |
 |         |   C                C                 |
 |         .----C---C-C--C-----C------------------.
 |        /     C   C      C                     /
 |       /            C   C                     /

[...]

Density initialized from wave functions
    /      |          C C   C                     |
   /       |       C          C                   |
  /        |      C     C                         |
 *         |   C C   C    C   C                   |
 |         |   C                C                 |
 |         .----C---C-C--C-----C------------------.
 |        /     C          C                     /
 |       /          C C   C                     /

[...]

Density initialized from wave functions
    /      |          C C   C                     |
   /       |       C          C                   |
  /        |     CC     C                         |
 *         |   C     C    C   C                   |
 |         |  C                 C                 |
 |         .----C---C-C--C-----C------------------.
 |        /     C          C                     /
 |       /          C C   C                     /

[...]

Density initialized from wave functions
    /      |          C C   C                     |
   /       |       C          C                   |
  /        |     CC     C                         |
 *         |   C     C    C   C                   |
 |         |  C     C           C                 |
 |         .----C-----C--C-----C------------------.
 |        /     C          C                     /
 |       /          C C   C                     /

[...]

Density initialized from wave functions
    /      |          C  C  C                     |
   /       |       C          C                   |
  /        |     CC     C                         |
 *         |   C     C    C   C                   |
 |         |  C     C           C                 |
 |         .----C-----C--C-----C------------------.
 |        /     C           C                    /
 |       /          C C   C                     /

[...]

Density initialized from wave functions
    /      |          C  C  C                     |
   /       |       C          C                   |
  /        |    C C     C                         |
 *         |   C     C    C   C                   |
 |         |  C     C           C                 |
 |         .----C-----C--C-----C------------------.
 |        /     C           C                    /
 |       /          C C   C                     /

[...]

Density initialized from wave functions
    /      |          C     C                     |
   /       |       C     C    C                   |
  /        |    C C     C                         |
 *         |   C    C     C   C                   |
 |         |  C    C            C                 |
 |         .----C-----C--C-----C------------------.
 |        /     C           C                    /
 |       /          C C   C                     /

[...]

Density initialized from wave functions
    /      |          C     C                     |
   /       |       C     C    C                   |
  /        |    C C     C                         |
 *         |   C    C     C   C                   |
 |         |  C    C            C                 |
 |         .----C-----C--C-----C------------------.
 |        /     C           C                    /
 |       /          C  C  C                     /

[...]

Density initialized from wave functions
    /      |          C     C                     |
   /       |       C     C    C                   |
  /        |    C C     C                         |
 *         |   C    C     C   C                   |
 |         |       C            C                 |
 |         .--C-C-----C--C-----C------------------.
 |        /     C           C                    /
 |       /          C  C  C                     /

[...]

Density initialized from wave functions
    /      |          C     C                     |
   /       |       C     C    C                   |
  /        |    C C     C                         |
 *         |   C    C     C   C                   |
 |         |       C            C                 |
 |         .--C-C-----C--C-----C------------------.
 |        /     C           C                    /
 |       /          C  C  C                     /

[...]

Density initialized from wave functions
    /      |          C     C                     |
   /       |       C     C    C                   |
  /        |    C C     C                         |
 *         |   C    C     C   C                   |
 |         |       C            C                 |
 |         .--C-C-----C--C-----C------------------.
 |        /                 C                    /
 |       /      C   C  C  C                     /

[...]

Density initialized from wave functions
    /      |          C     C                     |
   /       |       C     C    C                   |
  /        |    C C     C                         |
 *         |   C    C     C   C                   |
 |         |       C            C                 |
 |         .--C-C-----C--C-----C------------------.
 |        /                 C                    /
 |       /      C   C  C  C                     /

[...]

Density initialized from wave functions
    /      |          C     C                     |
   /       |       C     C    C                   |
  /        |    C C     C                         |
 *         |   C    C     C   C                   |
 |         |  C    C            C                 |
 |         .----C-----C--C-----C------------------.
 |        /                 C                    /
 |       /      C   C C   C                     /

[...]

Density initialized from wave functions
    /      |          C     C                     |
   /       |       C     C     C                  |
  /        |    C C     C                         |
 *         |   C    C     C   C                   |
 |         |  C    C            C                 |
 |         .----C-----C--C-----C------------------.
 |        /                 C                    /
 |       /      C   C C   C                     /

[...]

Density initialized from wave functions
    /      |          C     C                     |
   /       |       C     C     C                  |
  /        |    C C     C                         |
 *         |   C    C     C   C                   |
 |         |  C    C            C                 |
 |         .----C-----C--C-----C------------------.
 |        /                 C                    /
 |       /      C   C     C                     /
 |      /             C                        /

[...]

System changes: positions

Initializing position-dependent things.

Density initialized from wave functions
    /      |          C     C                     |
   /       |       C     C     C                  |
  /        |    C C     C                         |
 *         |   C    C     C   C                   |
 |         |  C    C            C                 |
 |         .----C-----C--C-----C------------------.
 |        /                 C                    /
 |       /      C   C     C                     /
 |      /             C                        /

Positions:
   0 C      3.755948    6.096965    5.665121
   1 C      4.799111    5.238541    5.428023
   2 C      3.749428    7.326494    6.286017
   3 C      4.906463    9.171451    7.012771
   4 C      4.937179    7.688955    7.123939
   5 C      3.914266    8.723189    5.993542
   6 C     10.780722    5.749278    5.277945
   7 C      9.130981    3.805312    4.457583
   8 C      9.610652    4.996600    5.082940
   9 C     10.926740    6.890652    5.816319
  10 C      7.923868    3.432508    4.348003
  11 C      9.943844    7.740942    6.348433
  12 C      8.483122    5.769124    5.655454
  13 C      6.709330    4.047850    4.758155
  14 C      8.609802    7.078385    6.269448
  15 C      7.179688    5.249126    5.474924
  16 C      9.788624    9.039040    6.891559
  17 C      5.295470    4.023362    4.806112
  18 C      6.094761    9.787778    7.067144
  19 C      7.374254    9.212300    7.104907
  20 C      6.155654    7.096392    6.644812
  21 C      7.419280    7.767430    6.711494
  22 C      6.048440    5.919208    5.923049
  23 C      8.723896    9.642425    7.204087

Unit cell:
           periodic     x           y           z      points  spacing
  1. axis:    yes   16.000000    0.000000    0.000000    80     0.2000
  2. axis:    yes    0.000000   16.000000    0.000000    80     0.2000
  3. axis:    yes    0.000000    0.000000   10.000000    48     0.2083

Effective grid spacing dv^(1/3) = 0.2027

                     log10-error:    total        iterations:
           time      wfs    density  energy       fermi  poisson
iter:   1  11:46:23          +inf  -184.821865    2      4
iter:   2  11:46:23         -2.33  -184.799835    3      2
iter:   3  11:46:24         -3.41  -184.799915    2      1
iter:   4  11:46:25         -3.48  -184.800214    2      1
iter:   5  11:46:25         -3.60  -184.800057    2      1
iter:   6  11:46:26         -3.33  -184.799779    2      1
iter:   7  11:46:27         -3.89  -184.800496    2      1
iter:   8  11:46:27         -3.29  -184.799751    2      1
iter:   9  11:46:28         -4.28  -184.799549    2      1

Converged after 9 iterations.

Dipole moment: (0.035732, 0.213425, 0.226762) |e|*Ang

Energy contributions relative to reference atoms: (reference = -24663.074771)

Kinetic:       +117.448017
Potential:     -123.881204
External:        +0.000000
XC:            -181.319024
Entropy (-ST):   -0.142343
Local:           +3.023834
Free energy:   -184.870721
Extrapolated:  -184.799549

Fermi level: -4.42120

 Band  Eigenvalues  Occupancy
    0    -23.68384    2.00000
    1    -22.62351    2.00000
    2    -21.93979    2.00000
    3    -21.25998    2.00000
    4    -20.58892    2.00000
    5    -20.13714    2.00000
    6    -19.39024    2.00000
    7    -19.34211    2.00000
    8    -18.44141    2.00000
    9    -18.01835    2.00000
   10    -17.64737    2.00000
   11    -17.18624    2.00000
   12    -16.20183    2.00000
   13    -15.70660    2.00000
   14    -15.35549    2.00000
   15    -14.75759    2.00000
   16    -14.35836    2.00000
   17    -13.92670    2.00000
   18    -13.31980    2.00000
   19    -12.60030    2.00000
   20    -12.36462    2.00000
   21    -12.23031    2.00000
   22    -11.63985    2.00000
   23    -11.52158    2.00000
   24    -11.01871    2.00000
   25    -10.89356    2.00000
   26    -10.65222    2.00000
   27    -10.58558    2.00000
   28    -10.52255    2.00000
   29     -9.90788    2.00000
   30     -9.66024    2.00000
   31     -9.49211    2.00000
   32     -9.26781    2.00000
   33     -9.15558    2.00000
   34     -8.62656    2.00000
   35     -8.01280    2.00000
   36     -7.76241    2.00000
   37     -6.96936    2.00000
   38     -6.73597    2.00000
   39     -6.45102    2.00000
   40     -6.41264    2.00000
   41     -6.35198    2.00000
   42     -6.16903    2.00000
   43     -6.01130    2.00000
   44     -5.71925    2.00000
   45     -5.39963    1.99989
   46     -4.75136    1.92897
   47     -4.69456    1.87796
   48     -4.19519    0.18898
   49     -3.80497    0.00421
   50     -3.07991    0.00000
   51     -2.62562    0.00000
   52     -2.54649    0.00000
   53     -2.37900    0.00000
   54     -2.33465    0.00000
   55     -2.15477    0.00000
   56     -1.08406    0.00000
   57     -0.93882    0.00000
   58     -0.36928    0.00000
   59      0.24577    0.00000
[...]
   83      9.15514    0.00000
   84      9.27789    0.00000
   85      9.31105    0.00000
   86      9.39293    0.00000
   87      9.42767    0.00000
   88      9.55416    0.00000
   89      9.68204    0.00000
   90      9.76630    0.00000
   91      9.83747    0.00000
   92     10.01534    0.00000
   93     10.06369    0.00000
   94     10.26416    0.00000
   95     10.32148    0.00000
   96     10.46453    0.00000
   97     10.49014    0.00000

Forces in eV/Ang:
  0 C    -0.01838    0.03930   -0.03656
  1 C     0.08636    0.00481    0.01604
  2 C    -0.02000   -0.00451    0.02745
  3 C     0.06312    0.00527   -0.00199
  4 C     0.00992    0.02956   -0.01148
  5 C    -0.03889    0.01379    0.01996
  6 C     0.00504    0.00634    0.01370
  7 C     0.00890    0.02328   -0.03826
  8 C     0.00032   -0.01389   -0.00319
  9 C    -0.00018    0.01761    0.00292
 10 C     0.02365   -0.01869   -0.02869
 11 C    -0.00983   -0.00581    0.00908
 12 C     0.00758   -0.01739    0.02282
 13 C    -0.00742   -0.01912    0.01870
 14 C    -0.00894   -0.00319    0.00036
 15 C    -0.01457    0.00244    0.00452
 16 C    -0.01457    0.00424    0.02813
 17 C    -0.00450   -0.03995   -0.03710
 18 C    -0.02484    0.02646    0.02695
 19 C     0.03204   -0.01692   -0.02020
 20 C    -0.02026    0.03090    0.01356
 21 C    -0.02533   -0.00881   -0.03016
 22 C    -0.01149   -0.03597    0.01689
 23 C     0.01315   -0.00129   -0.01227