User:   esb@s65n74.grendel.cscaa.dk
Date:   Thu Nov  9 10:43:01 2017
Arch:   x86_64
Pid:    99845
Python: 2.7.13
gpaw:   /home/esb/DFT/gpaw_git/gpaw
_gpaw:  /home/esb/DFT/gpaw_git/build/bin.linux-x86_64-2.7/gpaw-python
ase:    /home/esb/DFT/ase_git/ase (version 3.15.0b1)
numpy:  /comm/swstack/core/python/2.7.13/lib/python2.7/site-packages/numpy (version 1.13.3)
scipy:  /comm/swstack/core/python/2.7.13/lib/python2.7/site-packages/scipy (version 0.19.1)
units:  Angstrom and eV
cores:  16
Extra parameters: {'blacs': True}

Input parameters:
  basis: dzp
  gpts: [80 80 48]
  kpts: [1 1 1]
  maxiter: 99
  mixer: {backend: pulay,
          beta: 0.05,
          method: separate,
          nmaxold: 5,
          weight: 75}
  mode: lcao
  nbands: -50
  occupations: {name: fermi-dirac,
                width: 0.1}
  poissonsolver: {eps: 1e-07,
                  name: fd,
                  nn: 3,
                  relax: GS}
  xc: PBE

System changes: positions, numbers, cell, pbc, initial_charges, initial_magmoms

Initialize ...

C-setup:
  name: Carbon
  id: 4aa54d4b901d75f77cc0ea3eec22967b
  Z: 6
  valence: 4
  core: 2
  charge: 0.0
  file: /home/esb/DFT/gpaw-setups-0.8.7929/C.PBE.gz
  cutoffs: 0.64(comp), 1.14(filt), 1.14(core), lmax=2
  valence states:
                energy  radius
    2s(2.00)   -13.751   0.635
    2p(2.00)    -5.284   0.635
    *s          13.461   0.635
    *p          21.927   0.635
    *d           0.000   0.635

  LCAO basis set for C:
    Name: dzp
    File: /home/esb/DFT/gpaw-setups-0.8.7929/C.dzp.basis.gz
    Number of radial functions: 5
    Number of spherical harmonics: 13
      l=0, rc=5.5469 Bohr: 2s-sz confined orbital
      l=1, rc=6.6719 Bohr: 2p-sz confined orbital
      l=0, rc=3.0312 Bohr: 2s-dz split-valence wave
      l=1, rc=3.7500 Bohr: 2p-dz split-valence wave
      l=2, rc=6.6719 Bohr: d-type Gaussian polarization

Reference energy: -24663.074771

Spin-paired calculation

Occupation numbers:
  Fermi-Dirac: width=0.1000 eV

Convergence criteria:
  Maximum total energy change: 0.0005 eV / electron
  Maximum integral of absolute density change: 0.0001 electrons
  Maximum integral of absolute eigenstate change: 4e-08 eV^2
  Maximum number of iterations: 99

Symmetries present (total): 1

  ( 1  0  0)
  ( 0  1  0)
  ( 0  0  1)

1 k-point (Gamma)
1 k-point in the irreducible part of the Brillouin zone
       k-points in crystal coordinates                weights
   0:     0.00000000    0.00000000    0.00000000          1/1

Wave functions: LCAO
  Diagonalizer: Serial LAPACK
  Atomic Correction: dense with blas
  Datatype: float
  Eigensolver: None

LCAO using direct dense diagonalizer

Densities:
  Coarse grid: 80*80*48 grid
  Fine grid: 160*160*96 grid
  Total Charge: 0.000000

Density mixing:
  Method: separate
  Backend: pulay
  Linear mixing parameter: 0.05
  Mixing with 5 old densities
  Damping of long wave oscillations: 75

Hamiltonian:
  XC and Coulomb potentials evaluated on a 160*160*96 grid
  Using the PBE Exchange-Correlation functional
  Interpolation: tri-quintic (5. degree polynomial)
  Poisson solver: Gauss-Seidel solver with 6 multi-grid levels
    Coarsest grid: 5 x 5 x 3 points
    Stencil: 6*3+1=19 point O(h^6) finite-difference Laplacian
    Max iterations: 1000
    Tolerance: 1.000000e-07

Total number of cores used: 16
Domain decomposition: 2 x 4 x 2

Number of atoms: 24
Number of atomic orbitals: 312
Number of bands in calculation: 98
Bands to converge: occupied states only
Number of valence electrons: 96

... initialized

Initializing position-dependent things.

Density initialized from atomic densities
   /       |            C                         |
  /        |      C  C   C                        |
 *         |     C   C    C                       |
 |         |      C        C  C  C                |
 |         .---C--------C-------------------------.
 |        /      C C   CC      C  C              /
 |       /         C        C                   /
 |      /             C                        /

Positions:
   0 C      6.274730    4.533318    4.862656
   1 C      7.567119    5.330725    4.779731
   2 C     11.052407    5.231061    4.462846
   3 C      5.116442    5.281668    4.997692
   4 C      8.285735    4.361563    5.353533
   5 C      7.930644    3.455116    4.434086
   6 C     10.005737    4.489879    4.508034
   7 C      6.640152    3.162008    4.770322
   8 C     12.041217    6.180850    4.463145
   9 C      4.220653    6.613146    4.896734
  10 C      7.625917    6.738184    4.833321
  11 C      3.868716   11.542594    4.966501
  12 C      5.996421    8.104954    5.524137
  13 C     11.415293    6.792048    5.326339
  14 C      5.073051    7.388500    5.707019
  15 C      9.845627    8.358918    4.571024
  16 C      4.040120   10.184405    5.011006
  17 C      7.656935   10.241733    4.775335
  18 C      7.824475    8.788242    5.128907
  19 C      6.312542   12.498341    4.745992
  20 C      5.041381   12.134258    4.838565
  21 C      8.701647    7.859182    4.774697
  22 C      4.376271    8.969702    5.047763
  23 C      7.079111   11.370885    4.744714

Unit cell:
           periodic     x           y           z      points  spacing
  1. axis:    yes   16.000000    0.000000    0.000000    80     0.2000
  2. axis:    yes    0.000000   16.000000    0.000000    80     0.2000
  3. axis:    yes    0.000000    0.000000   10.000000    48     0.2083

Effective grid spacing dv^(1/3) = 0.2027

                     log10-error:    total        iterations:
           time      wfs    density  energy       fermi  poisson
iter:   1  10:43:03          +inf  -162.552579    3      6
iter:   2  10:43:04         -0.87  -161.159850    3      3
iter:   3  10:43:04         -0.91  -159.611292    32     3
iter:   4  10:43:05         -1.01  -158.907960    4      2
iter:   5  10:43:06         -1.06  -158.060961    32     4
iter:   6  10:43:06         -1.30  -157.689785    4      3
iter:   7  10:43:07         -1.49  -157.703643    4      3
iter:   8  10:43:07         -1.67  -157.651449    3      3
iter:   9  10:43:08         -1.83  -157.622523    3      2
iter:  10  10:43:08         -1.92  -157.611012    3      2
iter:  11  10:43:09         -2.01  -157.587218    4      3
iter:  12  10:43:09         -2.32  -157.586036    3      2
iter:  13  10:43:10         -2.41  -157.582929    3      2
iter:  14  10:43:10         -2.51  -157.586304    3      2
iter:  15  10:43:11         -2.65  -157.585230    3      2
iter:  16  10:43:11         -2.82  -157.584338    3      2
iter:  17  10:43:12         -3.17  -157.581714    2      1
iter:  18  10:43:12         -3.26  -157.579377    2      1
iter:  19  10:43:13         -3.39  -157.578904    2      1
iter:  20  10:43:13         -3.51  -157.577904    2      1
iter:  21  10:43:13         -3.69  -157.577368    2      1
iter:  22  10:43:14         -3.90  -157.580122    2      1
iter:  23  10:43:14         -3.96  -157.582186    2      1
iter:  24  10:43:15         -4.02  -157.581018    2      1

Converged after 24 iterations.

Dipole moment: (-0.513380, 0.127235, 0.058735) |e|*Ang

Energy contributions relative to reference atoms: (reference = -24663.074771)

Kinetic:       +132.817610
Potential:     -129.063079
External:        +0.000000
XC:            -164.063829
Entropy (-ST):   -0.367406
Local:           +2.911983
Free energy:   -157.764721
Extrapolated:  -157.581018

Fermi level: -4.93531

 Band  Eigenvalues  Occupancy
    0    -24.58255    2.00000
    1    -22.69983    2.00000
    2    -22.32203    2.00000
    3    -21.70599    2.00000
    4    -21.41993    2.00000
    5    -20.07354    2.00000
    6    -19.64097    2.00000
    7    -19.30177    2.00000
    8    -18.70633    2.00000
    9    -18.05431    2.00000
   10    -17.84805    2.00000
   11    -17.46816    2.00000
   12    -17.12364    2.00000
   13    -16.31635    2.00000
   14    -15.23919    2.00000
   15    -14.46089    2.00000
   16    -13.99933    2.00000
   17    -12.93920    2.00000
   18    -12.78051    2.00000
   19    -12.47229    2.00000
   20    -12.28806    2.00000
   21    -11.84974    2.00000
   22    -11.39094    2.00000
   23    -11.27069    2.00000
   24    -10.65771    2.00000
   25    -10.41870    2.00000
   26    -10.17461    2.00000
   27     -9.64065    2.00000
   28     -9.44298    2.00000
   29     -9.41643    2.00000
   30     -9.16151    2.00000
   31     -8.94637    2.00000
   32     -8.65885    2.00000
   33     -8.14049    2.00000
   34     -8.10489    2.00000
   35     -7.66227    2.00000
   36     -7.49381    2.00000
   37     -7.16260    2.00000
   38     -6.79704    2.00000
   39     -6.60066    2.00000
   40     -6.33785    2.00000
   41     -5.90976    1.99988
   42     -5.85476    1.99980
   43     -5.63545    1.99818
   44     -5.48477    1.99182
   45     -5.44916    1.98833
   46     -5.12763    1.74500
   47     -5.04526    1.50032
   48     -4.87151    0.69140
   49     -4.62385    0.08502
   50     -4.02897    0.00023
   51     -3.79028    0.00002
   52     -3.58745    0.00000
   53     -3.18075    0.00000
   54     -2.92077    0.00000
   55     -2.33142    0.00000
   56     -2.03825    0.00000
   57     -1.85697    0.00000
   58     -1.77164    0.00000
   59     -1.41979    0.00000
[...]
   83      7.77542    0.00000
   84      8.01420    0.00000
   85      8.17640    0.00000
   86      8.42361    0.00000
   87      8.57892    0.00000
   88      8.67808    0.00000
   89      8.90663    0.00000
   90      8.96660    0.00000
   91      9.04810    0.00000
   92      9.20974    0.00000
   93      9.27306    0.00000
   94      9.35114    0.00000
   95      9.84649    0.00000
   96      9.92291    0.00000
   97      9.96800    0.00000

Forces in eV/Ang:
  0 C    -4.35102    1.66947   -1.59864
  1 C    -3.03791    7.42602    0.96250
  2 C    -1.15251   -1.15813    0.19292
  3 C    -2.65834    3.70499   -0.21198
  4 C    11.36198   -0.57133   -0.00820
  5 C    -2.01678   -5.65069   -0.56614
  6 C    -1.65788    0.17757    1.74986
  7 C    -0.90814   -1.12006   -0.84553
  8 C     4.17688   -3.11010   -5.04996
  9 C     3.02839   -8.03034    0.66944
 10 C     1.24386   -1.84399   -0.25990
 11 C     0.27255   -0.26007   -0.23587
 12 C    13.36395    9.38025   -3.27844
 13 C    -4.36198    5.50749    4.50356
 14 C   -12.67876   -5.66794    0.04962
 15 C     8.54642    1.62641   -0.73900
 16 C    -0.00417    1.55324    0.11727
 17 C     1.54028   -4.78190    1.36852
 18 C    -6.19870   10.81666    0.11978
 19 C     0.26878   -0.48981   -0.07993
 20 C    -0.49334    0.19934    0.01584
 21 C    -6.58788   -7.83310    0.98402
 22 C     2.61329   -2.30482    2.13782
 23 C    -0.33727    0.66195    0.09955

System changes: positions

[...]

Density initialized from wave functions
   /       |            C                         |
  /        |      C  C   C                        |
 *         |     C   C    C                       |
 |         |      C        C  C  C                |
 |         .---C--------C-------------------------.
 |        /      C C   CC      C  C              /
 |       /         C        C                   /
 |      /             C                        /

[...]

Density initialized from wave functions
   /       |            C                         |
  /        |      C  C   C                        |
 *         |     C   C    C                       |
 |         |      C        C  C  C                |
 |         .---C--------C-------------------------.
 |        /      C C   CC      C  C              /
 |       /         C        C                   /
 |      /             C                        /

[...]

Density initialized from wave functions
  /        |      C  C  CC                        |
 *         |     C   C    C                       |
 |         |      C        C  C  C                |
 |         .---C--------C-------------------------.
 |        /      C C   CC      C  C              /
 |       /         C        C                   /
 |      /             C                        /

[...]

Density initialized from wave functions
  /        |      C  C  CC                        |
 *         |     C   C   CC                       |
 |         |      C        C  C  C                |
 |         .---C--------C-------------------------.
 |        /      C C   CC      C  C              /
 |       /         C        C                   /
 |      /             C                        /

[...]

Density initialized from wave functions
  /        |      C  C  CC                        |
 *         |     C   C   CC                       |
 |         |      C        C  C  C                |
 |         .---C--------C-------------------------.
 |        /      C C   CC      C  C              /
 |       /         C        C                   /
 |      /             C                        /

[...]

Density initialized from wave functions
  /        |      C  C  CC                        |
 *         |     C   C   CC                       |
 |         |      C        C  C  C                |
 |         .----C-------C-------------------------.
 |        /      C C   CC      C  C              /
 |       /         C        C                   /
 |      /             C                        /

[...]

Density initialized from wave functions
  /        |      C  C  CC                        |
 *         |     C   C   CC                       |
 |         |      C        C  C  C                |
 |         .----C-------C-------------------------.
 |        /      C C   CC      C  C              /
 |       /         C        C                   /
 |      /             C                        /

[...]

Density initialized from wave functions
  /        |      C  C  CC                        |
 *         |     C   C   CC                       |
 |         |      C        C  C  C                |
 |         .----C-------C-------------------------.
 |        /      C C   C C     C  C              /
 |       /         C        C                   /
 |      /             C                        /

[...]

Density initialized from wave functions
  /        |      C  C  CC                        |
 *         |     C   C   CC                       |
 |         |      C        C  C  C                |
 |         .----C-------C-------------------------.
 |        /      C C   C C     C  C              /
 |       /         C        C                   /
 |      /             C                        /

[...]

Density initialized from wave functions
  /        |      C  C  CC                        |
 *         |     C       CC                       |
 |         |      C  C     C  C  C                |
 |         .----C-------C-------------------------.
 |        /      C C   C C     C  C              /
 |       /         C        C                   /
 |      /             C                        /

[...]

Density initialized from wave functions
  /        |      C  C  CC                        |
 *         |     C       CC                       |
 |         |      C   C    C   C C                |
 |         .----C-------C-------------------------.
 |        /      C C   C C     C  C              /
 |       /         C        C                   /
 |      /             C                        /

[...]

Density initialized from wave functions
  /        |      C  C  CC                        |
 *         |     C       CC                       |
 |         |      C   C    C   C C                |
 |         .----C-------C-------------------------.
 |        /     C  C   C C  C  C  C              /
 |       /         C                            /
 |      /             C                        /

[...]

Density initialized from wave functions
  /        |      C  C  CC                        |
 *         |     C       CC                       |
 |         |      C   C    C   C                  |
 |         .----C-------C--------C----------------.
 |        /     C  C   C    C  C  C              /
 |       /         C     C                      /
 |      /             C                        /

[...]

Density initialized from wave functions
  /        |      C  C  CC                        |
 *         |     C       CC                       |
 |         |      C   C    C  C                   |
 |         .----C-------C--------C----------------.
 |        /     C  C   C    C  C  C              /
 |       /         C     C                      /
 |      /             C                        /

[...]

Density initialized from wave functions
  /        |     CC  C  CC                        |
 *         |     C       CC                       |
 |         |      C   C    C  C                   |
 |         .----C-------C--------C----------------.
 |        /     C  C   C    C  C  C              /
 |       /         C     C                      /
 |      /             C                        /

[...]

Density initialized from wave functions
  /        |     CC  C  CC                        |
 *         |     C       CC                       |
 |         |      C   C    C  C                   |
 |         .----C-------C--------C----------------.
 |        /     C  C   C    C  C  C              /
 |       /         C     C                      /
 |      /             C                        /

[...]

Density initialized from wave functions
  /        |     CC  C  CC                        |
 *         |     C       CC                       |
 |         |      C   C    C  C                   |
 |         .----C-------C-------C-----------------.
 |        /     C  C   C    C  C  C              /
 |       /               C                      /
 |      /          C  C                        /

[...]

Density initialized from wave functions
  /        |     CC  C  CC                        |
 *         |     C       CC                       |
 |         |      C   C    C  C                   |
 |         .-----C------C-------C-----------------.
 |        /     C  C   C    C  C  C              /
 |       /               C                      /
 |      /          C  C                        /

[...]

Density initialized from wave functions
  /        |     CC  C  CC                        |
 *         |     C       CC                       |
 |         |      C   C    C  C                   |
 |         .-----C------C-------C-----------------.
 |        /      C C   C    C  C  C              /
 |       /               C                      /
 |      /          C  C                        /

[...]

Density initialized from wave functions
  /        |     CC  C  CC                        |
 *         |     C       CC                       |
 |         |      C   C    C  C                   |
 |         .----C-------C-------C-----------------.
 |        /      C C   C    C  C  C              /
 |       /               C                      /
 |      /          C  C                        /

[...]

Density initialized from wave functions
  /        |     CC  C  CC                        |
 *         |     C       CC                       |
 |         |      C   C    C  C                   |
 |         .----C-------C-------C-----------------.
 |        /      C C   C       C  C              /
 |       /               C  C                   /
 |      /          C  C                        /

[...]

Density initialized from wave functions
  /        |     CC  C  CC                        |
 *         |     C       CC                       |
 |         |      C   C    C  C                   |
 |         .----C-------C-------C-----------------.
 |        /      C C   C       C  C              /
 |       /         C     C  C                   /
 |      /             C                        /

[...]

Density initialized from wave functions
  /        |     CC  C  CC                        |
 *         |     C       CC                       |
 |         |      C   C    C  C                   |
 |         .----C-------C-------C-----------------.
 |        /      C C   C       C  C              /
 |       /         C     C  C                   /
 |      /             C                        /

[...]

Density initialized from wave functions
  /        |     CC  C  CC                        |
 *         |     C       CC                       |
 |         |      C   C    C  C                   |
 |         .----C-------C-------C-C---------------.
 |        /      C C   C       C                 /
 |       /         C     C  C                   /
 |      /             C                        /

[...]

Density initialized from wave functions
  /        |     CC  C  CC                        |
 *         |     C       CC                       |
 |         |      C   C    C  C                   |
 |         .----C-------C-------C-C---------------.
 |        /      C C   C       C                 /
 |       /         C     C  C                   /
 |      /             C                        /

[...]

Density initialized from wave functions
   /       |            C                         |
  /        |     CC  C   C                        |
 *         |     C       CC                       |
 |         |      C   C    C  C                   |
 |         .----C-------C-------C-C---------------.
 |        /      C C   C       C                 /
 |       /         C     C  C                   /
 |      /             C                        /

[...]

System changes: positions

Initializing position-dependent things.

Density initialized from wave functions
   /       |            C                         |
  /        |     CC  C   C                        |
 *         |     C       CC                       |
 |         |      C   C    C  C                   |
 |         .----C-------C-------C-C---------------.
 |        /      C C   C       C                 /
 |       /         C     C  C                   /
 |      /             C                        /

Positions:
   0 C      6.229199    4.535197    4.857909
   1 C      7.527118    5.331792    4.880014
   2 C     11.011512    5.251468    4.687501
   3 C      5.067332    5.274271    5.012899
   4 C      8.635052    4.279336    4.690220
   5 C      7.862482    3.047250    4.568696
   6 C      9.979402    4.486816    4.661249
   7 C      6.592728    3.171782    4.673855
   8 C     11.980678    6.219666    4.707655
   9 C      4.664531    6.456239    5.133995
  10 C      7.573904    6.737368    4.987317
  11 C      3.883521   11.549358    5.046234
  12 C      6.546707    7.803021    5.089487
  13 C     11.002676    7.185531    4.801496
  14 C      5.101123    7.798631    5.179286
  15 C      9.993943    7.979115    4.874525
  16 C      4.042869   10.195894    5.150806
  17 C      7.531208   10.241200    4.927582
  18 C      7.566760    8.860611    4.999568
  19 C      6.299149   12.559185    4.767709
  20 C      5.030012   12.175739    4.884601
  21 C      8.629722    7.874844    4.947697
  22 C      4.327657    8.967080    5.216310
  23 C      7.029861   11.401039    4.830466

Unit cell:
           periodic     x           y           z      points  spacing
  1. axis:    yes   16.000000    0.000000    0.000000    80     0.2000
  2. axis:    yes    0.000000   16.000000    0.000000    80     0.2000
  3. axis:    yes    0.000000    0.000000   10.000000    48     0.2083

Effective grid spacing dv^(1/3) = 0.2027

                     log10-error:    total        iterations:
           time      wfs    density  energy       fermi  poisson
iter:   1  10:49:50          +inf  -182.350085    2      5
iter:   2  10:49:50         -2.79  -182.349378    2      1
iter:   3  10:49:51         -2.94  -182.348881    2      1
iter:   4  10:49:51         -3.14  -182.350135    2      1
iter:   5  10:49:52         -3.29  -182.349887    2      1
iter:   6  10:49:52         -3.46  -182.349455    2      1
iter:   7  10:49:53         -3.71  -182.348560    2      1
iter:   8  10:49:53         -3.50  -182.346399    2      1
iter:   9  10:49:54         -4.00  -182.346543    2      1

Converged after 9 iterations.

Dipole moment: (-0.529982, -0.356908, 0.049705) |e|*Ang

Energy contributions relative to reference atoms: (reference = -24663.074771)

Kinetic:       +109.350242
Potential:     -119.236522
External:        +0.000000
XC:            -175.345035
Entropy (-ST):   -0.186678
Local:           +2.978112
Free energy:   -182.439882
Extrapolated:  -182.346543

Fermi level: -4.57648

 Band  Eigenvalues  Occupancy
    0    -22.88383    2.00000
    1    -22.17926    2.00000
    2    -21.24025    2.00000
    3    -21.10280    2.00000
    4    -20.91233    2.00000
    5    -19.87055    2.00000
    6    -19.58078    2.00000
    7    -19.23076    2.00000
    8    -18.60933    2.00000
    9    -18.46532    2.00000
   10    -18.22209    2.00000
   11    -17.40384    2.00000
   12    -16.74867    2.00000
   13    -16.29043    2.00000
   14    -15.89552    2.00000
   15    -15.07461    2.00000
   16    -14.32345    2.00000
   17    -13.82480    2.00000
   18    -13.61139    2.00000
   19    -13.24745    2.00000
   20    -12.90769    2.00000
   21    -11.97857    2.00000
   22    -11.65148    2.00000
   23    -11.32484    2.00000
   24    -11.11436    2.00000
   25    -10.64873    2.00000
   26    -10.35236    2.00000
   27    -10.11660    2.00000
   28     -9.83652    2.00000
   29     -9.77944    2.00000
   30     -9.35050    2.00000
   31     -9.15524    2.00000
   32     -9.12180    2.00000
   33     -8.76037    2.00000
   34     -8.69773    2.00000
   35     -7.99980    2.00000
   36     -7.68655    2.00000
   37     -7.36686    2.00000
   38     -7.08189    2.00000
   39     -6.95478    2.00000
   40     -6.43017    2.00000
   41     -6.16359    2.00000
   42     -5.97076    2.00000
   43     -5.92441    2.00000
   44     -5.83237    1.99999
   45     -5.53806    1.99987
   46     -4.95828    1.95700
   47     -4.76778    1.74273
   48     -4.39955    0.29127
   49     -4.03425    0.00880
   50     -3.71117    0.00035
   51     -2.79197    0.00000
   52     -2.69027    0.00000
   53     -2.46396    0.00000
   54     -1.73790    0.00000
   55     -1.44572    0.00000
   56     -0.93144    0.00000
   57     -0.32391    0.00000
   58     -0.07954    0.00000
   59      0.05291    0.00000
[...]
   83      8.48982    0.00000
   84      8.68999    0.00000
   85      8.74933    0.00000
   86      8.84265    0.00000
   87      9.04030    0.00000
   88      9.14466    0.00000
   89      9.33896    0.00000
   90      9.39701    0.00000
   91      9.45924    0.00000
   92      9.64443    0.00000
   93      9.94076    0.00000
   94      9.97863    0.00000
   95     10.07648    0.00000
   96     10.16280    0.00000
   97     10.29636    0.00000

Forces in eV/Ang:
  0 C     0.02749   -0.00838    0.04789
  1 C    -0.00312   -0.00017   -0.08046
  2 C    -0.04829   -0.01094   -0.00742
  3 C    -0.00156    0.08494    0.00489
  4 C    -0.02485    0.01013    0.04716
  5 C    -0.00363    0.02345    0.05253
  6 C     0.00733    0.01941   -0.02411
  7 C    -0.01732    0.02475   -0.00793
  8 C    -0.05511   -0.01534    0.01965
  9 C     0.02605   -0.07481    0.05867
 10 C    -0.01256    0.00556   -0.00763
 11 C     0.02494   -0.03930   -0.01196
 12 C     0.02379    0.00693   -0.04808
 13 C     0.07539   -0.05072    0.01313
 14 C    -0.03605    0.01084   -0.07737
 15 C     0.00465    0.01787    0.01536
 16 C    -0.04320   -0.01815   -0.00104
 17 C    -0.02162    0.03733   -0.07053
 18 C     0.01170    0.02232    0.06311
 19 C    -0.03646   -0.01148    0.01756
 20 C     0.02072   -0.03961    0.02681
 21 C    -0.00152   -0.01087   -0.02804
 22 C    -0.01568   -0.00795   -0.02459
 23 C     0.03030   -0.01944    0.05246