User:   esb@s66n62.grendel.cscaa.dk
Date:   Wed Nov  8 14:13:03 2017
Arch:   x86_64
Pid:    115392
Python: 2.7.13
gpaw:   /home/esb/DFT/gpaw_git/gpaw
_gpaw:  /home/esb/DFT/gpaw_git/build/bin.linux-x86_64-2.7/gpaw-python
ase:    /home/esb/DFT/ase_git/ase (version 3.15.0b1)
numpy:  /comm/swstack/core/python/2.7.13/lib/python2.7/site-packages/numpy (version 1.13.3)
scipy:  /comm/swstack/core/python/2.7.13/lib/python2.7/site-packages/scipy (version 0.19.1)
units:  Angstrom and eV
cores:  16
Extra parameters: {'blacs': True}

Input parameters:
  basis: dzp
  gpts: [80 80 48]
  kpts: [1 1 1]
  maxiter: 99
  mixer: {backend: pulay,
          beta: 0.05,
          method: separate,
          nmaxold: 5,
          weight: 75}
  mode: lcao
  nbands: -50
  occupations: {name: fermi-dirac,
                width: 0.1}
  poissonsolver: {eps: 1e-07,
                  name: fd,
                  nn: 3,
                  relax: GS}
  xc: PBE

System changes: positions, numbers, cell, pbc, initial_charges, initial_magmoms

Initialize ...

C-setup:
  name: Carbon
  id: 4aa54d4b901d75f77cc0ea3eec22967b
  Z: 6
  valence: 4
  core: 2
  charge: 0.0
  file: /home/esb/DFT/gpaw-setups-0.8.7929/C.PBE.gz
  cutoffs: 0.64(comp), 1.14(filt), 1.14(core), lmax=2
  valence states:
                energy  radius
    2s(2.00)   -13.751   0.635
    2p(2.00)    -5.284   0.635
    *s          13.461   0.635
    *p          21.927   0.635
    *d           0.000   0.635

  LCAO basis set for C:
    Name: dzp
    File: /home/esb/DFT/gpaw-setups-0.8.7929/C.dzp.basis.gz
    Number of radial functions: 5
    Number of spherical harmonics: 13
      l=0, rc=5.5469 Bohr: 2s-sz confined orbital
      l=1, rc=6.6719 Bohr: 2p-sz confined orbital
      l=0, rc=3.0312 Bohr: 2s-dz split-valence wave
      l=1, rc=3.7500 Bohr: 2p-dz split-valence wave
      l=2, rc=6.6719 Bohr: d-type Gaussian polarization

Reference energy: -24663.074771

Spin-paired calculation

Occupation numbers:
  Fermi-Dirac: width=0.1000 eV

Convergence criteria:
  Maximum total energy change: 0.0005 eV / electron
  Maximum integral of absolute density change: 0.0001 electrons
  Maximum integral of absolute eigenstate change: 4e-08 eV^2
  Maximum number of iterations: 99

Symmetries present (total): 1

  ( 1  0  0)
  ( 0  1  0)
  ( 0  0  1)

1 k-point (Gamma)
1 k-point in the irreducible part of the Brillouin zone
       k-points in crystal coordinates                weights
   0:     0.00000000    0.00000000    0.00000000          1/1

Wave functions: LCAO
  Diagonalizer: Serial LAPACK
  Atomic Correction: dense with blas
  Datatype: float
  Eigensolver: None

LCAO using direct dense diagonalizer

Densities:
  Coarse grid: 80*80*48 grid
  Fine grid: 160*160*96 grid
  Total Charge: 0.000000

Density mixing:
  Method: separate
  Backend: pulay
  Linear mixing parameter: 0.05
  Mixing with 5 old densities
  Damping of long wave oscillations: 75

Hamiltonian:
  XC and Coulomb potentials evaluated on a 160*160*96 grid
  Using the PBE Exchange-Correlation functional
  Interpolation: tri-quintic (5. degree polynomial)
  Poisson solver: Gauss-Seidel solver with 6 multi-grid levels
    Coarsest grid: 5 x 5 x 3 points
    Stencil: 6*3+1=19 point O(h^6) finite-difference Laplacian
    Max iterations: 1000
    Tolerance: 1.000000e-07

Total number of cores used: 16
Domain decomposition: 2 x 4 x 2

Number of atoms: 24
Number of atomic orbitals: 312
Number of bands in calculation: 98
Bands to converge: occupied states only
Number of valence electrons: 96

... initialized

Initializing position-dependent things.

Density initialized from atomic densities
   /       |               C                      |
  /        |                  C                   |
 *         |  C   C    C   C     C                |
 |         |      C  C          C                 |
 |         .----C----C--C--CC-C-------------------.
 |        /       C     C  C                     /
 |       /     C     CC                         /

Positions:
   0 C      9.725252    3.622923    5.240013
   1 C      5.691530    9.068429    4.705915
   2 C      9.214668    6.996852    4.926157
   3 C      7.630937    4.318543    4.426066
   4 C      7.878326    5.552593    5.723461
   5 C      6.194025    7.229779    4.347793
   6 C      3.277355    8.456063    5.516027
   7 C      6.481267   10.492252    4.593568
   8 C      7.687410   11.666255    5.719370
   9 C      4.251613    7.137110    5.011733
  10 C      4.746851    9.102046    5.462300
  11 C      8.163060   10.440565    4.737098
  12 C      7.303965    3.081803    5.421229
  13 C      5.276831    6.360272    5.499358
  14 C      5.620712    5.065813    4.885959
  15 C     10.232678   10.888611    4.672482
  16 C      4.433282    4.903905    4.340260
  17 C      9.530594    9.184924    5.653742
  18 C     10.206514    6.242423    4.974861
  19 C      8.655684    3.509671    5.415319
  20 C      6.158286    7.218432    5.748387
  21 C      8.141558    9.201493    4.832986
  22 C     10.418610    8.500583    4.728969
  23 C      9.236187    5.463149    5.193910

Unit cell:
           periodic     x           y           z      points  spacing
  1. axis:    yes   16.000000    0.000000    0.000000    80     0.2000
  2. axis:    yes    0.000000   16.000000    0.000000    80     0.2000
  3. axis:    yes    0.000000    0.000000   10.000000    48     0.2083

Effective grid spacing dv^(1/3) = 0.2027

                     log10-error:    total        iterations:
           time      wfs    density  energy       fermi  poisson
iter:   1  14:13:04          +inf  -139.616524    3      6
iter:   2  14:13:05         -0.85  -136.541019    4      3
iter:   3  14:13:06         -0.91  -134.424636    4      3
iter:   4  14:13:06         -0.98  -133.790459    4      2
iter:   5  14:13:07         -1.03  -132.626649    2      3
iter:   6  14:13:07         -1.20  -132.401764    3      3
iter:   7  14:13:08         -1.27  -132.091266    4      3
iter:   8  14:13:08         -1.57  -132.018375    3      3
iter:   9  14:13:09         -1.74  -131.998177    3      3
iter:  10  14:13:10         -1.85  -131.971343    3      3
iter:  11  14:13:10         -2.06  -131.958119    3      2
iter:  12  14:13:11         -2.22  -131.953473    3      2
iter:  13  14:13:11         -2.39  -131.953921    3      2
iter:  14  14:13:12         -2.59  -131.951121    3      2
iter:  15  14:13:12         -2.72  -131.958706    2      1
iter:  16  14:13:13         -2.79  -131.950059    2      1
iter:  17  14:13:13         -2.87  -131.946767    2      2
iter:  18  14:13:14         -3.10  -131.954128    2      1
iter:  19  14:13:14         -3.28  -131.945880    2      1
iter:  20  14:13:15         -3.39  -131.945499    2      1
iter:  21  14:13:15         -3.48  -131.948103    2      1
iter:  22  14:13:16         -3.63  -131.946806    2      1
iter:  23  14:13:16         -3.75  -131.947470    2      1
iter:  24  14:13:17         -3.84  -131.947831    2      1
iter:  25  14:13:17         -3.98  -131.947231    2      1
iter:  26  14:13:18         -4.17  -131.947379    2      1

Converged after 26 iterations.

Dipole moment: (-0.172573, 0.860977, 0.275327) |e|*Ang

Energy contributions relative to reference atoms: (reference = -24663.074771)

Kinetic:       +160.274289
Potential:     -144.643024
External:        +0.000000
XC:            -149.967507
Entropy (-ST):   -0.456926
Local:           +2.617326
Free energy:   -132.175842
Extrapolated:  -131.947379

Fermi level: -5.03965

 Band  Eigenvalues  Occupancy
    0    -25.87603    2.00000
    1    -24.91239    2.00000
    2    -22.81507    2.00000
    3    -22.71468    2.00000
    4    -21.66040    2.00000
    5    -20.03238    2.00000
    6    -19.47083    2.00000
    7    -18.79897    2.00000
    8    -18.46365    2.00000
    9    -18.07212    2.00000
   10    -16.78943    2.00000
   11    -16.31559    2.00000
   12    -15.44610    2.00000
   13    -15.35496    2.00000
   14    -14.28628    2.00000
   15    -13.65755    2.00000
   16    -13.38136    2.00000
   17    -13.24076    2.00000
   18    -12.44266    2.00000
   19    -11.80805    2.00000
   20    -11.50505    2.00000
   21    -11.12928    2.00000
   22    -10.57912    2.00000
   23    -10.42057    2.00000
   24    -10.26466    2.00000
   25    -10.17238    2.00000
   26     -9.92563    2.00000
   27     -9.50285    2.00000
   28     -9.14274    2.00000
   29     -8.89391    2.00000
   30     -8.57835    2.00000
   31     -8.52139    2.00000
   32     -7.95174    2.00000
   33     -7.81871    2.00000
   34     -7.69506    2.00000
   35     -7.64773    2.00000
   36     -7.29210    2.00000
   37     -7.09845    2.00000
   38     -6.90386    2.00000
   39     -6.56354    2.00000
   40     -6.35072    2.00000
   41     -6.28536    1.99999
   42     -6.15159    1.99997
   43     -5.66947    1.99633
   44     -5.52974    1.98523
   45     -5.46411    1.97172
   46     -5.30727    1.87122
   47     -5.07123    1.15659
   48     -4.95740    0.61047
   49     -4.88067    0.33882
   50     -4.69747    0.06324
   51     -4.45657    0.00585
   52     -4.17906    0.00037
   53     -4.10606    0.00018
   54     -3.93481    0.00003
   55     -3.55383    0.00000
   56     -3.03637    0.00000
   57     -2.93469    0.00000
   58     -2.72596    0.00000
   59     -2.55937    0.00000
[...]
   83      5.86726    0.00000
   84      6.40343    0.00000
   85      6.74160    0.00000
   86      7.29746    0.00000
   87      7.89245    0.00000
   88      8.07879    0.00000
   89      8.44022    0.00000
   90      8.60285    0.00000
   91      8.73669    0.00000
   92      8.82998    0.00000
   93      9.09690    0.00000
   94      9.18304    0.00000
   95      9.30141    0.00000
   96      9.33832    0.00000
   97      9.47958    0.00000

Forces in eV/Ang:
  0 C    26.59304    4.24865   -3.89579
  1 C    10.66135    3.32439   -5.74287
  2 C    -4.13941    5.84539   -1.54330
  3 C    -3.74826   -0.23126    2.54855
  4 C     0.81673   -0.22794   -1.77609
  5 C     0.29255    3.40708   -2.23456
  6 C     5.80690   -1.60596   -1.05621
  7 C     1.51297   -0.85590    1.43592
  8 C    -1.05462   -3.64395   -3.23326
  9 C    -5.49620    3.64412   -0.29279
 10 C   -13.06771   -2.45989    5.98696
 11 C    -1.85493   12.69706   -0.77778
 12 C     0.48420    2.34964   -2.12032
 13 C    -7.14284   -8.07698   -0.57941
 14 C    -1.28303   -0.98247    0.07456
 15 C    -2.81768   -2.51843    1.14223
 16 C    -0.48522   -0.64664   -0.59572
 17 C     0.96668   -0.46617   -3.65576
 18 C    11.70778    1.20932   -1.16120
 19 C   -25.20947   -7.25217    5.15773
 20 C    10.92648    6.06865    4.17616
 21 C     3.01763   -8.35200    2.80325
 22 C    -1.52397    1.45049    1.93142
 23 C    -4.97964   -6.95924    3.23144

System changes: positions

[...]

Density initialized from wave functions
   /       |               C                      |
  /        |                  C                   |
 *         |  C   C    C   C     C                |
 |         |      C  C          C                 |
 |         .----C----C--C--CC-C-------------------.
 |        /       C     C  C                     /
 |       /     C     CC                         /

[...]

[...]

[...]

Density initialized from wave functions
   /       |             C                        |
  /        |               C                      |
 *         |   C  C   C C   C CC                  |
 |         |   C        C       C                 |
 |         .------C---CC--C--CC-------------------.
 |        /      C  C      C                     /
 |       /    C      C  C                       /

[...]

Density initialized from wave functions
   /       |             C                        |
  /        |               C                      |
 *         |   C  C   C C   C CC                  |
 |         |            C       C                 |
 |         .---C--C---CC--C--CC-------------------.
 |        /      C  C      C                     /
 |       /    C      C  C                       /

[...]

Density initialized from wave functions
   /       |             C                        |
  /        |               C                      |
 *         |   C  C   C C   C CC                  |
 |         |            C        C                |
 |         .---C--C---CC--C--CC-------------------.
 |        /      C  C      C                     /
 |       /    C      C  C                       /

[...]

Density initialized from wave functions
   /       |             C                        |
  /        |               C                      |
 *         |   C  C   C C   C CC                  |
 |         |            C     C  C                |
 |         .---C--C---CC--C--C--------------------.
 |        /      C  C      C                     /
 |       /    C     C   C                       /

[...]

Density initialized from wave functions
   /       |             C                        |
  /        |               C                      |
 *         |    C  C  C C   C CC                  |
 |         |            C     C  C                |
 |         .---C--C---CC--C--C--------------------.
 |        /      C  C     C                      /
 |       /    C     C   C                       /

[...]

Density initialized from wave functions
   /       |             C                        |
  /        |               C                      |
 *         |       C  C C   C CC                  |
 |         |    C       C     C  C                |
 |         .---C--C---CC--C--C--------------------.
 |        /      C  C     C                      /
 |       /    C     C   C                       /

[...]

Density initialized from wave functions
   /       |             C                        |
  /        |               C                      |
 *         |       C  C C   C CC                  |
 |         |    C       C     C C                 |
 |         .---C--C---CC--C--C--------------------.
 |        /      C  C     C                      /
 |       /    C     C  C                        /

[...]

Density initialized from wave functions
   /       |             C                        |
  /        |               C                      |
 *         |       C  C C   C C                   |
 |         |    C       C     C C                 |
 |         .---C--C---CC--C--C--------------------.
 |        /   C  C  C     C                      /
 |       /          C  C                        /

[...]

Density initialized from wave functions
   /       |             C                        |
  /        |               C                      |
 *         |       C  C C   C C                   |
 |         |    C       C     C C                 |
 |         .---C--C---CC--C--C--------------------.
 |        /   C  C  C     C                      /
 |       /          C  C                        /

[...]

Density initialized from wave functions
   /       |             C                        |
  /        |               C                      |
 *         |       C  C C   C C                   |
 |         |    C       C     C C                 |
 |         .---C---C--CC--C--C--------------------.
 |        /   C  C  C     C                      /
 |       /          C  C                        /

[...]

Density initialized from wave functions
   /       |             C                        |
  /        |               C                      |
 *         |       C  C C   C C                   |
 |         |    C       C     C C                 |
 |         .---C---C--CC--C--C--------------------.
 |        /   C  C  C     C                      /
 |       /          C  C                        /

[...]

Density initialized from wave functions
   /       |             C                        |
  /        |            C  C                      |
 *         |       C  C     C C                   |
 |         |    C       C     C C                 |
 |         .---C---C--CC--C--C--------------------.
 |        /   C  C  C     C                      /
 |       /          C  C                        /

[...]

Density initialized from wave functions
   /       |             C                        |
  /        |            C  C                      |
 *         |       C  C     C C                   |
 |         |    C       C     C C                 |
 |         .---C---C--CC--C--C--------------------.
 |        /   C  C  C     C                      /
 |       /          C  C                        /

[...]

Density initialized from wave functions
   /       |             C                        |
  /        |            C   C                     |
 *         |       C  C     C C                   |
 |         |    C       C     C C                 |
 |         .---C---C--C------C--------------------.
 |        /   C  C  C  C  C                      /
 |       /          C  C                        /

[...]

Density initialized from wave functions
   /       |             C                        |
  /        |            C   C C                   |
 *         |       C  C     C C                   |
 |         |    C       C     C C                 |
 |         .---C---C--C------C--------------------.
 |        /   C  C  C  C  C                      /
 |       /          C  C                        /

[...]

Density initialized from wave functions
   /       |             C                        |
  /        |            C  C  C                   |
 *         |       C  C       C                   |
 |         |    C       C   C C C                 |
 |         .---C---C--C------C--------------------.
 |        /   C  C  C  C  C                      /
 |       /          C  C                        /

[...]

Density initialized from wave functions
   /       |            C                         |
  /        |            C  C  C                   |
 *         |       C  C       C                   |
 |         |    C       C   C C C                 |
 |         .---C---C--C------C--------------------.
 |        /   C  C  C  C  C                      /
 |       /          C  C                        /

[...]

Density initialized from wave functions
   /       |            C                         |
  /        |            C  C  C                   |
 *         |       C  C       C                   |
 |         |    C       C   C C C                 |
 |         .----C--C--C------C--------------------.
 |        /   C  C  C  C  C                      /
 |       /          C  C                        /

[...]

Density initialized from wave functions
   /       |             C                        |
  /        |            C  C  C                   |
 *         |       C  C       C                   |
 |         |    C       C   C C C                 |
 |         .----C--C--C------C--------------------.
 |        /   C  C  C  C  C                      /
 |       /          C  C                        /

[...]

Density initialized from wave functions
   /       |             C                        |
  /        |            C  C  C                   |
 *         |       C  C       C                   |
 |         |    C       C   C C C                 |
 |         .----C--C--CC--C--C--------------------.
 |        /   C  C  C     C                      /
 |       /          C  C                        /

[...]

Density initialized from wave functions
   /       |             C                        |
  /        |            C  C  C                   |
 *         |       C  C       C                   |
 |         |    C       C   C C  C                |
 |         .----C--C--CC--C--C--------------------.
 |        /   C  C  C     C                      /
 |       /          C  C                        /

[...]

Density initialized from wave functions
   /       |             C                        |
  /        |            C  C  C                   |
 *         |       C  C       C                   |
 |         |    C       C   C C  C                |
 |         .----C--C--CC-----C--------------------.
 |        /   C  C  C     C                      /
 |       /          C  C                        /

[...]

Density initialized from wave functions
   /       |             C                        |
  /        |            C  C  C                   |
 *         |       C  C       C                   |
 |         |    C       C   C C  C                |
 |         .---C---C--CC-----C--------------------.
 |        /   C  C  C     C                      /
 |       /          C  C                        /

[...]

Density initialized from wave functions
   /       |             C                        |
  /        |            C  C  C                   |
 *         |       C  C       C                   |
 |         |    C       C   C C  C                |
 |         .---C---C--CC-----C--------------------.
 |        /   C  C  C     C                      /
 |       /          C  C                        /

[...]

Density initialized from wave functions
   /       |             C                        |
  /        |            C  C  C                   |
 *         |       C  C       C                   |
 |         |    C       C   C C  C                |
 |         .---C---C--CC--C--C--------------------.
 |        /   C  C  C     C                      /
 |       /          C  C                        /

[...]

System changes: positions

Initializing position-dependent things.

Density initialized from wave functions
   /       |             C                        |
  /        |            C  C  C                   |
 *         |       C  C       C                   |
 |         |    C       C   C C  C                |
 |         .---C---C--CC--C--C--------------------.
 |        /   C  C  C     C                      /
 |       /          C  C                        /

Positions:
   0 C      9.441297    3.696287    5.450736
   1 C      6.353380    9.258110    5.133453
   2 C      9.928450    7.506708    4.987102
   3 C      6.607543    4.246420    5.114786
   4 C      7.625450    5.387162    5.145280
   5 C      7.381296    8.129783    5.092077
   6 C      4.092744    8.038366    5.068559
   7 C      6.638658   10.649543    5.113913
   8 C      6.568102   12.015660    5.091087
   9 C      4.231411    6.662433    4.970170
  10 C      5.001731    8.920480    5.138038
  11 C      7.908677   11.489420    4.984229
  12 C      7.050907    2.901169    5.238509
  13 C      5.611078    6.298187    5.026869
  14 C      5.331167    4.886678    5.004677
  15 C      9.054009   10.900096    4.847624
  16 C      3.908488    5.185193    4.795316
  17 C      9.580206    9.629463    4.871130
  18 C      9.868046    6.213379    5.189267
  19 C      8.360936    2.955235    5.365250
  20 C      6.947663    6.705743    5.075355
  21 C      8.742017    8.439200    5.060968
  22 C     10.693670    8.764204    4.698033
  23 C      9.054319    5.078127    5.278448

Unit cell:
           periodic     x           y           z      points  spacing
  1. axis:    yes   16.000000    0.000000    0.000000    80     0.2000
  2. axis:    yes    0.000000   16.000000    0.000000    80     0.2000
  3. axis:    yes    0.000000    0.000000   10.000000    48     0.2083

Effective grid spacing dv^(1/3) = 0.2027

                     log10-error:    total        iterations:
           time      wfs    density  energy       fermi  poisson
iter:   1  14:27:24          +inf  -179.686664    3      5
iter:   2  14:27:25         -2.56  -179.681572    3      1
iter:   3  14:27:25         -2.90  -179.679790    2      1
iter:   4  14:27:26         -3.00  -179.680347    2      1
iter:   5  14:27:26         -3.03  -179.679433    3      2
iter:   6  14:27:27         -2.84  -179.681853    3      1
iter:   7  14:27:28         -2.75  -179.681594    3      1
iter:   8  14:27:28         -2.96  -179.679882    3      1
iter:   9  14:27:29         -3.50  -179.679607    3      1
iter:  10  14:27:29         -3.37  -179.679550    2      1
iter:  11  14:27:30         -3.95  -179.679252    2      1
iter:  12  14:27:30         -3.89  -179.679318    2      1
iter:  13  14:27:31         -3.73  -179.679230    2      1
iter:  14  14:27:31         -4.53  -179.679105    2      1

Converged after 14 iterations.

Dipole moment: (0.013966, 0.201381, 0.062249) |e|*Ang

Energy contributions relative to reference atoms: (reference = -24663.074771)

Kinetic:       +113.685127
Potential:     -119.080673
External:        +0.000000
XC:            -177.049679
Entropy (-ST):   -0.370865
Local:           +2.951551
Free energy:   -179.864538
Extrapolated:  -179.679105

Fermi level: -4.57609

 Band  Eigenvalues  Occupancy
    0    -23.37018    2.00000
    1    -23.13960    2.00000
    2    -22.74630    2.00000
    3    -21.77595    2.00000
    4    -21.08762    2.00000
    5    -20.37392    2.00000
    6    -20.02384    2.00000
    7    -19.19815    2.00000
    8    -19.04341    2.00000
    9    -18.57214    2.00000
   10    -18.04412    2.00000
   11    -17.10739    2.00000
   12    -16.43644    2.00000
   13    -15.64717    2.00000
   14    -15.47529    2.00000
   15    -15.01831    2.00000
   16    -14.41072    2.00000
   17    -13.73761    2.00000
   18    -13.21121    2.00000
   19    -12.92535    2.00000
   20    -12.33894    2.00000
   21    -11.85821    2.00000
   22    -11.53378    2.00000
   23    -10.89237    2.00000
   24    -10.78804    2.00000
   25    -10.66908    2.00000
   26    -10.37197    2.00000
   27    -10.29677    2.00000
   28    -10.27501    2.00000
   29     -9.86333    2.00000
   30     -9.81234    2.00000
   31     -9.76400    2.00000
   32     -9.56128    2.00000
   33     -9.22529    2.00000
   34     -9.17448    2.00000
   35     -8.64733    2.00000
   36     -8.09944    2.00000
   37     -7.68873    2.00000
   38     -6.97126    2.00000
   39     -6.83433    2.00000
   40     -6.50681    2.00000
   41     -6.35016    2.00000
   42     -6.19530    2.00000
   43     -5.52487    1.99985
   44     -5.17206    1.99485
   45     -4.96270    1.95898
   46     -4.72243    1.62408
   47     -4.69019    1.51569
   48     -4.55681    0.90389
   49     -3.91291    0.00263
   50     -3.47348    0.00003
   51     -3.23261    0.00000
   52     -2.82470    0.00000
   53     -2.70509    0.00000
   54     -2.11353    0.00000
   55     -1.98072    0.00000
   56     -1.87938    0.00000
   57     -0.83045    0.00000
   58     -0.03779    0.00000
   59      0.62026    0.00000
[...]
   83      8.52588    0.00000
   84      8.71066    0.00000
   85      8.89767    0.00000
   86      9.10262    0.00000
   87      9.16683    0.00000
   88      9.29945    0.00000
   89      9.35119    0.00000
   90      9.42058    0.00000
   91      9.53115    0.00000
   92      9.77145    0.00000
   93      9.82442    0.00000
   94      9.93987    0.00000
   95     10.10833    0.00000
   96     10.21832    0.00000
   97     10.35952    0.00000

Forces in eV/Ang:
  0 C    -0.03014   -0.04251   -0.01890
  1 C    -0.02277   -0.02415   -0.02841
  2 C     0.05003    0.06516   -0.00745
  3 C    -0.01591    0.00636    0.02712
  4 C    -0.01723   -0.00216    0.01851
  5 C     0.01388    0.03455    0.00676
  6 C    -0.04587    0.03693   -0.03688
  7 C    -0.00172    0.02039    0.00901
  8 C    -0.01915    0.03011    0.00831
  9 C     0.06038   -0.02329    0.00576
 10 C     0.00341    0.05673    0.01679
 11 C     0.03558   -0.00955   -0.01613
 12 C     0.02887   -0.00080   -0.01728
 13 C     0.03425   -0.01478   -0.01775
 14 C     0.00594   -0.00959   -0.00453
 15 C     0.01048    0.02091   -0.00649
 16 C    -0.00457   -0.01944    0.06217
 17 C    -0.00250   -0.00272    0.05913
 18 C    -0.04097   -0.00990   -0.02340
 19 C     0.00350    0.02394    0.02568
 20 C     0.00740    0.02035   -0.03630
 21 C    -0.03489   -0.00381   -0.01955
 22 C    -0.01755   -0.03515    0.06064
 23 C    -0.03972    0.03467   -0.04074