User:   esb@s65n74.grendel.cscaa.dk
Date:   Thu Nov  9 10:02:34 2017
Arch:   x86_64
Pid:    99134
Python: 2.7.13
gpaw:   /home/esb/DFT/gpaw_git/gpaw
_gpaw:  /home/esb/DFT/gpaw_git/build/bin.linux-x86_64-2.7/gpaw-python
ase:    /home/esb/DFT/ase_git/ase (version 3.15.0b1)
numpy:  /comm/swstack/core/python/2.7.13/lib/python2.7/site-packages/numpy (version 1.13.3)
scipy:  /comm/swstack/core/python/2.7.13/lib/python2.7/site-packages/scipy (version 0.19.1)
units:  Angstrom and eV
cores:  16
Extra parameters: {'blacs': True}

Input parameters:
  basis: dzp
  gpts: [80 80 48]
  kpts: [1 1 1]
  maxiter: 99
  mixer: {backend: pulay,
          beta: 0.05,
          method: separate,
          nmaxold: 5,
          weight: 75}
  mode: lcao
  nbands: -50
  occupations: {name: fermi-dirac,
                width: 0.1}
  poissonsolver: {eps: 1e-07,
                  name: fd,
                  nn: 3,
                  relax: GS}
  xc: PBE

System changes: positions, numbers, cell, pbc, initial_charges, initial_magmoms

Initialize ...

C-setup:
  name: Carbon
  id: 4aa54d4b901d75f77cc0ea3eec22967b
  Z: 6
  valence: 4
  core: 2
  charge: 0.0
  file: /home/esb/DFT/gpaw-setups-0.8.7929/C.PBE.gz
  cutoffs: 0.64(comp), 1.14(filt), 1.14(core), lmax=2
  valence states:
                energy  radius
    2s(2.00)   -13.751   0.635
    2p(2.00)    -5.284   0.635
    *s          13.461   0.635
    *p          21.927   0.635
    *d           0.000   0.635

  LCAO basis set for C:
    Name: dzp
    File: /home/esb/DFT/gpaw-setups-0.8.7929/C.dzp.basis.gz
    Number of radial functions: 5
    Number of spherical harmonics: 13
      l=0, rc=5.5469 Bohr: 2s-sz confined orbital
      l=1, rc=6.6719 Bohr: 2p-sz confined orbital
      l=0, rc=3.0312 Bohr: 2s-dz split-valence wave
      l=1, rc=3.7500 Bohr: 2p-dz split-valence wave
      l=2, rc=6.6719 Bohr: d-type Gaussian polarization

Reference energy: -24663.074771

Spin-paired calculation

Occupation numbers:
  Fermi-Dirac: width=0.1000 eV

Convergence criteria:
  Maximum total energy change: 0.0005 eV / electron
  Maximum integral of absolute density change: 0.0001 electrons
  Maximum integral of absolute eigenstate change: 4e-08 eV^2
  Maximum number of iterations: 99

Symmetries present (total): 1

  ( 1  0  0)
  ( 0  1  0)
  ( 0  0  1)

1 k-point (Gamma)
1 k-point in the irreducible part of the Brillouin zone
       k-points in crystal coordinates                weights
   0:     0.00000000    0.00000000    0.00000000          1/1

Wave functions: LCAO
  Diagonalizer: Serial LAPACK
  Atomic Correction: dense with blas
  Datatype: float
  Eigensolver: None

LCAO using direct dense diagonalizer

Densities:
  Coarse grid: 80*80*48 grid
  Fine grid: 160*160*96 grid
  Total Charge: 0.000000

Density mixing:
  Method: separate
  Backend: pulay
  Linear mixing parameter: 0.05
  Mixing with 5 old densities
  Damping of long wave oscillations: 75

Hamiltonian:
  XC and Coulomb potentials evaluated on a 160*160*96 grid
  Using the PBE Exchange-Correlation functional
  Interpolation: tri-quintic (5. degree polynomial)
  Poisson solver: Gauss-Seidel solver with 6 multi-grid levels
    Coarsest grid: 5 x 5 x 3 points
    Stencil: 6*3+1=19 point O(h^6) finite-difference Laplacian
    Max iterations: 1000
    Tolerance: 1.000000e-07

Total number of cores used: 16
Domain decomposition: 2 x 4 x 2

Number of atoms: 24
Number of atomic orbitals: 312
Number of bands in calculation: 98
Bands to converge: occupied states only
Number of valence electrons: 96

... initialized

Initializing position-dependent things.

Density initialized from atomic densities
  /        |                 C  CC                |
 *         |   C C  C  C  C   C                   |
 |         |  C           C C  C                  |
 |         .------------C--------C----------------.
 |        /        C   C         C               /
 |       /        C     C   C                   /
 |      /            C                         /

Positions:
   0 C      6.246617    5.030645    4.722761
   1 C     10.330484    8.046128    4.785565
   2 C      7.701818    5.411454    4.687324
   3 C      8.871358    7.835257    4.977135
   4 C      8.449813    4.162420    4.538570
   5 C      7.380978    3.132898    4.467163
   6 C      9.826776    4.088167    4.471550
   7 C      6.204853    3.584518    4.639373
   8 C     11.567912    5.874886    4.566379
   9 C     11.336729    7.119136    4.604440
  10 C      7.818379    6.867443    4.773497
  11 C      6.109356   10.724318    4.587181
  12 C      5.002496   10.138557    4.764403
  13 C      8.623441   11.367017    4.767283
  14 C      4.036205    9.296221    5.162889
  15 C      7.509525   10.538073    4.552001
  16 C      9.933289   11.799914    4.977087
  17 C      3.574570    8.175864    5.543810
  18 C      8.011976    9.163822    4.624036
  19 C      9.858653   10.421551    5.070145
  20 C      3.560286    6.904203    5.957265
  21 C      7.355364    7.908021    4.524602
  22 C      9.422307    9.084404    4.993991
  23 C      4.059629    5.759108    6.193472

Unit cell:
           periodic     x           y           z      points  spacing
  1. axis:    yes   16.000000    0.000000    0.000000    80     0.2000
  2. axis:    yes    0.000000   16.000000    0.000000    80     0.2000
  3. axis:    yes    0.000000    0.000000   10.000000    48     0.2083

Effective grid spacing dv^(1/3) = 0.2027

                     log10-error:    total        iterations:
           time      wfs    density  energy       fermi  poisson
iter:   1  10:02:36          +inf  -168.241413    2      6
iter:   2  10:02:37         -0.89  -166.569605    3      3
iter:   3  10:02:37         -0.92  -165.139686    2      3
iter:   4  10:02:38         -0.98  -163.708056    32     3
iter:   5  10:02:38         -1.12  -163.227881    3      2
iter:   6  10:02:39         -1.17  -162.618015    35     4
iter:   7  10:02:39         -1.53  -162.648071    3      3
iter:   8  10:02:40         -1.65  -162.580236    3      3
iter:   9  10:02:40         -1.76  -162.554126    3      3
iter:  10  10:02:41         -1.88  -162.540664    3      2
iter:  11  10:02:41         -2.04  -162.527729    3      2
iter:  12  10:02:42         -2.18  -162.519248    3      2
iter:  13  10:02:42         -2.47  -162.513943    3      2
iter:  14  10:02:43         -2.68  -162.511304    3      2
iter:  15  10:02:43         -2.80  -162.509907    2      2
iter:  16  10:02:43         -2.96  -162.499913    2      1
iter:  17  10:02:44         -3.14  -162.498763    3      1
iter:  18  10:02:44         -3.39  -162.508998    2      1
iter:  19  10:02:45         -3.49  -162.510540    2      1
iter:  20  10:02:45         -3.70  -162.506092    2      1
iter:  21  10:02:46         -3.82  -162.511147    2      1
iter:  22  10:02:46         -3.90  -162.511064    2      1
iter:  23  10:02:47         -3.95  -162.509546    2      1
iter:  24  10:02:47         -4.06  -162.510878    2      1

Converged after 24 iterations.

Dipole moment: (-0.059447, 0.700771, -0.199354) |e|*Ang

Energy contributions relative to reference atoms: (reference = -24663.074771)

Kinetic:       +140.877688
Potential:     -132.519821
External:        +0.000000
XC:            -173.680540
Entropy (-ST):   -0.336891
Local:           +2.980240
Free energy:   -162.679324
Extrapolated:  -162.510878

Fermi level: -4.79755

 Band  Eigenvalues  Occupancy
    0    -28.24879    2.00000
    1    -24.68708    2.00000
    2    -23.61553    2.00000
    3    -22.19569    2.00000
    4    -21.31058    2.00000
    5    -20.42681    2.00000
    6    -19.89313    2.00000
    7    -19.06775    2.00000
    8    -18.88670    2.00000
    9    -18.64674    2.00000
   10    -18.26910    2.00000
   11    -17.61352    2.00000
   12    -17.53572    2.00000
   13    -16.05987    2.00000
   14    -15.73896    2.00000
   15    -14.98754    2.00000
   16    -14.75652    2.00000
   17    -14.32935    2.00000
   18    -14.27084    2.00000
   19    -13.86102    2.00000
   20    -13.65093    2.00000
   21    -13.14342    2.00000
   22    -12.94750    2.00000
   23    -11.96567    2.00000
   24    -11.16938    2.00000
   25    -10.93235    2.00000
   26    -10.35565    2.00000
   27    -10.06719    2.00000
   28     -9.91346    2.00000
   29     -9.38816    2.00000
   30     -9.02307    2.00000
   31     -8.95376    2.00000
   32     -8.89608    2.00000
   33     -8.12252    2.00000
   34     -7.98349    2.00000
   35     -7.74538    2.00000
   36     -7.51520    2.00000
   37     -7.24928    2.00000
   38     -6.95947    2.00000
   39     -6.53962    2.00000
   40     -6.38480    2.00000
   41     -6.00821    1.99999
   42     -5.81938    1.99993
   43     -5.52364    1.99860
   44     -5.29491    1.98626
   45     -5.25373    1.97933
   46     -5.08958    1.89767
   47     -4.87992    1.39005
   48     -4.73640    0.70341
   49     -4.41009    0.04068
   50     -4.17787    0.00406
   51     -3.65459    0.00002
   52     -3.30436    0.00000
   53     -3.22411    0.00000
   54     -2.68571    0.00000
   55     -2.33949    0.00000
   56     -1.97699    0.00000
   57     -1.61013    0.00000
   58     -0.61876    0.00000
   59     -0.14692    0.00000
[...]
   83      7.83748    0.00000
   84      8.22009    0.00000
   85      8.53613    0.00000
   86      8.72611    0.00000
   87      8.81992    0.00000
   88      8.93143    0.00000
   89      9.03683    0.00000
   90      9.17805    0.00000
   91      9.28621    0.00000
   92      9.35666    0.00000
   93      9.45096    0.00000
   94      9.68095    0.00000
   95      9.86885    0.00000
   96      9.90657    0.00000
   97     10.01861    0.00000

Forces in eV/Ang:
  0 C     1.17692   -1.00020    0.28508
  1 C    -0.52356   -3.57821   -1.59563
  2 C    -3.40581    2.23170    0.50472
  3 C     1.79622   -9.94516    1.93709
  4 C     1.79469    0.96779   -0.04977
  5 C     1.15426    0.15604   -0.12636
  6 C    -0.39228   -0.73580    0.05695
  7 C    -1.61260    0.24537    0.17401
  8 C     0.63755   -2.65750   -0.15275
  9 C    -1.84273    3.18490    0.48100
 10 C     7.59139  -17.34357    4.15366
 11 C     0.69243    0.47921   -0.28739
 12 C    -0.22289   -0.66166    0.34608
 13 C     0.47182   -0.29227    0.11909
 14 C    -0.02500    0.68371   -0.31352
 15 C    -0.69082   -0.43896    0.84354
 16 C     0.85010    1.64277   -0.33333
 17 C     0.31093   -0.07391    0.21461
 18 C    -4.49039    2.19504   -2.41218
 19 C    -1.29721    1.24696    1.24647
 20 C    -0.55521    1.38772   -0.70093
 21 C    -8.31568   15.71342   -4.91237
 22 C     5.75575    8.69200    0.48761
 23 C     1.14194   -1.86814    0.05082

System changes: positions

[...]

Density initialized from wave functions
  /        |                 C  CC                |
 *         |   C C  C  C  C   C                   |
 |         |  C           C C  C                  |
 |         .------------C--------C----------------.
 |        /        C   C         C               /
 |       /        C     C   C                   /
 |      /            C                         /

[...]

Density initialized from wave functions
  /        |                 C  CC                |
[...]
 |       /        C      C  C                   /
 |      /            C                         /

[...]

Density initialized from wave functions
   /       |                     C                |
  /        |                 C  C                 |
 *         |   C C  C  C  C   C                   |
 |         |  C         C  C   C                  |
 |         .---C---------C--C---C-----------------.
 |        /        C  C       C                  /
 |       /        C      C  C                   /
 |      /            C                         /

[...]

Density initialized from wave functions
   /       |                     C                |
  /        |                 C  C                 |
 *         |   C C  C  C  C   C                   |
 |         |   C        C C    C                  |
 |         .---C---------C--C---C-----------------.
 |        /        C  C       C                  /
 |       /        C      C  C                   /
 |      /            C                         /

[...]

Density initialized from wave functions
  /        |                 C  CC                |
 *         |   C C  C  C  C   C                   |
 |         |   C        C C    C                  |
 |         .----C--------C--C---C-----------------.
 |        /        C  C       C                  /
 |       /        C      C  C                   /
 |      /            C                         /

[...]

Density initialized from wave functions
  /        |                 C  C                 |
 *         |   C C  C  C  C   C                   |
 |         |   C        C C    C                  |
 |         .----C-------C---C---C-----------------.
 |        /        C  C       C                  /
 |       /        C      C  C                   /
 |      /            C                         /

[...]

Density initialized from wave functions
  /        |                 C  C                 |
 *         |   C C  C  C  C   C                   |
 |         |   C        C C    C                  |
 |         .----C-------C---C---C-----------------.
 |        /        C  C       C                  /
 |       /        C      C  C                   /
 |      /            C                         /

[...]

Density initialized from wave functions
  /        |                 C  C                 |
 *         |   C C  C  C  C   C                   |
 |         |   C        C C    C                  |
 |         .----C-------C---C----C----------------.
 |        /        C  C      C                   /
 |       /        C      C  C                   /
 |      /            C                         /

[...]

Density initialized from wave functions
  /        |                 C  C                 |
 *         |   C C  C  C  C   C                   |
 |         |   C        C C    C                  |
 |         .----C-------C---C----C----------------.
 |        /        C  C      C                   /
 |       /        C      C  C                   /
 |      /            C                         /

[...]

Density initialized from wave functions
  /        |                 C  C                 |
 *         |    CC  C  C  C   C                   |
 |         |   C        C C    C                  |
 |         .----C-------C---C----C----------------.
 |        /        C  C      C                   /
 |       /        C      C  C                   /
 |      /            C                         /

[...]

Density initialized from wave functions
  /        |                 C  C                 |
 *         |    CC  C  C  C   C                   |
 |         |   C        C C    C                  |
 |         .----C-------C---C----C----------------.
 |        /        C  C      C                   /
 |       /        C     C   C                   /
 |      /            C                         /

[...]

Density initialized from wave functions
  /        |                 C  C                 |
 *         |    CC  C  C  C   C                   |
 |         |   C        C C    C                  |
 |         .----C-----C-C---C----C----------------.
 |        /        C         C                   /
 |       /        C     C   C                   /
 |      /            C                         /

[...]

Density initialized from wave functions
  /        |                 C  C                 |
 *         |    CC  C  C  C   C C                 |
 |         |   C        C C    C                  |
 |         .----C-----C-C---C----C----------------.
 |        /        C         C                   /
 |       /        C     C   C                   /
 |      /            C                         /

[...]

Density initialized from wave functions
  /        |                 C  C                 |
 *         |     C  C  C  C   C C                 |
 |         |   CC       C C    C                  |
 |         .----C-----C-C---C---C-----------------.
 |        /        C         C                   /
 |       /        C     C   C                   /
 |      /            C                         /

[...]

Density initialized from wave functions
  /        |                 C  C                 |
 *         |     C  C  C  C   C C                 |
 |         |    C       C C    C                  |
 |         .----C-----C-C---C---C-----------------.
 |        /        C       C  C                  /
 |       /         C    C                       /
 |      /            C                         /

[...]

Density initialized from wave functions
  /        |                 C  C                 |
 *         |     C  C  C  C   C C                 |
 |         |    C       C C    C                  |
 |         .----C-----C-C---C---C-----------------.
 |        /        C          C                  /
 |       /         C    C  C                    /
 |      /            C                         /

[...]

Density initialized from wave functions
  /        |                 C   C                |
 *         |     C  C  C  C   C C                 |
 |         |    C       C C    C                  |
 |         .----C-----C-C---C---C-----------------.
 |        /        C         C                   /
 |       /         C    C  C                    /
 |      /            C                         /

[...]

Density initialized from wave functions
  /        |                 C   C                |
 *         |     C  C  C  C   C C                 |
 |         |   CC       C C    C                  |
 |         .----C-----C-C---C---C-----------------.
 |        /        C         C                   /
 |       /         C    C   C                   /
 |      /            C                         /

[...]

Density initialized from wave functions
  /        |                 C   C                |
 *         |     C  C  C  C   C C                 |
 |         |   C        C      C                  |
 |         .----C-----C-C---C---C-----------------.
 |        /        C         C                   /
 |       /         C    C   C                   /
 |      /            C                         /

[...]

Density initialized from wave functions
  /        |                 C   C                |
 *         |     C  C  C  C   C C                 |
 |         |   C        C      C                  |
 |         .----C-------C---C---C-----------------.
 |        /        C  C      C                   /
 |       /         C    C   C                   /
 |      /            C                         /

[...]

Density initialized from wave functions
  /        |                 C   C                |
 *         |     C  C  C  C   C C                 |
 |         |   C        C      C                  |
 |         .----C-------C---C---C-----------------.
 |        /        C  C      C                   /
 |       /         C    C   C                   /
 |      /            C                         /

[...]

Density initialized from wave functions
  /        |                 C   C                |
 *         |     C  C  C  C   C C                 |
 |         |   C        C      C                  |
 |         .----C-------C---C---C-----------------.
 |        /        C  C      C                   /
 |       /         C  C C   C                   /

[...]

Density initialized from wave functions
  /        |           C     C   C                |
 *         |     C  C     C   C C                 |
 |         |   CC       C      C                  |
 |         .----C-------C---C---C-----------------.
 |        /        C  C      C                   /
 |       /         C C  C   C                   /

[...]

Density initialized from wave functions
  /        |           C     C   C                |
 *         |     C  C     C   C C                 |
 |         |    C       C      C                  |
 |         .-----C------C---C---C-----------------.
 |        /        C  C      C                   /
 |       /         C C  C   C                   /

[...]

Density initialized from wave functions
  /        |           C     C   C                |
 *         |     C  C     C   C C                 |
 |         |    C       C     C                   |
 |         .----C-------C---C---C-----------------.
 |        /        C  C      C                   /
 |       /         C C  C   C                   /

[...]

Density initialized from wave functions
  /        |           C     C   C                |
 *         |     C  C     C   C C                 |
 |         |   CC       C      C                  |
 |         .----C-------C---C---C-----------------.
 |        /        C  C      C                   /
 |       /         C C  C   C                   /

[...]

Density initialized from wave functions
  /        |           C     C   C                |
 *         |     C  C     C   C C                 |
 |         |   CC       C      C                  |
 |         .-----C------C---C---C-----------------.
 |        /        C  C      C                   /
 |       /         C C  C   C                   /

[...]

Density initialized from wave functions
  /        |           C     C   C                |
 *         |     C  C     C   C C                 |
 |         |   CC       C      C                  |
 |         .-----C------C---C---C-----------------.
 |        /        C  C       C                  /
 |       /        C  C  C   C                   /

[...]

System changes: positions

Initializing position-dependent things.

Density initialized from wave functions
  /        |           C     C   C                |
 *         |     C  C     C   C C                 |
 |         |   C        C      C                  |
 |         .-----C------C---C---C-----------------.
 |        /        C  C       C                  /
 |       /        C  C  C   C                   /

Positions:
   0 C      6.037156    4.835875    5.059604
   1 C     10.070337    8.038283    4.768030
   2 C      7.391374    5.433092    4.924650
   3 C      9.232526    6.954991    4.875126
   4 C      8.386293    4.321122    4.762408
   5 C      7.508168    3.167029    4.780366
   6 C      9.758766    4.563008    4.622842
   7 C      6.272672    3.404965    4.983794
   8 C     10.258110    5.812817    4.659695
   9 C     11.129461    6.939318    4.514444
  10 C      7.818769    6.799606    4.929050
  11 C      6.066641   10.855181    4.937429
  12 C      4.981337   10.201981    5.075109
  13 C      8.585954   11.502443    4.690005
  14 C      4.121683    9.195132    5.228342
  15 C      7.445549   10.655614    4.817468
  16 C      9.852904   12.101521    4.537077
  17 C      3.829205    7.955058    5.321297
  18 C      7.960730    9.272057    4.841004
  19 C      9.839101   10.679637    4.645992
  20 C      4.210276    6.677545    5.310403
  21 C      7.233866    8.086037    4.922814
  22 C      9.482428    9.316593    4.744503
  23 C      4.929178    5.636626    5.232244

Unit cell:
           periodic     x           y           z      points  spacing
  1. axis:    yes   16.000000    0.000000    0.000000    80     0.2000
  2. axis:    yes    0.000000   16.000000    0.000000    80     0.2000
  3. axis:    yes    0.000000    0.000000   10.000000    48     0.2083

Effective grid spacing dv^(1/3) = 0.2027

                     log10-error:    total        iterations:
           time      wfs    density  energy       fermi  poisson
iter:   1  10:15:26          +inf  -180.487559    2      4
iter:   2  10:15:27         -2.75  -180.486586    2      1
iter:   3  10:15:27         -3.25  -180.486430    2      1
iter:   4  10:15:27         -3.36  -180.486095    2      1
iter:   5  10:15:28         -3.49  -180.486153    2      1
iter:   6  10:15:28         -3.50  -180.485795    2      1
iter:   7  10:15:29         -3.21  -180.486206    2      1
iter:   8  10:15:29         -3.58  -180.486506    2      1
iter:   9  10:15:30         -3.96  -180.486234    2      1
iter:  10  10:15:30         -3.82  -180.486690    2      1
iter:  11  10:15:31         -3.72  -180.486585    2      1
iter:  12  10:15:31         -4.12  -180.486530    2      1

Converged after 12 iterations.

Dipole moment: (-0.325520, -0.059493, 0.093053) |e|*Ang

Energy contributions relative to reference atoms: (reference = -24663.074771)

Kinetic:       +110.837169
Potential:     -118.090290
External:        +0.000000
XC:            -176.076468
Entropy (-ST):   -0.300644
Local:           +2.993381
Free energy:   -180.636852
Extrapolated:  -180.486530

Fermi level: -4.44308

 Band  Eigenvalues  Occupancy
    0    -23.44557    2.00000
    1    -23.06098    2.00000
    2    -22.02385    2.00000
    3    -20.91984    2.00000
    4    -20.47760    2.00000
    5    -20.04211    2.00000
    6    -19.94704    2.00000
    7    -19.13018    2.00000
    8    -19.04035    2.00000
    9    -18.00044    2.00000
   10    -17.41196    2.00000
   11    -17.32388    2.00000
   12    -16.15148    2.00000
   13    -15.96897    2.00000
   14    -15.80938    2.00000
   15    -14.47772    2.00000
   16    -14.27126    2.00000
   17    -14.02856    2.00000
   18    -13.15083    2.00000
   19    -12.92347    2.00000
   20    -12.63923    2.00000
   21    -12.17350    2.00000
   22    -11.42521    2.00000
   23    -11.17041    2.00000
   24    -10.76569    2.00000
   25    -10.40494    2.00000
   26    -10.23313    2.00000
   27    -10.04431    2.00000
   28     -9.98346    2.00000
   29     -9.77106    2.00000
   30     -9.52201    2.00000
   31     -9.33217    2.00000
   32     -8.97040    2.00000
   33     -8.90613    2.00000
   34     -8.66167    2.00000
   35     -8.23467    2.00000
   36     -8.13946    2.00000
   37     -7.37702    2.00000
   38     -7.17869    2.00000
   39     -6.90480    2.00000
   40     -6.61803    2.00000
   41     -6.05795    2.00000
   42     -5.59162    1.99998
   43     -5.54026    1.99997
   44     -5.37974    1.99983
   45     -4.95144    1.98768
   46     -4.83808    1.96222
   47     -4.48351    1.19947
   48     -4.41214    0.84653
   49     -3.81671    0.00380
   50     -3.60179    0.00044
   51     -3.43720    0.00009
   52     -2.93694    0.00000
   53     -2.69436    0.00000
   54     -1.63341    0.00000
   55     -1.30533    0.00000
   56     -0.50576    0.00000
   57     -0.49456    0.00000
   58     -0.08770    0.00000
   59      0.42599    0.00000
[...]
   83      8.78854    0.00000
   84      8.91453    0.00000
   85      9.00872    0.00000
   86      9.16774    0.00000
   87      9.41351    0.00000
   88      9.42475    0.00000
   89      9.64491    0.00000
   90      9.69484    0.00000
   91      9.79746    0.00000
   92      9.82909    0.00000
   93     10.04391    0.00000
   94     10.18178    0.00000
   95     10.21795    0.00000
   96     10.26132    0.00000
   97     10.38149    0.00000

Forces in eV/Ang:
  0 C     0.04681   -0.04158    0.03461
  1 C     0.02721   -0.00658   -0.03441
  2 C     0.00579   -0.00993   -0.02391
  3 C    -0.00940    0.06441   -0.03535
  4 C     0.03022   -0.04041   -0.00836
  5 C     0.04673   -0.03796    0.02453
  6 C     0.00752    0.03075    0.04226
  7 C     0.01630   -0.07053   -0.00064
  8 C    -0.02903    0.01934    0.03575
  9 C    -0.07477    0.00094   -0.01434
 10 C     0.02696   -0.00459    0.05451
 11 C     0.01875    0.02921    0.00698
 12 C     0.00554    0.06265    0.03058
 13 C    -0.02359    0.01002   -0.00557
 14 C     0.03082    0.01155    0.00250
 15 C    -0.00203    0.02592    0.02293
 16 C     0.00524    0.04465    0.00536
 17 C     0.03358    0.04242   -0.02209
 18 C     0.00629    0.02016    0.02639
 19 C    -0.04917   -0.04041   -0.00448
 20 C    -0.08416   -0.00761    0.01840
 21 C     0.04700    0.02930   -0.01258
 22 C    -0.01006   -0.06705   -0.02978
 23 C    -0.06275    0.01039   -0.07689