User:   esb@s65n64.grendel.cscaa.dk
Date:   Wed Nov  8 14:13:00 2017
Arch:   x86_64
Pid:    80090
Python: 2.7.13
gpaw:   /home/esb/DFT/gpaw_git/gpaw
_gpaw:  /home/esb/DFT/gpaw_git/build/bin.linux-x86_64-2.7/gpaw-python
ase:    /home/esb/DFT/ase_git/ase (version 3.15.0b1)
numpy:  /comm/swstack/core/python/2.7.13/lib/python2.7/site-packages/numpy (version 1.13.3)
scipy:  /comm/swstack/core/python/2.7.13/lib/python2.7/site-packages/scipy (version 0.19.1)
units:  Angstrom and eV
cores:  16
Extra parameters: {'blacs': True}

Input parameters:
  basis: dzp
  gpts: [80 80 48]
  kpts: [1 1 1]
  maxiter: 99
  mixer: {backend: pulay,
          beta: 0.05,
          method: separate,
          nmaxold: 5,
          weight: 75}
  mode: lcao
  nbands: -50
  occupations: {name: fermi-dirac,
                width: 0.1}
  poissonsolver: {eps: 1e-07,
                  name: fd,
                  nn: 3,
                  relax: GS}
  xc: PBE

System changes: positions, numbers, cell, pbc, initial_charges, initial_magmoms

Initialize ...

C-setup:
  name: Carbon
  id: 4aa54d4b901d75f77cc0ea3eec22967b
  Z: 6
  valence: 4
  core: 2
  charge: 0.0
  file: /home/esb/DFT/gpaw-setups-0.8.7929/C.PBE.gz
  cutoffs: 0.64(comp), 1.14(filt), 1.14(core), lmax=2
  valence states:
                energy  radius
    2s(2.00)   -13.751   0.635
    2p(2.00)    -5.284   0.635
    *s          13.461   0.635
    *p          21.927   0.635
    *d           0.000   0.635

  LCAO basis set for C:
    Name: dzp
    File: /home/esb/DFT/gpaw-setups-0.8.7929/C.dzp.basis.gz
    Number of radial functions: 5
    Number of spherical harmonics: 13
      l=0, rc=5.5469 Bohr: 2s-sz confined orbital
      l=1, rc=6.6719 Bohr: 2p-sz confined orbital
      l=0, rc=3.0312 Bohr: 2s-dz split-valence wave
      l=1, rc=3.7500 Bohr: 2p-dz split-valence wave
      l=2, rc=6.6719 Bohr: d-type Gaussian polarization

Reference energy: -24663.074771

Spin-paired calculation

Occupation numbers:
  Fermi-Dirac: width=0.1000 eV

Convergence criteria:
  Maximum total energy change: 0.0005 eV / electron
  Maximum integral of absolute density change: 0.0001 electrons
  Maximum integral of absolute eigenstate change: 4e-08 eV^2
  Maximum number of iterations: 99

Symmetries present (total): 1

  ( 1  0  0)
  ( 0  1  0)
  ( 0  0  1)

1 k-point (Gamma)
1 k-point in the irreducible part of the Brillouin zone
       k-points in crystal coordinates                weights
   0:     0.00000000    0.00000000    0.00000000          1/1

Wave functions: LCAO
  Diagonalizer: Serial LAPACK
  Atomic Correction: dense with blas
  Datatype: float
  Eigensolver: None

LCAO using direct dense diagonalizer

Densities:
  Coarse grid: 80*80*48 grid
  Fine grid: 160*160*96 grid
  Total Charge: 0.000000

Density mixing:
  Method: separate
  Backend: pulay
  Linear mixing parameter: 0.05
  Mixing with 5 old densities
  Damping of long wave oscillations: 75

Hamiltonian:
  XC and Coulomb potentials evaluated on a 160*160*96 grid
  Using the PBE Exchange-Correlation functional
  Interpolation: tri-quintic (5. degree polynomial)
  Poisson solver: Gauss-Seidel solver with 6 multi-grid levels
    Coarsest grid: 5 x 5 x 3 points
    Stencil: 6*3+1=19 point O(h^6) finite-difference Laplacian
    Max iterations: 1000
    Tolerance: 1.000000e-07

Total number of cores used: 16
Domain decomposition: 2 x 4 x 2

Number of atoms: 24
Number of atomic orbitals: 312
Number of bands in calculation: 98
Bands to converge: occupied states only
Number of valence electrons: 96

... initialized

Initializing position-dependent things.

Density initialized from atomic densities
  /        |        C C          C                |
 *         |             C  C   C                 |
 |         |         C C  C       C               |
 |         .---CC--C---------C-C---C--------------.
 |        /         C C    C                     /
 |       /            C      C                  /

Positions:
   0 C      6.153914   10.074851    5.605881
   1 C     11.958561    7.235843    4.829316
   2 C      6.476349    6.641864    5.458125
   3 C      7.615203    4.375200    4.775445
   4 C      8.372706    6.843131    5.367507
   5 C      6.441684    5.014457    4.974388
   6 C      6.848147   11.488509    4.412143
   7 C      5.576066    6.592150    4.544647
   8 C      4.938239    5.392791    5.251203
   9 C     11.271095    9.612577    4.559146
  10 C     10.097358    9.991380    4.855971
  11 C      9.033431    8.746441    5.031994
  12 C     10.327123    4.928528    4.356307
  13 C     10.707258    6.624182    4.816461
  14 C      9.762734    6.956396    4.295487
  15 C      9.952364   11.228380    4.482118
  16 C      6.842290    6.390359    4.433457
  17 C      3.615501    8.122519    4.446510
  18 C      7.990078    8.921108    4.586773
  19 C      6.871443    7.747878    4.796411
  20 C      8.636116    9.888565    4.733251
  21 C      9.446179    4.139125    5.444349
  22 C     10.720795    9.821289    5.706419
  23 C      5.055048   10.667497    5.416739

Unit cell:
           periodic     x           y           z      points  spacing
  1. axis:    yes   16.000000    0.000000    0.000000    80     0.2000
  2. axis:    yes    0.000000   16.000000    0.000000    80     0.2000
  3. axis:    yes    0.000000    0.000000   10.000000    48     0.2083

Effective grid spacing dv^(1/3) = 0.2027

                     log10-error:    total        iterations:
           time      wfs    density  energy       fermi  poisson
iter:   1  14:13:02          +inf  -117.978869    2      6
iter:   2  14:13:03         -0.79  -113.033449    3      3
iter:   3  14:13:04         -0.85  -111.421726    33     3
iter:   4  14:13:04         -0.84  -109.176015    4      2
iter:   5  14:13:05         -0.91  -107.821595    4      3
iter:   6  14:13:05         -1.03  -107.130829    3      3
iter:   7  14:13:06         -1.11  -106.325963    4      3
iter:   8  14:13:06         -1.27  -106.014929    4      3
iter:   9  14:13:07         -1.52  -105.974721    3      3
iter:  10  14:13:07         -1.71  -105.940678    3      3
iter:  11  14:13:08         -1.85  -105.945851    3      2
iter:  12  14:13:08         -1.87  -105.922061    3      2
iter:  13  14:13:09         -2.02  -105.912626    3      2
iter:  14  14:13:09         -2.21  -105.908320    3      2
iter:  15  14:13:10         -2.36  -105.904650    3      2
iter:  16  14:13:10         -2.63  -105.904145    3      2
iter:  17  14:13:11         -2.82  -105.904537    2      1
iter:  18  14:13:11         -2.88  -105.903338    2      2
iter:  19  14:13:12         -3.02  -105.903118    2      1
iter:  20  14:13:12         -3.13  -105.902493    2      1
iter:  21  14:13:13         -3.21  -105.901493    2      1
iter:  22  14:13:13         -3.36  -105.902124    2      1
iter:  23  14:13:14         -3.44  -105.901770    2      1
iter:  24  14:13:14         -3.53  -105.902237    2      1
iter:  25  14:13:15         -3.66  -105.901839    2      1
iter:  26  14:13:15         -3.90  -105.902854    2      1
iter:  27  14:13:16         -4.02  -105.903074    2      1

Converged after 27 iterations.

Dipole moment: (-0.285962, -0.038711, -0.283913) |e|*Ang

Energy contributions relative to reference atoms: (reference = -24663.074771)

Kinetic:       +293.322948
Potential:     -227.039875
External:        +0.000000
XC:            -174.705474
Entropy (-ST):   -0.516620
Local:           +2.777637
Free energy:   -106.161384
Extrapolated:  -105.903074

Fermi level: -4.84351

 Band  Eigenvalues  Occupancy
    0    -31.76239    2.00000
    1    -30.12641    2.00000
    2    -27.98170    2.00000
    3    -23.53742    2.00000
    4    -22.46212    2.00000
    5    -21.50730    2.00000
    6    -20.72537    2.00000
    7    -19.03486    2.00000
    8    -18.74965    2.00000
    9    -18.04658    2.00000
   10    -17.31987    2.00000
   11    -16.88124    2.00000
   12    -16.55053    2.00000
   13    -16.05228    2.00000
   14    -15.75148    2.00000
   15    -14.98603    2.00000
   16    -14.15974    2.00000
   17    -13.98559    2.00000
   18    -13.47318    2.00000
   19    -13.20019    2.00000
   20    -12.92707    2.00000
   21    -12.37693    2.00000
   22    -11.66729    2.00000
   23    -10.87652    2.00000
   24    -10.76266    2.00000
   25    -10.19914    2.00000
   26     -9.96519    2.00000
   27     -9.59589    2.00000
   28     -8.97834    2.00000
   29     -8.78834    2.00000
   30     -8.59805    2.00000
   31     -8.39495    2.00000
   32     -7.94553    2.00000
   33     -7.79794    2.00000
   34     -7.68727    2.00000
   35     -7.46713    2.00000
   36     -7.29983    2.00000
   37     -7.04686    2.00000
   38     -6.91670    2.00000
   39     -6.46911    2.00000
   40     -6.38204    2.00000
   41     -6.21557    2.00000
   42     -6.01764    1.99998
   43     -5.70683    1.99964
   44     -5.58544    1.99880
   45     -5.46162    1.99587
   46     -4.98820    1.61905
   47     -4.90246    1.28654
   48     -4.74581    0.54700
   49     -4.69415    0.36677
   50     -4.60102    0.16259
   51     -4.33715    0.01257
   52     -4.28051    0.00715
   53     -4.17246    0.00243
   54     -4.12552    0.00152
   55     -3.81425    0.00007
   56     -3.51862    0.00000
   57     -3.23574    0.00000
   58     -3.09707    0.00000
   59     -2.82339    0.00000
[...]
   83      6.40018    0.00000
   84      6.90840    0.00000
   85      7.24210    0.00000
   86      7.49379    0.00000
   87      7.84964    0.00000
   88      8.14057    0.00000
   89      8.38735    0.00000
   90      8.57963    0.00000
   91      8.72670    0.00000
   92      8.94459    0.00000
   93      9.10064    0.00000
   94      9.12641    0.00000
   95      9.44134    0.00000
   96      9.51977    0.00000
   97      9.64277    0.00000

Forces in eV/Ang:
  0 C     4.84261    0.77825   -1.16700
  1 C     0.32323    1.07539    0.34607
  2 C    -5.30947    6.51318   39.08589
  3 C     3.01569   -1.84730    0.82179
  4 C     2.74895    0.08752   -0.18336
  5 C     1.22904   -5.85693    1.05098
  6 C    -1.75413   -3.07577    3.00281
  7 C   -20.70919    1.42052   -8.09799
  8 C     2.07112    0.27125   -0.69527
  9 C    14.98623   -5.80511   -4.71577
 10 C   -28.67758    8.77819  -24.44721
 11 C    19.02723  -17.74929    9.59041
 12 C    -2.27593   -0.88110    3.82479
 13 C    19.84076   -8.94088    8.78711
 14 C   -22.14262    7.16026   -7.65298
 15 C    -2.74572    6.94763   -3.75171
 16 C    15.96510  -10.71536  -30.78670
 17 C     1.89287   -0.36672    0.21970
 18 C   -29.33606  -12.82466   -9.01596
 19 C     6.79214   11.72957   -1.64693
 20 C    -0.23194   25.40680   -2.45838
 21 C    -1.24495    3.55223   -4.76838
 22 C    25.38791   -7.61087   34.24156
 23 C    -3.50347    1.94255   -1.51164

System changes: positions

[...]

Density initialized from wave functions
  /        |        C C          C                |
 *         |             C  CC  C                 |
 |         |         C C  C        C              |
 |         .---CC--C-----------C---C--------------.
 |        /         C C    C C                   /
 |       /            C      C                  /

[...]

Density initialized from wave functions
[...]
 |         |      C       C  C     C              |
 |         .------C----C-C---C--C-----------------.
 |        /          C  C     C                  /
 |       /          C      C                    /

[...]

Density initialized from wave functions
  /        |      C  C                            |
 *         |        C   C  C  C C  C              |
 |         |      C       C  C     C              |
 |         .------C----C-C---C--C-----------------.
 |        /          C  C     C                  /
 |       /          C      C                    /

[...]

Density initialized from wave functions
  /        |      C  C                            |
 *         |        C   C  C  C C  C              |
 |         |      C       C  C     CC             |
 |         .------C----C-C---C-C------------------.
 |        /          C  C     C                  /
 |       /          C      C                    /

[...]

Density initialized from wave functions
  /        |      C  C                            |
 *         |        C   C  C  C C  C              |
 |         |      C       C  C     CC             |
 |         .-----CC----C-C---C-C------------------.
 |        /          C  C     C                  /
 |       /          C      C                    /

[...]

Density initialized from wave functions
  /        |      C  C                            |
 *         |        C   C  C  C C  C              |
 |         |      C    C  C  C     CC             |
 |         .-----CC------C---C-C------------------.
 |        /          C  C     C                  /
 |       /          C      C                    /

[...]

Density initialized from wave functions
  /        |      C  C                            |
 *         |        C   C  C  C C  C              |
 |         |      C    C  C  C     CC             |
 |         .-----CC------C---C-C------------------.
 |        /          C  C     C                  /
 |       /          C      C                    /

[...]

Density initialized from wave functions
  /        |      C  C                            |
 *         |        C   C  C  C C  C              |
 |         |      C    C  C  C     CC             |
 |         .-----C-------C---C-C------------------.
 |        /       C  C  C  C  C                  /
 |       /          C                           /

[...]

Density initialized from wave functions
  /        |      C  C                            |
 *         |        C   C  C  C C  C              |
 |         |     C     C  C  C     CC             |
 |         .-----C-------C-----C------------------.
 |        /       C  C  C  C  C                  /
 |       /           C                          /

[...]

Density initialized from wave functions
  /        |      C  C                            |
 *         |        C   C  C  C C  C              |
 |         |     C     C  C  C     CC             |
 |         .-----C-------C-----C------------------.
 |        /       C C   C C   C                  /
 |       /          C                           /

[...]

Density initialized from wave functions
  /        |      C  C  C                         |
 *         |        C      C  C C  C              |
 |         |     C     C  C  C     CC             |
 |         .-----C-------C-----C------------------.
 |        /       C C   C C   C                  /
 |       /          C                           /

[...]

Density initialized from wave functions
  /        |     C   C  C                         |
 *         |        C      C  C C  C              |
 |         |     C     C  C  C     CC             |
 |         .-----C-------C-----C------------------.
 |        /       C C   C C  C                   /
 |       /          C                           /

[...]

Density initialized from wave functions
  /        |     C   C  C                         |
 *         |        C      C  C C  C              |
 |         |     C     C  C  C     CC             |
 |         .-----CC------C-----C------------------.
 |        /         C   C C  C                   /
 |       /          C                           /

[...]

Density initialized from wave functions
  /        |     C   C  C                         |
 *         |     C  C      C  C C  C              |
 |         |           C  C  C     CC             |
 |         .-----CC------C-----C------------------.
 |        /         C   C C  C                   /
 |       /          C                           /

[...]

Density initialized from wave functions
  /        |         C  C                         |
 *         |     C  C      C  C C  C              |
 |         |           C  C  C     CC             |
 |         .-----CC------C-----C------------------.
 |        /         C   C C  C                   /
 |       /          C                           /

[...]

Density initialized from wave functions
  /        |            C                         |
 *         |     C  CC     C  C C  C              |
 |         |           C  C  C     CC             |
 |         .-----CC------C-----C------------------.
 |        /         C   C C  C                   /
 |       /          C                           /

[...]

Density initialized from wave functions
  /        |            C                         |
 *         |      C CC     C  C C  C              |
 |         |           C  C  C     CC             |
 |         .-----CC------C-----C------------------.
 |        /         C   C C  C                   /
 |       /          C                           /

[...]

Density initialized from wave functions
  /        |            C                         |
 *         |      C  C     C  C C  C              |
 |         |        C  C  C  C     CC             |
 |         .-----CC------C-----C------------------.
 |        /         C   C C  C                   /
 |       /          C                           /

[...]

Density initialized from wave functions
  /        |            C                         |
 *         |      C  C     C  C C  C              |
 |         |        C  C  C  C     CC             |
 |         .-----CC------C-----C------------------.
 |        /         C   C C  C                   /
 |       /          C                           /

[...]

Density initialized from wave functions
  /        |            C                         |
 *         |      C  C     C  C C  C              |
 |         |      C C  C  C  C     CC             |
 |         .-----CC------C-----C------------------.
 |        /         C   C C  C                   /
 |       /          C                           /

[...]

Density initialized from wave functions
  /        |            C                         |
 *         |      C  C     C  C C  C              |
 |         |      C C  C  C  C     CC             |
 |         .-----CC------C-----C------------------.
 |        /         C   C C  C                   /
 |       /          C                           /

[...]

Density initialized from wave functions
  /        |            C                         |
 *         |      C  C     C  C C  C              |
 |         |      C C  C  C  C     CC             |
 |         .-----CC------C-----C------------------.
 |        /         C   C C  C                   /

[...]

Density initialized from wave functions
  /        |            C                         |
 *         |      C  C     C  C C  C              |
 |         |      C C  C  C  C     CC             |
 |         .-----CC------C-----C------------------.
 |        /         C   C C  C                   /

[...]

Density initialized from wave functions
  /        |         C  C                         |
 *         |      C        C  C C  C              |
 |         |      C C  C  C  C     CC             |
 |         .-----CC------C-----C------------------.
 |        /         C   C    C                   /
 |       /                C                     /

[...]

Density initialized from wave functions
  /        |         C  C                         |
 *         |      C        C  C C  C              |
 |         |      C C     C  C     CC             |
 |         .-----CC----C-C-----C------------------.
 |        /         C   C    C                   /
 |       /                C                     /

[...]

Density initialized from wave functions
  /        |         C  C                         |
 *         |      C        C  C C  C              |
 |         |      C C  C  C  C     CC             |
 |         .-----CC------C-----C------------------.
 |        /         C   C    C                   /
 |       /                C                     /

[...]

Density initialized from wave functions
  /        |         C  C                         |
 *         |      C C      C  C C  C              |
 |         |      C    C  C  C     CC             |
 |         .-----CC------C---C-C------------------.
 |        /         C   C    C                   /
 |       /                C                     /

[...]

Density initialized from wave functions
  /        |         C  C                         |
 *         |      C        C  C C  C              |
 |         |      C C  C  C  C     CC             |
 |         .-----CC------C---C-C------------------.
 |        /         C   C C  C                   /

[...]

Density initialized from wave functions
  /        |         C  C                         |
 *         |      C        C  C C  C              |
 |         |      C C  C  C  C     CC             |
 |         .-----CC------C---C-C------------------.
 |        /         C   C C  C                   /

[...]

Density initialized from wave functions
  /        |         C  C     C                   |
 *         |      C        C    C  C              |
 |         |      C C  C  C  C     CC             |
 |         .-----CC------C---C-C------------------.
 |        /         C   C C  C                   /

[...]

Density initialized from wave functions
  /        |         C  C     C                   |
 *         |      C        C    C  C              |
 |         |      C C  C  C  C     CC             |
 |         .-----CC------C---C-C------------------.
 |        /         C   C C  C                   /

[...]

Density initialized from wave functions
  /        |         C  C     C                   |
 *         |      C        C    C  C              |
 |         |      C C  C  C  C      C             |
 |         .-----CC------C---C-C---C--------------.
 |        /         C   C C  C                   /

[...]

System changes: positions

Initializing position-dependent things.

Density initialized from wave functions
  /        |         C  C     C                   |
 *         |      C        C    C  C              |
 |         |      C C  C  C  C      C             |
 |         .-----CC------C---C-C---C--------------.
 |        /         C   C C  C                   /

Positions:
   0 C      5.456213   10.433322    5.077592
   1 C     12.064704    7.009948    5.090786
   2 C      5.945653    7.408359    5.690607
   3 C      7.976040    5.286059    4.767983
   4 C      8.324622    6.625510    4.969951
   5 C      6.542179    5.285819    4.384965
   6 C      6.612482   10.907152    4.779063
   7 C      4.761659    6.879339    4.508748
   8 C      5.564648    5.936087    5.296974
   9 C     12.027224    8.314764    5.034292
  10 C     10.200646    9.828596    4.916491
  11 C      9.381889    8.589747    4.859864
  12 C     10.351991    4.966336    4.940739
  13 C     10.814364    6.323872    5.012344
  14 C      9.628146    7.171908    5.001978
  15 C      9.242723   10.874408    4.785717
  16 C      6.173700    6.615899    3.877040
  17 C      4.712895    8.149683    5.275256
  18 C      8.008354    8.889651    4.693992
  19 C      7.234121    7.644537    4.809608
  20 C      7.910171   10.371894    4.735445
  21 C      9.171731    4.515423    4.816799
  22 C     11.575147    9.549582    5.005885
  23 C      4.574548    9.445945    4.913698

Unit cell:
           periodic     x           y           z      points  spacing
  1. axis:    yes   16.000000    0.000000    0.000000    80     0.2000
  2. axis:    yes    0.000000   16.000000    0.000000    80     0.2000
  3. axis:    yes    0.000000    0.000000   10.000000    48     0.2083

Effective grid spacing dv^(1/3) = 0.2027

                     log10-error:    total        iterations:
           time      wfs    density  energy       fermi  poisson
iter:   1  14:30:50          +inf  -180.754340    2      4
iter:   2  14:30:50         -2.93  -180.752874    2      1
iter:   3  14:30:51         -3.16  -180.751733    2      1
iter:   4  14:30:51         -3.37  -180.751895    2      1
iter:   5  14:30:51         -3.51  -180.751713    2      1
iter:   6  14:30:52         -3.63  -180.751975    2      1
iter:   7  14:30:52         -3.83  -180.751607    2      1
iter:   8  14:30:53         -3.87  -180.750849    2      1
iter:   9  14:30:53         -3.72  -180.751170    2      1
iter:  10  14:30:54         -4.35  -180.751192    2      1

Converged after 10 iterations.

Dipole moment: (-0.299051, -0.295874, 0.104277) |e|*Ang

Energy contributions relative to reference atoms: (reference = -24663.074771)

Kinetic:       +116.629541
Potential:     -120.344546
External:        +0.000000
XC:            -179.872460
Entropy (-ST):   -0.226164
Local:           +2.949354
Free energy:   -180.864274
Extrapolated:  -180.751192

Fermi level: -4.27227

 Band  Eigenvalues  Occupancy
    0    -26.14075    2.00000
    1    -22.88241    2.00000
    2    -21.89230    2.00000
    3    -21.15293    2.00000
    4    -20.83366    2.00000
    5    -20.22213    2.00000
    6    -19.62765    2.00000
    7    -19.39721    2.00000
    8    -18.55369    2.00000
    9    -17.84308    2.00000
   10    -17.55542    2.00000
   11    -17.03225    2.00000
   12    -16.10884    2.00000
   13    -15.76054    2.00000
   14    -15.25720    2.00000
   15    -14.84075    2.00000
   16    -14.41428    2.00000
   17    -13.90337    2.00000
   18    -13.46362    2.00000
   19    -12.99555    2.00000
   20    -12.54117    2.00000
   21    -11.94483    2.00000
   22    -11.75862    2.00000
   23    -11.37014    2.00000
   24    -11.23575    2.00000
   25    -10.69054    2.00000
   26    -10.48981    2.00000
   27    -10.39174    2.00000
   28    -10.01787    2.00000
   29     -9.73165    2.00000
   30     -9.60523    2.00000
   31     -9.32452    2.00000
   32     -9.09643    2.00000
   33     -8.85442    2.00000
   34     -8.59613    2.00000
   35     -8.43820    2.00000
   36     -7.96833    2.00000
   37     -7.65738    2.00000
   38     -7.17642    2.00000
   39     -7.01669    2.00000
   40     -6.80034    2.00000
   41     -6.32061    2.00000
   42     -6.24649    2.00000
   43     -5.72778    2.00000
   44     -5.38570    1.99997
   45     -5.06849    1.99930
   46     -4.87617    1.99524
   47     -4.39680    1.55295
   48     -4.14332    0.43187
   49     -3.81580    0.02061
   50     -3.22293    0.00006
   51     -2.75973    0.00000
   52     -2.68018    0.00000
   53     -2.14849    0.00000
   54     -1.70748    0.00000
   55     -1.54425    0.00000
   56     -1.44847    0.00000
   57     -1.10330    0.00000
   58     -1.01691    0.00000
   59      0.40073    0.00000
[...]
   83      8.39941    0.00000
   84      8.73731    0.00000
   85      8.91667    0.00000
   86      9.00951    0.00000
   87      9.11438    0.00000
   88      9.23788    0.00000
   89      9.35147    0.00000
   90      9.43960    0.00000
   91      9.45610    0.00000
   92      9.58288    0.00000
   93      9.74982    0.00000
   94      9.81610    0.00000
   95     10.06766    0.00000
   96     10.16214    0.00000
   97     10.28456    0.00000

Forces in eV/Ang:
  0 C     0.03150   -0.00175   -0.01039
  1 C    -0.02817    0.00481   -0.00444
  2 C    -0.04459    0.03853    0.02785
  3 C    -0.01870   -0.03757    0.01076
  4 C     0.01237   -0.00535   -0.01119
  5 C    -0.03098   -0.00179    0.01782
  6 C     0.00347    0.03154    0.01002
  7 C    -0.02858    0.00529   -0.00659
  8 C    -0.02762   -0.01844   -0.00265
  9 C     0.01737    0.00727   -0.05003
 10 C    -0.01347    0.02519   -0.01556
 11 C     0.01497    0.00107    0.00526
 12 C     0.00860   -0.02405    0.03235
 13 C     0.00310   -0.02581    0.00924
 14 C    -0.02289    0.00774   -0.03041
 15 C     0.00617    0.04640    0.02525
 16 C    -0.02827   -0.01056   -0.06048
 17 C     0.03937   -0.04483    0.02569
 18 C    -0.02665   -0.00359   -0.01294
 19 C     0.03169    0.00191   -0.00200
 20 C     0.02280    0.01517    0.05708
 21 C     0.00025   -0.05669    0.00445
 22 C     0.02746    0.01204    0.02453
 23 C    -0.05843   -0.00822   -0.01615