User:   esb@s65n31.grendel.cscaa.dk
Date:   Wed Nov  8 17:12:57 2017
Arch:   x86_64
Pid:    7262
Python: 2.7.13
gpaw:   /home/esb/DFT/gpaw_git/gpaw
_gpaw:  /home/esb/DFT/gpaw_git/build/bin.linux-x86_64-2.7/gpaw-python
ase:    /home/esb/DFT/ase_git/ase (version 3.15.0b1)
numpy:  /comm/swstack/core/python/2.7.13/lib/python2.7/site-packages/numpy (version 1.13.3)
scipy:  /comm/swstack/core/python/2.7.13/lib/python2.7/site-packages/scipy (version 0.19.1)
units:  Angstrom and eV
cores:  16
Extra parameters: {'blacs': True}

Input parameters:
  basis: dzp
  gpts: [80 80 48]
  kpts: [1 1 1]
  maxiter: 99
  mixer: {backend: pulay,
          beta: 0.05,
          method: separate,
          nmaxold: 5,
          weight: 75}
  mode: lcao
  nbands: -50
  occupations: {name: fermi-dirac,
                width: 0.1}
  poissonsolver: {eps: 1e-07,
                  name: fd,
                  nn: 3,
                  relax: GS}
  xc: PBE

System changes: positions, numbers, cell, pbc, initial_charges, initial_magmoms

Initialize ...

C-setup:
  name: Carbon
  id: 4aa54d4b901d75f77cc0ea3eec22967b
  Z: 6
  valence: 4
  core: 2
  charge: 0.0
  file: /home/esb/DFT/gpaw-setups-0.8.7929/C.PBE.gz
  cutoffs: 0.64(comp), 1.14(filt), 1.14(core), lmax=2
  valence states:
                energy  radius
    2s(2.00)   -13.751   0.635
    2p(2.00)    -5.284   0.635
    *s          13.461   0.635
    *p          21.927   0.635
    *d           0.000   0.635

  LCAO basis set for C:
    Name: dzp
    File: /home/esb/DFT/gpaw-setups-0.8.7929/C.dzp.basis.gz
    Number of radial functions: 5
    Number of spherical harmonics: 13
      l=0, rc=5.5469 Bohr: 2s-sz confined orbital
      l=1, rc=6.6719 Bohr: 2p-sz confined orbital
      l=0, rc=3.0312 Bohr: 2s-dz split-valence wave
      l=1, rc=3.7500 Bohr: 2p-dz split-valence wave
      l=2, rc=6.6719 Bohr: d-type Gaussian polarization

Reference energy: -24663.074771

Spin-paired calculation

Occupation numbers:
  Fermi-Dirac: width=0.1000 eV

Convergence criteria:
  Maximum total energy change: 0.0005 eV / electron
  Maximum integral of absolute density change: 0.0001 electrons
  Maximum integral of absolute eigenstate change: 4e-08 eV^2
  Maximum number of iterations: 99

Symmetries present (total): 1

  ( 1  0  0)
  ( 0  1  0)
  ( 0  0  1)

1 k-point (Gamma)
1 k-point in the irreducible part of the Brillouin zone
       k-points in crystal coordinates                weights
   0:     0.00000000    0.00000000    0.00000000          1/1

Wave functions: LCAO
  Diagonalizer: Serial LAPACK
  Atomic Correction: dense with blas
  Datatype: float
  Eigensolver: None

LCAO using direct dense diagonalizer

Densities:
  Coarse grid: 80*80*48 grid
  Fine grid: 160*160*96 grid
  Total Charge: 0.000000

Density mixing:
  Method: separate
  Backend: pulay
  Linear mixing parameter: 0.05
  Mixing with 5 old densities
  Damping of long wave oscillations: 75

Hamiltonian:
  XC and Coulomb potentials evaluated on a 160*160*96 grid
  Using the PBE Exchange-Correlation functional
  Interpolation: tri-quintic (5. degree polynomial)
  Poisson solver: Gauss-Seidel solver with 6 multi-grid levels
    Coarsest grid: 5 x 5 x 3 points
    Stencil: 6*3+1=19 point O(h^6) finite-difference Laplacian
    Max iterations: 1000
    Tolerance: 1.000000e-07

Total number of cores used: 16
Domain decomposition: 2 x 4 x 2

Number of atoms: 24
Number of atomic orbitals: 312
Number of bands in calculation: 98
Bands to converge: occupied states only
Number of valence electrons: 96

... initialized

Initializing position-dependent things.

Density initialized from atomic densities
  /        |        C  C    C C                   |
 *         |     C       C    C                   |
 |         C  C          C  C                     |
 |         .--------C-C----C----------------------.
 |        /      C C  C  C         CC            /
 |       /            C                         /

Positions:
   0 C      6.181076   10.530965    5.157235
   1 C      7.433542    9.885691    5.047738
   2 C      8.668672   10.101004    5.717851
   3 C      6.818571    7.532055    3.708141
   4 C      5.024650    5.647637    4.664863
   5 C      5.905748    6.451393    3.771839
   6 C      7.595645    8.605082    4.378795
   7 C      9.985191    4.490825    7.060063
   8 C      8.915557    3.808268    6.972799
   9 C      7.706691    3.437780    6.509269
  10 C      6.668514    3.873962    5.918090
  11 C      9.756382    7.924533    5.608263
  12 C      9.619518    9.297190    5.948474
  13 C      7.958922    6.570902    3.980670
  14 C      6.143453    4.708045    4.932752
  15 C      7.031779    5.503978    4.041924
  16 C      8.697496    7.675659    4.642982
  17 C      4.360432    9.223486    5.358530
  18 C      3.000382    8.840544    4.969809
  19 C      3.583505    7.185934    5.089279
  20 C      2.310579    7.669470    4.807715
  21 C     12.511980    7.550929    3.913586
  22 C      5.096985   10.340314    5.452164
  23 C     12.188073    6.319287    3.901705

Unit cell:
           periodic     x           y           z      points  spacing
  1. axis:    yes   16.000000    0.000000    0.000000    80     0.2000
  2. axis:    yes    0.000000   16.000000    0.000000    80     0.2000
  3. axis:    yes    0.000000    0.000000   10.000000    48     0.2083

Effective grid spacing dv^(1/3) = 0.2027

                     log10-error:    total        iterations:
           time      wfs    density  energy       fermi  poisson
iter:   1  17:12:59          +inf  -169.440352    2      6
iter:   2  17:13:00         -0.84  -165.876541    3      3
iter:   3  17:13:00         -0.93  -164.733691    3      3
iter:   4  17:13:01         -0.98  -164.051775    3      3
iter:   5  17:13:01         -1.02  -162.779438    33     3
iter:   6  17:13:02         -1.13  -162.449462    3      2
iter:   7  17:13:02         -1.19  -161.981867    32     3
iter:   8  17:13:03         -1.46  -161.989282    3      3
iter:   9  17:13:03         -1.54  -161.992817    3      3
iter:  10  17:13:04         -1.58  -161.932188    3      3
iter:  11  17:13:05         -1.83  -161.928253    2      3
iter:  12  17:13:05         -1.96  -161.915178    3      2
iter:  13  17:13:06         -2.08  -161.911554    3      2
iter:  14  17:13:06         -2.23  -161.906809    3      2
iter:  15  17:13:07         -2.35  -161.903667    3      2
iter:  16  17:13:07         -2.55  -161.900185    3      2
iter:  17  17:13:08         -2.75  -161.898663    3      2
iter:  18  17:13:08         -2.91  -161.906445    2      1
iter:  19  17:13:09         -3.01  -161.907360    2      1
iter:  20  17:13:09         -3.13  -161.900694    2      1
iter:  21  17:13:10         -3.20  -161.901601    2      1
iter:  22  17:13:10         -3.39  -161.900500    2      1
iter:  23  17:13:11         -3.47  -161.894697    2      1
iter:  24  17:13:11         -3.57  -161.896567    2      1
iter:  25  17:13:12         -3.67  -161.891330    2      1
iter:  26  17:13:12         -4.06  -161.895596    2      1

Converged after 26 iterations.

Dipole moment: (-1.624420, 0.720091, -0.113583) |e|*Ang

Energy contributions relative to reference atoms: (reference = -24663.074771)

Kinetic:       +108.181993
Potential:     -111.327207
External:        +0.000000
XC:            -161.388824
Entropy (-ST):   -0.536625
Local:           +2.906753
Free energy:   -162.163909
Extrapolated:  -161.895596

Fermi level: -4.96465

 Band  Eigenvalues  Occupancy
    0    -24.19030    2.00000
    1    -22.73426    2.00000
    2    -22.59912    2.00000
    3    -21.67772    2.00000
    4    -21.06945    2.00000
    5    -20.13915    2.00000
    6    -19.37687    2.00000
    7    -18.95534    2.00000
    8    -17.97550    2.00000
    9    -17.72434    2.00000
   10    -16.95255    2.00000
   11    -16.90214    2.00000
   12    -16.53033    2.00000
   13    -15.80805    2.00000
   14    -14.91845    2.00000
   15    -14.58150    2.00000
   16    -14.06876    2.00000
   17    -13.75439    2.00000
   18    -13.39160    2.00000
   19    -12.83934    2.00000
   20    -12.48570    2.00000
   21    -11.56520    2.00000
   22    -11.36231    2.00000
   23    -11.03664    2.00000
   24    -10.72631    2.00000
   25    -10.23020    2.00000
   26     -9.87474    2.00000
   27     -9.68223    2.00000
   28     -9.64713    2.00000
   29     -8.92833    2.00000
   30     -8.88008    2.00000
   31     -8.68849    2.00000
   32     -8.32056    2.00000
   33     -8.24183    2.00000
   34     -7.97224    2.00000
   35     -7.74074    2.00000
   36     -7.47686    2.00000
   37     -7.01545    2.00000
   38     -6.89841    2.00000
   39     -6.42281    2.00000
   40     -6.13125    1.99998
   41     -5.72483    1.99900
   42     -5.61673    1.99706
   43     -5.38227    1.96975
   44     -5.31833    1.94344
   45     -5.27113    1.91084
   46     -5.22980    1.86820
   47     -4.96645    1.00902
   48     -4.92711    0.81446
   49     -4.83109    0.41645
   50     -4.63555    0.07176
   51     -3.87548    0.00004
   52     -3.58301    0.00000
   53     -3.28284    0.00000
   54     -3.02044    0.00000
   55     -2.83168    0.00000
   56     -1.83920    0.00000
   57     -1.67168    0.00000
   58     -1.42887    0.00000
   59     -1.36632    0.00000
[...]
   83      7.97708    0.00000
   84      8.43628    0.00000
   85      8.50153    0.00000
   86      8.68371    0.00000
   87      8.70145    0.00000
   88      8.85003    0.00000
   89      9.01750    0.00000
   90      9.09818    0.00000
   91      9.15156    0.00000
   92      9.28456    0.00000
   93      9.38572    0.00000
   94      9.63268    0.00000
   95      9.78634    0.00000
   96      9.87637    0.00000
   97      9.97667    0.00000

Forces in eV/Ang:
  0 C    14.72398    2.23290   -2.90166
  1 C     1.29790    0.34433    0.04077
  2 C    -0.62956    0.92665    0.23991
  3 C     0.81036    0.54827    0.00456
  4 C    -0.26151    3.03706   -2.22380
  5 C    -1.30093   -0.70205    1.17031
  6 C    -1.15633   -0.04264    0.05612
  7 C     2.27545    1.35184    0.37025
  8 C    -1.99350   -2.09764   -0.00941
  9 C     0.68763    1.15038    0.03121
 10 C    -1.63233    0.27088   -0.93599
 11 C    -0.81986    1.69948   -1.06419
 12 C     0.60507   -2.36942   -0.62998
 13 C    -0.37517   -0.01469   -0.39763
 14 C     1.13294   -0.71194    1.84951
 15 C    -0.20570   -0.26592   -0.38430
 16 C     1.58946   -0.40520    1.10450
 17 C    -7.00474   -0.38903   -0.90056
 18 C     5.81562    1.35437    1.93023
 19 C    -1.09280   -1.26461    0.02709
 20 C     0.40729   -2.37919   -0.17697
 21 C     0.25081    2.06265    0.21665
 22 C   -12.38314   -2.39798    2.36550
 23 C    -0.77620   -1.94506    0.18052

System changes: positions

[...]

Density initialized from wave functions
  /        |        C  C    C C                   |
 *         |     C       C    C                   |
 |         C  C          C  C                     |
 |         .--------C-C----C----------------------.
 |        /      C C  C  C         CC            /
 |       /            C                         /

[...]

Density initialized from wave functions
  /        |        C  C    C C                   |
[...]
 |         .--C-----C-C--C-C----C-----------------.
 |        /      C C  C           C              /
 |       /         C  C  C                      /

[...]

Density initialized from wave functions
  /        |     C  C  C     C                    |
 *         |  C           CC   C                  |
 |         | C           C    C                   |
 |         .--C-----C-C--C-C----C-----------------.
 |        /      C C  C           C              /
 |       /         C  C  C                      /

[...]

Density initialized from wave functions
  /        |     C  C  C     C                    |
 *         |  C           CC   C                  |
 |         | C           C    C                   |
 |         .--C-----C-C--C-C----C-C---------------.
 |        /      C C  C                          /
 |       /         C  C  C                      /

[...]

Density initialized from wave functions
  /        |     C  C  C     C                    |
 *         |  C           CC   C                  |
 |         | C           C    C                   |
 |         .--C-----C-C--C-C----C-C---------------.
 |        /      C C  C                          /
 |       /         C  C  C                      /

[...]

Density initialized from wave functions
  /        |     C  C  C     C                    |
 *         |  C           CC   C                  |
 |         | C           C    C                   |
 |         .---C----C-C--C-C----C-C---------------.
 |        /      C C  C                          /
 |       /         C  C  C                      /

[...]

Density initialized from wave functions
  /        |     C  C  C     C                    |
 *         |  C           CC   C                  |
 |         | C          C     C                   |
 |         .---C----C-C--C-C----C-C---------------.
 |        /      C  C  C                         /
 |       /          C C  C                      /

[...]

Density initialized from wave functions
  /        |     C  C  C     C                    |
 *         |  C           C    C                  |
 |         |  C         C     C                   |
 |         .---C----C-C--C-C----C-C---------------.
 |        /      C  C  C                         /
 |       /          C C  C                      /

[...]

Density initialized from wave functions
  /        |     C  C  C     C                    |
 *         |   C          C    C                  |
 |         |  C         C     C                   |
 |         .---C----C-C--C-C----C-C---------------.
 |        /      C  C  C                         /
 |       /          C C  C                      /

[...]

Density initialized from wave functions
  /        |     C  C  C     C                    |
 *         |   C          C    C                  |
 |         |  C         C     C                   |
 |         .---C-----CC--C-C----C-C---------------.
 |        /      C  C  C                         /
 |       /          C C  C                      /

[...]

Density initialized from wave functions
  /        |     C  C  C     C                    |
 *         |   C          C    C                  |
 |         |  C         C     C                   |
 |         .---C-----CC--C-C----C-C---------------.
 |        /       C C  C                         /
 |       /          C C  C                      /

[...]

Density initialized from wave functions
  /        |     C  C  C     C                    |
 *         |   C         CC    C                  |
 |         |  C         C     C                   |
 |         .---C------C--C-C----C-C---------------.
 |        /       C CC C                         /
 |       /          C C  C                      /

[...]

Density initialized from wave functions
  /        |     C  C  C     C                    |
 *         |   C         CC    C                  |
 |         |  C         C     C                   |
 |         .---C------C--C-C----C-C---------------.
 |        /       C CC C                         /
 |       /          C C  C                      /

[...]

Density initialized from wave functions
  /        |     C  C  C     C                    |
 *         |   C         CC    C                  |
 |         |  C         C     C                   |
 |         .---C-----CC--C-C----C-C---------------.
 |        /       C C  C                         /
 |       /          C C  C                      /

[...]

Density initialized from wave functions
  /        |     C  C  C     C                    |
 *         |   C         CC    C                  |
 |         |  C         C     C                   |
 |         .---C-----CC--C-C----C-C---------------.
 |        /       C C  C                         /
 |       /          C C  C                      /

[...]

Density initialized from wave functions
  /        |   C C  C  C     C                    |
 *         |             CC    C                  |
 |         |  C         C     C                   |
 |         .---C-----CC--C-C----C-C---------------.
 |        /       C C  C                         /
 |       /          C C  C                      /

[...]

Density initialized from wave functions
  /        |   C C  C  C     C                    |
 *         |             CC    C                  |
 |         |  C        C      C                   |
 |         .---C-----CC--C-C----C-C---------------.
 |        /       C C  C                         /
 |       /          C C  C                      /

[...]

Density initialized from wave functions
  /        |   C C  C  C     C                    |
 *         |             CC    C                  |
 |         |  C         C     C                   |
 |         .---C------C--C-C----C-C---------------.
 |        /       C CC C                         /
 |       /          C C  C                      /

[...]

Density initialized from wave functions
  /        |   C C  C  C     C                    |
 *         |             CC    C                  |
 |         |  C        C      C                   |
 |         .---C------C--C-C----C-C---------------.
 |        /       C CC C                         /
 |       /          C C  C                      /

[...]

Density initialized from wave functions
  /        |   C C  C  C     C                    |
 *         |             CC    C                  |
 |         |  C        C      C                   |
 |         .---C------C--C--C---C-C---------------.
 |        /       C CC C                         /
 |       /          C C  C                      /

[...]

Density initialized from wave functions
  /        |   C C  C  C     C                    |
 *         |             CC    C                  |
 |         |  C        C       C                  |
 |         .---C------C--C--C---C-C---------------.
 |        /       C CC C                         /
 |       /          C C  C                      /

[...]

Density initialized from wave functions
  /        |   C C  C  C     C                    |
 *         |            C C    C                  |
 |         |  C        C       C                  |
 |         .---C------C--C--C---C-C---------------.
 |        /       C CC C                         /
 |       /          C C  C                      /

[...]

Density initialized from wave functions
  /        |   C C  C  C     C                    |
 *         |            C C    C                  |
 |         |  C        C       C                  |
 |         .---C------C--C--C---C-C---------------.
 |        /       C CC C                         /
 |       /          C C  C                      /

[...]

Density initialized from wave functions
  /        |   C C  C  C     C                    |
 *         |            C C    C                  |
 |         |  C        C       C                  |
 |         .---C------C--C--C----CC---------------.
 |        /       C CC C                         /
 |       /          C C  C                      /

[...]

Density initialized from wave functions
  /        |     C  C  C     C                    |
 *         |   C        C C    C                  |
 |         |  C        C       C                  |
 |         .---C------C--C--C----CC---------------.
 |        /       C CC C                         /
 |       /          C C  C                      /

[...]

Density initialized from wave functions
  /        |     C  C  C     C                    |
 *         |   C       C  C    C                  |
 |         |  C       C        C                  |
 |         .---C------C--C--C----CC---------------.
 |        /       C CC C                         /
 |       /          C C  C                      /

[...]

Density initialized from wave functions
  /        |     C  C  C     C                    |
 *         |   C       C  C    C                  |
 |         |  C       C        C                  |
 |         .----C-----C--C--C----CC---------------.
 |        /       C CC C                         /
 |       /          C C  C                      /

[...]

Density initialized from wave functions
  /        |     C  C  C     C                    |
 *         |   C       C  C    C                  |
 |         |  C       C        C                  |
 |         .----C----C---C--C----CC---------------.
 |        /       C CC C                         /
 |       /          C C  C                      /

[...]

Density initialized from wave functions
  /        |     C  C  C     C                    |
 *         |   C      C   C    C                  |
 |         |  C      C         C                  |
 |         .----C----C---C--C----CC---------------.
 |        /       C CC C                         /
 |       /          C  C C                      /

[...]

Density initialized from wave functions
  /        |     C  C  C     C                    |
 *         |   C     C    C    C                  |
 |         |  C      C         C                  |
 |         .----C----C---C--C----C-C--------------.
 |        /       C CC C                         /
 |       /          C  C C                      /

[...]

Density initialized from wave functions
  /        |     C  C  C     C                    |
 *         |   C     C    C    C                  |
 |         |   C     C         C                  |
 |         .----C----C---C--C----C-C--------------.
 |        /       C CC C                         /
 |       /          C  C C                      /

[...]

System changes: positions

Initializing position-dependent things.

Density initialized from wave functions
  /        |     C  C        C                    |
 *         |   C     C C  C    C                  |
 |         |   C     C         C                  |
 |         .----C----C---C--C----C-C--------------.
 |        /       C CC C                         /
 |       /          C  C C                      /

Positions:
   0 C      6.335162   10.616063    4.878862
   1 C      7.600947   10.165090    4.500219
   2 C      8.910473   10.501935    4.959393
   3 C      7.002563    7.787701    3.274850
   4 C      5.482177    5.886105    4.572705
   5 C      6.198074    6.634385    3.542762
   6 C      7.766575    8.910242    3.752547
   7 C      7.810039    1.715315    8.693567
   8 C      7.556084    2.425149    7.617514
   9 C      7.287388    3.249624    6.616155
  10 C      7.042746    4.071177    5.667237
  11 C     10.226646    8.430464    4.501279
  12 C      9.943543    9.775707    4.931973
  13 C      8.243759    6.898435    3.375692
  14 C      6.705185    4.981560    4.725712
  15 C      7.408720    5.779389    3.658421
  16 C      9.002291    8.071880    3.802166
  17 C      4.049077    9.806032    5.720777
  18 C      3.572745    8.631001    5.877372
  19 C      4.415288    6.336075    5.322073
  20 C      3.680572    7.311949    5.687226
  21 C     11.312037    7.590812    4.676180
  22 C      5.149760   10.448633    5.295068
  23 C     12.176768    6.651184    4.820324

Unit cell:
           periodic     x           y           z      points  spacing
  1. axis:    yes   16.000000    0.000000    0.000000    80     0.2000
  2. axis:    yes    0.000000   16.000000    0.000000    80     0.2000
  3. axis:    yes    0.000000    0.000000   10.000000    48     0.2083

Effective grid spacing dv^(1/3) = 0.2027

                     log10-error:    total        iterations:
           time      wfs    density  energy       fermi  poisson
iter:   1  17:37:28          +inf  -177.348934    2      5
iter:   2  17:37:28         -2.99  -177.348161    2      1
iter:   3  17:37:28         -3.09  -177.347714    2      1
iter:   4  17:37:29         -3.22  -177.347766    2      1
iter:   5  17:37:29         -3.35  -177.347211    2      1
iter:   6  17:37:30         -3.58  -177.349892    3      1
iter:   7  17:37:30         -3.29  -177.347999    2      1
iter:   8  17:37:31         -3.83  -177.346877    2      1
iter:   9  17:37:31         -3.99  -177.347169    2      1
iter:  10  17:37:32         -4.09  -177.346820    2      1

Converged after 10 iterations.

Dipole moment: (-1.569019, 1.265072, -0.153672) |e|*Ang

Energy contributions relative to reference atoms: (reference = -24663.074771)

Kinetic:       +105.537188
Potential:     -114.024658
External:        +0.000000
XC:            -171.785117
Entropy (-ST):   -0.215261
Local:           +3.033397
Free energy:   -177.454450
Extrapolated:  -177.346820

Fermi level: -5.01039

 Band  Eigenvalues  Occupancy
    0    -24.22319    2.00000
    1    -22.63112    2.00000
    2    -21.48930    2.00000
    3    -21.05290    2.00000
    4    -20.57311    2.00000
    5    -20.06489    2.00000
    6    -19.92384    2.00000
    7    -19.12995    2.00000
    8    -18.78988    2.00000
    9    -18.12259    2.00000
   10    -17.81912    2.00000
   11    -17.30146    2.00000
   12    -16.65625    2.00000
   13    -16.38664    2.00000
   14    -15.91790    2.00000
   15    -15.64376    2.00000
   16    -14.69399    2.00000
   17    -14.23954    2.00000
   18    -14.02326    2.00000
   19    -13.90082    2.00000
   20    -13.37101    2.00000
   21    -12.48374    2.00000
   22    -11.99901    2.00000
   23    -11.75016    2.00000
   24    -11.22584    2.00000
   25    -10.85263    2.00000
   26    -10.62357    2.00000
   27    -10.11934    2.00000
   28     -9.74977    2.00000
   29     -9.56444    2.00000
   30     -8.94436    2.00000
   31     -8.90090    2.00000
   32     -8.70759    2.00000
   33     -8.32747    2.00000
   34     -8.22707    2.00000
   35     -7.98061    2.00000
   36     -7.73043    2.00000
   37     -7.54317    2.00000
   38     -6.73318    2.00000
   39     -6.66173    2.00000
   40     -6.43693    2.00000
   41     -6.05150    1.99994
   42     -5.63745    1.99622
   43     -5.61160    1.99511
   44     -5.51608    1.98735
   45     -5.40868    1.96342
   46     -5.33668    1.92627
   47     -5.23506    1.80874
   48     -4.84565    0.32292
   49     -3.81880    0.00001
   50     -3.77245    0.00001
   51     -3.24769    0.00000
   52     -3.06900    0.00000
   53     -2.57079    0.00000
   54     -1.96942    0.00000
   55     -1.70568    0.00000
   56     -1.58914    0.00000
   57     -1.18032    0.00000
   58     -1.02641    0.00000
   59     -0.43834    0.00000
[...]
   83      8.49829    0.00000
   84      8.61740    0.00000
   85      8.72995    0.00000
   86      9.04995    0.00000
   87      9.07256    0.00000
   88      9.09124    0.00000
   89      9.15998    0.00000
   90      9.26613    0.00000
   91      9.35976    0.00000
   92      9.45413    0.00000
   93      9.63670    0.00000
   94      9.75392    0.00000
   95      9.82559    0.00000
   96      9.94291    0.00000
   97     10.03501    0.00000

Forces in eV/Ang:
  0 C    -0.02483    0.03443    0.00545
  1 C    -0.01637   -0.02334    0.01316
  2 C    -0.02300   -0.01054    0.01314
  3 C    -0.01864   -0.01754   -0.03006
  4 C    -0.02139   -0.04078    0.05965
  5 C    -0.03883    0.02473    0.02969
  6 C     0.00858    0.00754   -0.00744
  7 C    -0.00245   -0.05135   -0.01577
  8 C     0.00106   -0.01424    0.05348
  9 C    -0.01427    0.03425   -0.01107
 10 C    -0.00447   -0.00827    0.02609
 11 C     0.03954    0.03545   -0.04149
 12 C     0.00806    0.02095    0.05980
 13 C    -0.01243   -0.01460   -0.03205
 14 C    -0.01946    0.05190   -0.02507
 15 C    -0.03657   -0.02541   -0.00389
 16 C    -0.07469    0.00942    0.03876
 17 C     0.07885    0.00131   -0.04840
 18 C     0.00789   -0.04549    0.02130
 19 C     0.04954   -0.00886   -0.05051
 20 C     0.00067   -0.00933    0.00126
 21 C     0.00650   -0.08006    0.01565
 22 C     0.08278   -0.01369   -0.02119
 23 C     0.08842    0.04308   -0.00027