User:   esb@s65n12.grendel.cscaa.dk
Date:   Thu Nov  9 10:22:42 2017
Arch:   x86_64
Pid:    19386
Python: 2.7.13
gpaw:   /home/esb/DFT/gpaw_git/gpaw
_gpaw:  /home/esb/DFT/gpaw_git/build/bin.linux-x86_64-2.7/gpaw-python
ase:    /home/esb/DFT/ase_git/ase (version 3.15.0b1)
numpy:  /comm/swstack/core/python/2.7.13/lib/python2.7/site-packages/numpy (version 1.13.3)
scipy:  /comm/swstack/core/python/2.7.13/lib/python2.7/site-packages/scipy (version 0.19.1)
units:  Angstrom and eV
cores:  16
Extra parameters: {'blacs': True}

Input parameters:
  basis: dzp
  gpts: [80 80 48]
  kpts: [1 1 1]
  maxiter: 99
  mixer: {backend: pulay,
          beta: 0.05,
          method: separate,
          nmaxold: 5,
          weight: 75}
  mode: lcao
  nbands: -50
  occupations: {name: fermi-dirac,
                width: 0.1}
  poissonsolver: {eps: 1e-07,
                  name: fd,
                  nn: 3,
                  relax: GS}
  xc: PBE

System changes: positions, numbers, cell, pbc, initial_charges, initial_magmoms

Initialize ...

C-setup:
  name: Carbon
  id: 4aa54d4b901d75f77cc0ea3eec22967b
  Z: 6
  valence: 4
  core: 2
  charge: 0.0
  file: /home/esb/DFT/gpaw-setups-0.8.7929/C.PBE.gz
  cutoffs: 0.64(comp), 1.14(filt), 1.14(core), lmax=2
  valence states:
                energy  radius
    2s(2.00)   -13.751   0.635
    2p(2.00)    -5.284   0.635
    *s          13.461   0.635
    *p          21.927   0.635
    *d           0.000   0.635

  LCAO basis set for C:
    Name: dzp
    File: /home/esb/DFT/gpaw-setups-0.8.7929/C.dzp.basis.gz
    Number of radial functions: 5
    Number of spherical harmonics: 13
      l=0, rc=5.5469 Bohr: 2s-sz confined orbital
      l=1, rc=6.6719 Bohr: 2p-sz confined orbital
      l=0, rc=3.0312 Bohr: 2s-dz split-valence wave
      l=1, rc=3.7500 Bohr: 2p-dz split-valence wave
      l=2, rc=6.6719 Bohr: d-type Gaussian polarization

Reference energy: -24663.074771

Spin-paired calculation

Occupation numbers:
  Fermi-Dirac: width=0.1000 eV

Convergence criteria:
  Maximum total energy change: 0.0005 eV / electron
  Maximum integral of absolute density change: 0.0001 electrons
  Maximum integral of absolute eigenstate change: 4e-08 eV^2
  Maximum number of iterations: 99

Symmetries present (total): 1

  ( 1  0  0)
  ( 0  1  0)
  ( 0  0  1)

1 k-point (Gamma)
1 k-point in the irreducible part of the Brillouin zone
       k-points in crystal coordinates                weights
   0:     0.00000000    0.00000000    0.00000000          1/1

Wave functions: LCAO
  Diagonalizer: Serial LAPACK
  Atomic Correction: dense with blas
  Datatype: float
  Eigensolver: None

LCAO using direct dense diagonalizer

Densities:
  Coarse grid: 80*80*48 grid
  Fine grid: 160*160*96 grid
  Total Charge: 0.000000

Density mixing:
  Method: separate
  Backend: pulay
  Linear mixing parameter: 0.05
  Mixing with 5 old densities
  Damping of long wave oscillations: 75

Hamiltonian:
  XC and Coulomb potentials evaluated on a 160*160*96 grid
  Using the PBE Exchange-Correlation functional
  Interpolation: tri-quintic (5. degree polynomial)
  Poisson solver: Gauss-Seidel solver with 6 multi-grid levels
    Coarsest grid: 5 x 5 x 3 points
    Stencil: 6*3+1=19 point O(h^6) finite-difference Laplacian
    Max iterations: 1000
    Tolerance: 1.000000e-07

Total number of cores used: 16
Domain decomposition: 2 x 4 x 2

Number of atoms: 24
Number of atomic orbitals: 312
Number of bands in calculation: 98
Bands to converge: occupied states only
Number of valence electrons: 96

... initialized

Initializing position-dependent things.

Density initialized from atomic densities
  /        |    C            C  C                 |
 *         |  C     C  C  C   C   C               |
 |         | C       C    C   CC C                |
 |         .---C---C-C---C--C---------------------.
 |        /          C    C                      /
 |       /             C                        /

Positions:
   0 C      6.109356   10.724318    4.587181
   1 C      8.623441   11.367017    4.767283
   2 C      7.509525   10.538073    4.552001
   3 C      8.011976    9.163822    4.624036
   4 C      9.858653   10.421551    5.070145
   5 C      9.422307    9.084404    4.993991
   6 C     11.081623    5.208559    6.317269
   7 C      9.731897    5.284600    5.874400
   8 C     11.612298    6.409360    6.202597
   9 C      9.271008    6.576419    5.323905
  10 C     11.419870    7.644342    5.809301
  11 C     10.081878    7.822915    5.339924
  12 C      9.367469    4.132462    5.116581
  13 C      5.378194    8.712916    5.802876
  14 C      3.478645    7.461403    5.782887
  15 C      5.816388    6.119330    5.454633
  16 C      8.349364    3.398632    5.171257
  17 C      4.483426    5.475644    5.523497
  18 C      8.198879    6.195252    5.294327
  19 C      6.237274    7.531132    5.555899
  20 C      7.023028    3.875364    5.245263
  21 C      3.962109    8.671975    5.906811
  22 C      3.243281    6.174632    5.664165
  23 C      7.020796    5.340016    5.298345

Unit cell:
           periodic     x           y           z      points  spacing
  1. axis:    yes   16.000000    0.000000    0.000000    80     0.2000
  2. axis:    yes    0.000000   16.000000    0.000000    80     0.2000
  3. axis:    yes    0.000000    0.000000   10.000000    48     0.2083

Effective grid spacing dv^(1/3) = 0.2027

                     log10-error:    total        iterations:
           time      wfs    density  energy       fermi  poisson
iter:   1  10:22:44          +inf  -169.985234    3      6
iter:   2  10:22:44         -0.88  -168.813881    3      3
iter:   3  10:22:45         -0.93  -167.830141    3      3
iter:   4  10:22:45         -1.01  -166.696216    31     3
iter:   5  10:22:46         -1.13  -166.109734    33     3
iter:   6  10:22:47         -1.33  -166.007613    34     3
iter:   7  10:22:47         -1.55  -166.006555    3      3
iter:   8  10:22:48         -1.67  -165.971775    3      3
iter:   9  10:22:48         -1.80  -165.940868    3      3
iter:  10  10:22:49         -1.98  -165.924065    3      2
iter:  11  10:22:49         -2.22  -165.918909    3      2
iter:  12  10:22:50         -2.34  -165.914611    3      2
iter:  13  10:22:51         -2.45  -165.911558    3      2
iter:  14  10:22:51         -2.63  -165.909837    3      2
iter:  15  10:22:52         -2.78  -165.919489    2      1
iter:  16  10:22:52         -2.86  -165.908851    2      2
iter:  17  10:22:53         -3.10  -165.908963    2      1
iter:  18  10:22:53         -3.16  -165.911479    2      1
iter:  19  10:22:54         -3.29  -165.913460    2      1
iter:  20  10:22:54         -3.43  -165.910594    2      1
iter:  21  10:22:55         -3.53  -165.905633    2      1
iter:  22  10:22:55         -3.91  -165.907580    2      1
iter:  23  10:22:56         -3.95  -165.907081    2      1
iter:  24  10:22:56         -4.00  -165.905429    2      1

Converged after 24 iterations.

Dipole moment: (0.031439, -0.572393, 0.037451) |e|*Ang

Energy contributions relative to reference atoms: (reference = -24663.074771)

Kinetic:       +107.839612
Potential:     -112.572840
External:        +0.000000
XC:            -163.824947
Entropy (-ST):   -0.407427
Local:           +2.856459
Free energy:   -166.109142
Extrapolated:  -165.905429

Fermi level: -4.49915

 Band  Eigenvalues  Occupancy
    0    -24.14433    2.00000
    1    -21.88065    2.00000
    2    -21.76951    2.00000
    3    -21.30714    2.00000
    4    -20.83001    2.00000
    5    -20.43043    2.00000
    6    -19.64955    2.00000
    7    -19.47063    2.00000
    8    -18.51780    2.00000
    9    -17.93408    2.00000
   10    -16.84708    2.00000
   11    -16.62222    2.00000
   12    -16.19736    2.00000
   13    -15.68328    2.00000
   14    -15.56992    2.00000
   15    -15.03671    2.00000
   16    -14.55097    2.00000
   17    -13.36010    2.00000
   18    -13.16438    2.00000
   19    -12.68377    2.00000
   20    -12.37135    2.00000
   21    -12.27704    2.00000
   22    -11.83674    2.00000
   23    -11.39943    2.00000
   24    -10.95860    2.00000
   25    -10.64871    2.00000
   26    -10.44363    2.00000
   27    -10.14761    2.00000
   28     -9.68939    2.00000
   29     -9.40495    2.00000
   30     -8.91137    2.00000
   31     -8.84305    2.00000
   32     -8.61533    2.00000
   33     -8.10562    2.00000
   34     -7.76900    2.00000
   35     -7.70215    2.00000
   36     -7.54354    2.00000
   37     -7.31468    2.00000
   38     -7.14923    2.00000
   39     -6.94858    2.00000
   40     -6.36642    2.00000
   41     -6.06056    2.00000
   42     -5.80874    2.00000
   43     -5.70955    1.99999
   44     -5.28176    1.99920
   45     -4.88536    1.95882
   46     -4.70812    1.77979
   47     -4.62159    1.54567
   48     -4.35015    0.36785
   49     -4.31026    0.26274
   50     -4.18480    0.08269
   51     -3.85657    0.00323
   52     -3.30293    0.00001
   53     -3.24593    0.00001
   54     -3.06291    0.00000
   55     -2.97039    0.00000
   56     -2.64380    0.00000
   57     -2.59338    0.00000
   58     -2.14268    0.00000
   59     -1.91629    0.00000
[...]
   83      8.32516    0.00000
   84      8.37877    0.00000
   85      8.57743    0.00000
   86      8.84867    0.00000
   87      8.97567    0.00000
   88      9.05742    0.00000
   89      9.24006    0.00000
   90      9.31876    0.00000
   91      9.39861    0.00000
   92      9.41030    0.00000
   93      9.61820    0.00000
   94      9.84324    0.00000
   95     10.01891    0.00000
   96     10.03922    0.00000
   97     10.11941    0.00000

Forces in eV/Ang:
  0 C     1.13411   -1.31820    0.87568
  1 C     3.77595   -1.50215    0.97609
  2 C    -3.63619    0.14404   -0.41712
  3 C     1.24227   -0.35668    0.80652
  4 C    -2.80606    2.20369   -1.06342
  5 C    -0.22364   -1.97845    0.58517
  6 C     0.76106    0.16835    0.98382
  7 C     3.79210   -3.13927   -1.74338
  8 C    -0.07530    0.70203    0.58935
  9 C    16.37039    7.19219    0.75107
 10 C    -0.58009    0.20320   -0.61344
 11 C     0.84790    1.10390   -0.30196
 12 C     1.05663    0.43945    1.61405
 13 C     0.11489   -1.68429   -1.94705
 14 C    -0.75423    0.60968    0.56541
 15 C    -0.15548    0.14073    0.35402
 16 C    -2.37986   -0.17810   -0.67417
 17 C    -0.92420    2.70340    0.20243
 18 C   -20.22097   -5.60961   -0.68370
 19 C    -1.82354    2.47009    0.17849
 20 C     0.27861    1.19928   -0.08526
 21 C     1.80783    0.20836   -0.03839
 22 C     2.66227   -2.17158   -0.52622
 23 C    -0.32385   -1.47039   -0.34550

System changes: positions

[...]

Density initialized from wave functions
  /        |    C            C  C                 |
 *         |  C     C  C  C   C   C               |
 |         | C       C    C C CC C                |
 |         .---C---C-C---C--C---------------------.
 |        /          C    C                      /
 |       /             C                        /

[...]

Density initialized from wave functions
  /        |    C            C C                  |
 *         |  C     C  C  C   C   C               |
 |         | C       C    C C CC C                |
[...]
 *         |  C     C  C  C   C   C               |
 |         | C       C    C C  C C                |
 |         .---C---C-C--C---C---------------------.
 |        /          C    C                      /
 |       /             C                        /

[...]

Density initialized from wave functions
  /        |                 C C                  |
 *         |  C C   C  C  C   C  CC               |
 |         | C       C    C C  C                  |
 |         .---C---C-C--C---C---------------------.
 |        /         C     C                      /
 |       /             C                        /

[...]

Density initialized from wave functions
  /        |                 C C                  |
 *         |  C C   C  C  C   C  CC               |
 |         | C       C    C C  CC                 |
 |         .---C---C-C--C---C---------------------.
 |        /         C     C                      /
 |       /             C                        /

[...]

Density initialized from wave functions
  /        |                 C C                  |
 *         |  C C   C  C  C   C  CC               |
 |         | C       C    C C  CC                 |
 |         .---C---C-C--C----C--------------------.
 |        /         C     C                      /
 |       /             C                        /

[...]

Density initialized from wave functions
  /        |                 C C                  |
 *         |  C C   C C   C   C  CC               |
 |         | C       C    C C  CC                 |
 |         .---C---C-C--C----C--------------------.
 |        /         C     C                      /
 |       /             C                        /

[...]

Density initialized from wave functions
  /        |                 C C                  |
 *         |  C C   C C   C   C  CC               |
 |         | C       C    C C C C                 |
 |         .---C---C-C--C----C--------------------.
 |        /         C     C                      /
 |       /             C                        /

[...]

Density initialized from wave functions
  /        |                 C C                  |
 *         |  C C   C C   C   C  CC               |
 |         | C       C    C C C C                 |
 |         .---C---C-C--C----C--------------------.
 |        /         C     C                      /
 |       /             C                        /

[...]

Density initialized from wave functions
  /        |                 C                    |
 *         |  C C   C C   C   CC CC               |
 |         | C       C    C C C C                 |
 |         .---C---C-C--C----C--------------------.
 |        /         C     C                      /
 |       /             C                        /

[...]

Density initialized from wave functions
  /        |                 C                    |
 *         |  C C   C C   C   CC CC               |
 |         | C       C    C C C C                 |
 |         .---C---C-C--C----C--------------------.
 |        /         C     C                      /
 |       /             C                        /

[...]

Density initialized from wave functions
  /        |                 C                    |
 *         |  C C   C C  C    CC CC               |
 |         | C       C     C  C C                 |
 |         .---C---C-C--C---CC--------------------.
 |        /         C     C                      /
 |       /             C                        /

[...]

Density initialized from wave functions
  /        |                 C                    |
 *         |  C C   C C  C    CC  C               |
 |         | C       C     C  C C                 |
 |         .---C---C-C--C---CC--------------------.
 |        /         C     C                      /
 |       /             C                        /

[...]

Density initialized from wave functions
  /        |                 C                    |
 *         |  C  C  C C  C    CC  C               |
 |         | C       C     C  C C                 |
 |         .---C---C-C--C---CC--------------------.
 |        /         C      C                     /
 |       /             C                        /

[...]

Density initialized from wave functions
  /        |                 C                    |
 *         |  C  C  C C  C    CC  C               |
 |         |C        C     CC C C                 |
 |         .---C---C-C--C----C--------------------.
 |        /         C   C  C                     /

[...]

Density initialized from wave functions
  /        |                 C                    |
 *         |  C  C  C C  C    CC  C               |
 |         |C        C     CC C C                 |
 |         .---C---C-C--C----C--------------------.
 |        /         C   C  C                     /

[...]

Density initialized from wave functions
  /        |          C      C                    |
 *         |  C  C  C    C    CC  C               |
 |         |C  C     C     CC C C                 |
 |         .-------C-C--C----C--------------------.
 |        /         C   C  C                     /

[...]

Density initialized from wave functions
  /        |          C      C                    |
 *         |  C  C  C    C    CC  C               |
 |         |C  C     C     CC C C                 |
 |         .-------C-C--C----C--------------------.
 |        /         C  C   C                     /

[...]

Density initialized from wave functions
  /        |          C      C                    |
 *         |  C  C  C    C    CC  C               |
 |         |C  C     C  C  CC C C                 |
 |         .-------C-C-------C--------------------.
 |        /         C  C   C                     /

[...]

Density initialized from wave functions
  /        |          C      C                    |
 *         |  C  C  C    C    CC  C               |
 |         |C  C     C  C  CC C C                 |
 |         .-------C-C-------C--------------------.
 |        /         C  C   C                     /

[...]

Density initialized from wave functions
  /        |          C      C                    |
 *         |  C  C  C    C   C C  C               |
 |         |C  C     C  C  CC C C C               |
 |         .-------C-C-------C--------------------.
 |        /         C  C   C                     /

[...]

Density initialized from wave functions
  /        |          C      C                    |
 *         |  C  C  C    C   C C  C               |
 |         |C  C     C  C  CC C C C               |
 |         .-------C-C-------C--------------------.
 |        /         C  C   C                     /

[...]

Density initialized from wave functions
  /        |          C      C                    |
 *         |  C  C  C    C   C C  C               |
 |         |C  C     C  C  CC C C C               |
 |         .-------C-C-------C--------------------.
 |        /            C   C                     /
 |       /          C                           /

[...]

Density initialized from wave functions
  /        |          C      C                    |
 *         |  C  C  C    C   C C  C               |
 |         |C        C  C  CC C C C               |
 |         .---C---C-C-------C--------------------.
 |        /            C   C                     /
 |       /          C                           /

[...]

Density initialized from wave functions
  /        |          C      C                    |
 *         |  C  C  C    C   C C  C               |
 |         |C  C     C  C  CC C C C               |
 |         .-------C-C-------C--------------------.
 |        /            C   C                     /
 |       /          C                           /

[...]

Density initialized from wave functions
  /        |          C      C                    |
 *         |  C  C  C    C   C C  C               |
 |         |C  C     C  C  C  C C C               |
 |         .-------C-C-------C--------------------.
 |        /            C   C                     /
 |       /          C                           /

[...]

Density initialized from wave functions
  /        |          C      C                    |
 *         |  C  C  C    C   C C  C               |
 |         |C  C     C  C  C  C C C               |
 |         .-------C-C-------C--------------------.
 |        /            C   C                     /
 |       /          C                           /

[...]

Density initialized from wave functions
  /        |           C     C                    |
 *         |  C  C  C    C     C  C               |
 |         |C  C     C  C  C CC C                 |
 |         .-------C-C-------C--------------------.
 |        /            C   C                     /
 |       /          C                           /

[...]

Density initialized from wave functions
  /        |           C     C                    |
 *         |  C  C  C    C     C  C               |
 |         |C        C  C  C CC C                 |
 |         .---C---C-C-------C--------------------.
 |        /            C   C                     /
 |       /          C                           /

[...]

Density initialized from wave functions
  /        |           C     C                    |
 *         |  C  C  C    C     C  C               |
 |         |C        C  C  C CC C                 |
 |         .---C---C-C-------C--------------------.
 |        /            C   C                     /
 |       /          C                           /

[...]

Density initialized from wave functions
  /        |           C     C                    |
 *         |  C  C  C    C     C  C               |
 |         |C        C  C  C CC C                 |
 |         .---C---C-C-------C--------------------.
 |        /         C  C   C                     /

[...]

Density initialized from wave functions
  /        |           C     C                    |
 *         |  C  C  C    C     C  C               |
 |         |C        C  C  C CC C                 |
 |         .---C---C-C-------C--------------------.
 |        /         C  C   C                     /

[...]

Density initialized from wave functions
  /        |           C     C                    |
 *         |  C  C  C    C     C  C               |
 |         |C  C     C  C  C CC C                 |
 |         .-------C-C-------C--------------------.
 |        /            C   C                     /
 |       /          C                           /

[...]

System changes: positions

Initializing position-dependent things.

Density initialized from wave functions
  /        |           C     C                    |
 *         |  C  C  C    C     C  C               |
 |         |C  C     C  C  C CC C                 |
 |         .-------C-C-------C--------------------.
 |        /         C  C   C                     /

Positions:
   0 C      6.296847    9.966146    5.442402
   1 C      8.605961   11.086668    4.847466
   2 C      7.369532   10.326492    4.770562
   3 C      8.328859    9.359653    4.091094
   4 C      9.724314   10.373356    4.877462
   5 C      9.387401    8.923376    4.877588
   6 C     11.393372    5.398250    6.215619
   7 C     10.047573    5.217057    5.742527
   8 C     11.689362    6.666639    6.184265
   9 C      9.189075    6.485494    5.513644
  10 C     11.314656    7.903123    5.919891
  11 C      9.955162    7.773770    5.454042
  12 C      9.497075    3.948620    5.454650
  13 C      5.765507    8.664037    5.511047
  14 C      3.509182    7.505829    5.687054
  15 C      5.650871    6.153675    5.449355
  16 C      8.265747    3.721189    5.185248
  17 C      4.265539    6.137801    5.553797
  18 C      7.754616    6.428361    5.418489
  19 C      6.467720    7.336906    5.481219
  20 C      6.935869    3.886927    5.062265
  21 C      4.369030    8.457474    5.640457
  22 C      2.903338    6.197276    5.705818
  23 C      6.811012    5.266112    5.300428

Unit cell:
           periodic     x           y           z      points  spacing
  1. axis:    yes   16.000000    0.000000    0.000000    80     0.2000
  2. axis:    yes    0.000000   16.000000    0.000000    80     0.2000
  3. axis:    yes    0.000000    0.000000   10.000000    48     0.2083

Effective grid spacing dv^(1/3) = 0.2027

                     log10-error:    total        iterations:
           time      wfs    density  energy       fermi  poisson
iter:   1  10:31:37          +inf  -176.881447    3      5
iter:   2  10:31:38         -2.57  -176.882517    3      1
iter:   3  10:31:38         -2.76  -176.884845    2      1
iter:   4  10:31:39         -2.88  -176.884474    3      2
iter:   5  10:31:39         -3.07  -176.886306    2      1
iter:   6  10:31:40         -3.15  -176.886085    2      1
iter:   7  10:31:41         -3.43  -176.885174    2      1
iter:   8  10:31:41         -3.55  -176.885318    2      1
iter:   9  10:31:42         -3.74  -176.885188    2      1
iter:  10  10:31:42         -3.83  -176.884968    2      1
iter:  11  10:31:43         -3.97  -176.885272    2      1
iter:  12  10:31:43         -4.04  -176.885230    2      1

Converged after 12 iterations.

Dipole moment: (-0.413116, 0.379732, 0.008772) |e|*Ang

Energy contributions relative to reference atoms: (reference = -24663.074771)

Kinetic:       +110.651290
Potential:     -116.302147
External:        +0.000000
XC:            -174.006232
Entropy (-ST):   -0.315377
Local:           +2.929547
Free energy:   -177.042919
Extrapolated:  -176.885230

Fermi level: -4.46495

 Band  Eigenvalues  Occupancy
    0    -23.84204    2.00000
    1    -23.65376    2.00000
    2    -22.60767    2.00000
    3    -21.75405    2.00000
    4    -20.93217    2.00000
    5    -20.43244    2.00000
    6    -19.57766    2.00000
    7    -19.14146    2.00000
    8    -19.07839    2.00000
    9    -18.24488    2.00000
   10    -17.61945    2.00000
   11    -17.26504    2.00000
   12    -16.94792    2.00000
   13    -15.99967    2.00000
   14    -15.65768    2.00000
   15    -15.19623    2.00000
   16    -14.50917    2.00000
   17    -13.69776    2.00000
   18    -12.88201    2.00000
   19    -12.74446    2.00000
   20    -12.09865    2.00000
   21    -11.73151    2.00000
   22    -11.44036    2.00000
   23    -11.18685    2.00000
   24    -11.04039    2.00000
   25    -10.93648    2.00000
   26    -10.61822    2.00000
   27    -10.40073    2.00000
   28    -10.07666    2.00000
   29     -9.90390    2.00000
   30     -9.80689    2.00000
   31     -9.65203    2.00000
   32     -9.41107    2.00000
   33     -9.09149    2.00000
   34     -8.47789    2.00000
   35     -8.18376    2.00000
   36     -7.54167    2.00000
   37     -7.21348    2.00000
   38     -6.96842    2.00000
   39     -6.91381    2.00000
   40     -6.89265    2.00000
   41     -6.38922    2.00000
   42     -6.18993    2.00000
   43     -5.97379    2.00000
   44     -5.59026    1.99997
   45     -4.81832    1.94326
   46     -4.73952    1.87934
   47     -4.59216    1.56218
   48     -4.37558    0.58068
   49     -4.05313    0.03203
   50     -3.79756    0.00252
   51     -3.24109    0.00001
   52     -3.03067    0.00000
   53     -2.39012    0.00000
   54     -2.19507    0.00000
   55     -1.90947    0.00000
   56     -1.51796    0.00000
   57     -1.22253    0.00000
   58     -0.83991    0.00000
   59     -0.24514    0.00000
[...]
   83      8.46700    0.00000
   84      8.58227    0.00000
   85      8.70927    0.00000
   86      8.89610    0.00000
   87      9.04224    0.00000
   88      9.07307    0.00000
   89      9.28802    0.00000
   90      9.31264    0.00000
   91      9.44080    0.00000
   92      9.54226    0.00000
   93      9.66209    0.00000
   94      9.73218    0.00000
   95      9.87485    0.00000
   96      9.99594    0.00000
   97     10.06507    0.00000

Forces in eV/Ang:
  0 C    -0.01327    0.01526    0.04122
  1 C     0.01150   -0.02956    0.03451
  2 C    -0.02470   -0.03432    0.00268
  3 C    -0.01789    0.00963    0.00083
  4 C    -0.01107    0.02245   -0.01881
  5 C     0.00621   -0.00326   -0.04835
  6 C     0.00411   -0.03754    0.03250
  7 C    -0.00938    0.02462   -0.00226
  8 C    -0.01356   -0.01418    0.02747
  9 C    -0.03037    0.01253   -0.01498
 10 C     0.01883    0.00532   -0.00465
 11 C    -0.01455    0.01806   -0.03593
 12 C    -0.00112    0.00569   -0.02782
 13 C     0.02288   -0.01715    0.02759
 14 C     0.00750   -0.00795   -0.01525
 15 C     0.02668   -0.00561   -0.00302
 16 C    -0.01229   -0.01915    0.02618
 17 C     0.02649   -0.03500    0.01455
 18 C     0.02873    0.05987    0.01918
 19 C     0.03408    0.02264   -0.03658
 20 C    -0.02403   -0.00714    0.03970
 21 C     0.00023   -0.02790    0.01438
 22 C    -0.01258    0.00716   -0.02289
 23 C     0.00019    0.00413    0.01471