User:   esb@s65n11.grendel.cscaa.dk
Date:   Thu Nov  9 09:32:27 2017
Arch:   x86_64
Pid:    74666
Python: 2.7.13
gpaw:   /home/esb/DFT/gpaw_git/gpaw
_gpaw:  /home/esb/DFT/gpaw_git/build/bin.linux-x86_64-2.7/gpaw-python
ase:    /home/esb/DFT/ase_git/ase (version 3.15.0b1)
numpy:  /comm/swstack/core/python/2.7.13/lib/python2.7/site-packages/numpy (version 1.13.3)
scipy:  /comm/swstack/core/python/2.7.13/lib/python2.7/site-packages/scipy (version 0.19.1)
units:  Angstrom and eV
cores:  16
Extra parameters: {'blacs': True}

Input parameters:
  basis: dzp
  gpts: [80 80 48]
  kpts: [1 1 1]
  maxiter: 99
  mixer: {backend: pulay,
          beta: 0.05,
          method: separate,
          nmaxold: 5,
          weight: 75}
  mode: lcao
  nbands: -50
  occupations: {name: fermi-dirac,
                width: 0.1}
  poissonsolver: {eps: 1e-07,
                  name: fd,
                  nn: 3,
                  relax: GS}
  xc: PBE

System changes: positions, numbers, cell, pbc, initial_charges, initial_magmoms

Initialize ...

C-setup:
  name: Carbon
  id: 4aa54d4b901d75f77cc0ea3eec22967b
  Z: 6
  valence: 4
  core: 2
  charge: 0.0
  file: /home/esb/DFT/gpaw-setups-0.8.7929/C.PBE.gz
  cutoffs: 0.64(comp), 1.14(filt), 1.14(core), lmax=2
  valence states:
                energy  radius
    2s(2.00)   -13.751   0.635
    2p(2.00)    -5.284   0.635
    *s          13.461   0.635
    *p          21.927   0.635
    *d           0.000   0.635

  LCAO basis set for C:
    Name: dzp
    File: /home/esb/DFT/gpaw-setups-0.8.7929/C.dzp.basis.gz
    Number of radial functions: 5
    Number of spherical harmonics: 13
      l=0, rc=5.5469 Bohr: 2s-sz confined orbital
      l=1, rc=6.6719 Bohr: 2p-sz confined orbital
      l=0, rc=3.0312 Bohr: 2s-dz split-valence wave
      l=1, rc=3.7500 Bohr: 2p-dz split-valence wave
      l=2, rc=6.6719 Bohr: d-type Gaussian polarization

Reference energy: -24663.074771

Spin-paired calculation

Occupation numbers:
  Fermi-Dirac: width=0.1000 eV

Convergence criteria:
  Maximum total energy change: 0.0005 eV / electron
  Maximum integral of absolute density change: 0.0001 electrons
  Maximum integral of absolute eigenstate change: 4e-08 eV^2
  Maximum number of iterations: 99

Symmetries present (total): 1

  ( 1  0  0)
  ( 0  1  0)
  ( 0  0  1)

1 k-point (Gamma)
1 k-point in the irreducible part of the Brillouin zone
       k-points in crystal coordinates                weights
   0:     0.00000000    0.00000000    0.00000000          1/1

Wave functions: LCAO
  Diagonalizer: Serial LAPACK
  Atomic Correction: dense with blas
  Datatype: float
  Eigensolver: None

LCAO using direct dense diagonalizer

Densities:
  Coarse grid: 80*80*48 grid
  Fine grid: 160*160*96 grid
  Total Charge: 0.000000

Density mixing:
  Method: separate
  Backend: pulay
  Linear mixing parameter: 0.05
  Mixing with 5 old densities
  Damping of long wave oscillations: 75

Hamiltonian:
  XC and Coulomb potentials evaluated on a 160*160*96 grid
  Using the PBE Exchange-Correlation functional
  Interpolation: tri-quintic (5. degree polynomial)
  Poisson solver: Gauss-Seidel solver with 6 multi-grid levels
    Coarsest grid: 5 x 5 x 3 points
    Stencil: 6*3+1=19 point O(h^6) finite-difference Laplacian
    Max iterations: 1000
    Tolerance: 1.000000e-07

Total number of cores used: 16
Domain decomposition: 2 x 4 x 2

Number of atoms: 24
Number of atomic orbitals: 312
Number of bands in calculation: 98
Bands to converge: occupied states only
Number of valence electrons: 96

... initialized

Initializing position-dependent things.

Density initialized from atomic densities
  /        |         C C                          |
 *         |   C C  CC    C  C                    |
 |         | C             C    C                 |
 |         .-----C------C-------C-----------------.
 |        /      C C   C       C  C              /
 |       /         C     C  C                   /
 |      /             C                        /

Positions:
   0 C      5.041381   12.134258    4.838565
   1 C      3.405582    6.559922    5.598811
   2 C      6.274730    4.533318    4.862656
   3 C      7.567119    5.330725    4.779731
   4 C     11.052407    5.231061    4.462846
   5 C      5.116442    5.281668    4.997692
   6 C      8.668653    4.274082    4.628508
   7 C      7.906437    3.027591    4.639161
   8 C     10.005737    4.489879    4.508034
   9 C      6.640152    3.162008    4.770322
  10 C     12.041217    6.180850    4.463145
  11 C      4.732581    6.472788    5.059918
  12 C      7.625917    6.738184    4.833321
  13 C     11.075207    7.158035    4.579437
  14 C      8.744317    8.020017    5.153980
  15 C      6.569842   10.046205    5.224577
  16 C     10.366398    9.405956    4.387809
  17 C     10.796407    8.178112    4.309688
  18 C      7.809452   10.175471    4.986225
  19 C      9.016181    9.454922    4.850008
  20 C      5.511718    9.104155    5.462811
  21 C      3.621566    7.860868    5.596709
  22 C      6.146601    7.817678    5.591381
  23 C      4.067361    9.110587    5.528720

Unit cell:
           periodic     x           y           z      points  spacing
  1. axis:    yes   16.000000    0.000000    0.000000    80     0.2000
  2. axis:    yes    0.000000   16.000000    0.000000    80     0.2000
  3. axis:    yes    0.000000    0.000000   10.000000    48     0.2083

Effective grid spacing dv^(1/3) = 0.2027

                     log10-error:    total        iterations:
           time      wfs    density  energy       fermi  poisson
iter:   1  09:32:28          +inf  -170.758242    3      6
iter:   2  09:32:29         -0.84  -166.379874    3      3
iter:   3  09:32:30         -0.90  -168.953227    34     3
iter:   4  09:32:30         -0.82  -164.694435    3      2
iter:   5  09:32:31         -0.88  -163.674502    4      2
iter:   6  09:32:31         -0.94  -165.133436    5      3
iter:   7  09:32:32         -1.03  -163.277724    4      3
iter:   8  09:32:32         -1.09  -162.883640    5      3
iter:   9  09:32:33         -1.03  -162.430183    34     3
iter:  10  09:32:33         -1.23  -162.169141    3      3
iter:  11  09:32:34         -1.28  -161.989362    34     3
iter:  12  09:32:34         -1.45  -161.620689    3      3
iter:  13  09:32:35         -1.66  -161.486533    3      2
iter:  14  09:32:35         -1.88  -161.463758    3      2
iter:  15  09:32:36         -1.96  -161.459466    3      3
iter:  16  09:32:37         -2.10  -161.436534    3      2
iter:  17  09:32:37         -2.31  -161.427618    3      2
iter:  18  09:32:38         -2.58  -161.428189    3      2
iter:  19  09:32:38         -2.82  -161.430683    2      1
iter:  20  09:32:39         -2.90  -161.426314    3      2
iter:  21  09:32:39         -3.13  -161.427831    2      1
iter:  22  09:32:40         -3.21  -161.427084    2      1
iter:  23  09:32:40         -3.40  -161.422951    2      1
iter:  24  09:32:40         -3.49  -161.425739    2      1
iter:  25  09:32:41         -3.52  -161.426623    2      1
iter:  26  09:32:41         -3.58  -161.429962    2      1
iter:  27  09:32:42         -3.73  -161.428075    2      1
iter:  28  09:32:42         -3.87  -161.426821    2      1
iter:  29  09:32:43         -3.93  -161.426919    2      1
iter:  30  09:32:43         -4.03  -161.425643    2      1

Converged after 30 iterations.

Dipole moment: (-0.017217, 0.435307, -0.049857) |e|*Ang

Energy contributions relative to reference atoms: (reference = -24663.074771)

Kinetic:       +124.739627
Potential:     -124.705651
External:        +0.000000
XC:            -164.107652
Entropy (-ST):   -0.582170
Local:           +2.939119
Free energy:   -161.716728
Extrapolated:  -161.425643

Fermi level: -4.64523

 Band  Eigenvalues  Occupancy
    0    -22.39846    2.00000
    1    -22.21977    2.00000
    2    -21.96850    2.00000
    3    -21.26838    2.00000
    4    -20.77452    2.00000
    5    -19.82313    2.00000
    6    -19.67747    2.00000
    7    -19.07987    2.00000
    8    -18.45162    2.00000
    9    -18.35567    2.00000
   10    -17.27698    2.00000
   11    -16.84485    2.00000
   12    -16.41929    2.00000
   13    -15.65136    2.00000
   14    -14.98250    2.00000
   15    -14.54015    2.00000
   16    -13.68399    2.00000
   17    -13.13369    2.00000
   18    -13.08773    2.00000
   19    -12.62573    2.00000
   20    -12.17673    2.00000
   21    -11.86822    2.00000
   22    -11.54482    2.00000
   23    -11.20105    2.00000
   24    -10.69200    2.00000
   25    -10.31281    2.00000
   26    -10.12805    2.00000
   27    -10.01114    2.00000
   28     -9.94620    2.00000
   29     -9.78458    2.00000
   30     -9.43279    2.00000
   31     -9.13156    2.00000
   32     -9.00882    2.00000
   33     -8.42903    2.00000
   34     -7.73088    2.00000
   35     -7.47921    2.00000
   36     -7.30049    2.00000
   37     -7.16854    2.00000
   38     -6.82869    2.00000
   39     -6.28957    2.00000
   40     -6.10393    2.00000
   41     -5.86255    1.99999
   42     -5.68107    1.99994
   43     -5.35619    1.99837
   44     -5.23017    1.99425
   45     -5.15660    1.98804
   46     -4.73292    1.41234
   47     -4.67066    1.12645
   48     -4.59472    0.75268
   49     -4.54898    0.55273
   50     -4.40904    0.17224
   51     -3.98506    0.00271
   52     -3.74126    0.00024
   53     -3.51529    0.00002
   54     -3.23925    0.00000
   55     -2.88373    0.00000
   56     -2.63783    0.00000
   57     -1.74197    0.00000
   58     -1.42002    0.00000
   59     -0.91077    0.00000
[...]
   83      8.26801    0.00000
   84      8.32077    0.00000
   85      8.71607    0.00000
   86      8.77784    0.00000
   87      8.87198    0.00000
   88      9.04329    0.00000
   89      9.17946    0.00000
   90      9.26509    0.00000
   91      9.45581    0.00000
   92      9.61987    0.00000
   93      9.89471    0.00000
   94      9.92547    0.00000
   95     10.00073    0.00000
   96     10.07421    0.00000
   97     10.28452    0.00000

Forces in eV/Ang:
  0 C     0.45456   -1.19473    0.20114
  1 C    -1.91439    0.67394   -0.61002
  2 C    -0.49246    0.52880    0.07240
  3 C     0.22288    0.75828    0.29660
  4 C    -0.30896   -1.13633    0.15734
  5 C     4.39921   -5.66459   -1.07520
  6 C    -0.21951   -0.49167   -0.18007
  7 C     0.21541    0.17256   -0.01132
  8 C     0.26759    0.10270    0.01813
  9 C     0.06860   -0.10520   -0.05731
 10 C    -0.82833   -1.57223    0.45429
 11 C    -0.33744    3.79559    2.14945
 12 C     0.72362    5.40202    2.16314
 13 C     9.57609  -21.78686    4.58213
 14 C    -2.45840   -3.11522   -1.15702
 15 C    -1.30512    1.39625   -0.00977
 16 C    -2.39597    3.60704   -0.43026
 17 C    -6.48712   21.49338   -4.52529
 18 C     0.83958    0.22835    0.05967
 19 C    -0.58908   -1.72590   -0.00807
 20 C     0.90925   -0.91887   -0.44915
 21 C    -1.14351    2.34752    0.62827
 22 C    -0.28158   -3.67067   -2.91745
 23 C     1.03238    0.85423    0.56628

System changes: positions

[...]

Density initialized from wave functions
  /        |         C C                          |
 *         |   C C  CC    C  C                    |
[...]
 |         .-----C------C-------CC----------------.
 |        /      C C   C       C  C              /
 |       /         C     C  C                   /
 |      /             C                        /

[...]

Density initialized from wave functions
  /        |         C C                          |
 *         |   C C  C     C  C                    |
 |         | C      C      C    C                 |
 |         .-----C------C--------C----------------.
 |        /      C C   C       C  C              /
 |       /         C     C  C                   /
 |      /             C                        /

[...]

Density initialized from wave functions
  /        |         C C                          |
 *         |   C C  C     C C                     |
 |         |  C     C      C    C                 |
 |         .-----C------C--------C----------------.
 |        /      C C   C       C  C              /
 |       /         C     C  C                   /
 |      /             C                        /

[...]

Density initialized from wave functions
  /        |         C C                          |
 *         |   C C  C     C C                     |
 |         |  C     C      C    C                 |
 |         .-----C-----C---------C----------------.
 |        /      C C   C       C  C              /
 |       /         C     C  C                   /
 |      /             C                        /

[...]

Density initialized from wave functions
  /        |         C C                          |
 *         |   C C  C     C C                     |
 |         |  C     C      C    C                 |
 |         .-----C-----C---------C----------------.
 |        /      C C   C       C  C              /
 |       /         C     C  C                   /
 |      /             C                        /

[...]

Density initialized from wave functions
  /        |         C C                          |
 *         |   C C  C     C C                     |
 |         |  C     C      C    CC                |
 |         .-----C-----C----------C---------------.
 |        /      C C   C       C  C              /
 |       /         C     C  C                   /
 |      /             C                        /

[...]

Density initialized from wave functions
  /        |         C C                          |
 *         |   C C  C     C C                     |
 |         |  C     C      C    CC                |
 |         .-----C-----C----------C---------------.
 |        /      C C   C       C  C              /
 |       /         C     C  C                   /
 |      /             C                        /

[...]

Density initialized from wave functions
  /        |         C C                          |
 *         |   C C  C     C C                     |
 |         |  C     C      C    CC                |
 |         .-----C-----C----------C---------------.
 |        /      C C   C          C              /
 |       /         C     C  C  C                /
 |      /             C                        /

[...]

Density initialized from wave functions
  /        |         C C                          |
 *         |   C C  C     C C                     |
 |         |  C     C      C    CC                |
 |         .-----C-----C----------C---------------.
 |        /      C C   C          C              /
 |       /         C     C  C  C                /
 |      /             C                        /

[...]

Density initialized from wave functions
  /        |     C   C C                          |
 *         |   C    C     C C                     |
 |         |  C     C     C     CC                |
 |         .-----C-----C----------C---------------.
 |        /      C C   C          C              /
 |       /         C     C  C  C                /
 |      /             C                        /

[...]

Density initialized from wave functions
  /        |     C   C C                          |
 *         |   C    C     C C                     |
 |         |  C     C     C     CC                |
 |         .-----C-----C----------C---------------.
 |        /      C C   C          C              /
 |       /         C     C  C  C                /
 |      /             C                        /

[...]

Density initialized from wave functions
  /        |     C   C C                          |
 *         |   C    C     C                       |
 |         |  C     C     C C   CC                |
 |         .-----C-----C----------C---------------.
 |        /      C C   C          C              /
 |       /         C     C  C  C                /
 |      /             C                        /

[...]

Density initialized from wave functions
  /        |      C C  C                          |
 *         |   C    C     C                       |
 |         |  C     C     C C   CC                |
 |         .-----C-----C----------C---------------.
 |        /      C C   C          C              /
 |       /         C     C  C  C                /
 |      /             C                        /

[...]

Density initialized from wave functions
  /        |      C C  C                          |
 *         |   C    C     C                       |
 |         |  C     C     C C   CC                |
 |         .-----C-----C-----------C--------------.
 |        /      C C   C          C              /
 |       /         C     C  C  C                /
 |      /             C                        /

[...]

Density initialized from wave functions
  /        |      C C  C                          |
 *         |   C    C     C                       |
 |         |  C     C     C C   CC                |
 |         .-----C-----C-----------C--------------.
 |        /      C C   C          C              /
 |       /         C     C  C  C                /
 |      /             C                        /

[...]

Density initialized from wave functions
  /        |      C C  C                          |
 *         |   C    C     C                       |
 |         |  C     C     C C   C C               |
 |         .-----C-----C-----------C--------------.
 |        /      C C   C          C              /
 |       /         C     C  C  C                /
 |      /             C                        /

[...]

Density initialized from wave functions
  /        |      C C                             |
 *         |   C    C  C  C                       |
 |         |  C     C     C C   C C               |
 |         .-----C-----C-----------C--------------.
 |        /      C C   C          C              /
 |       /         C     C  C  C                /
 |      /              C                       /

[...]

Density initialized from wave functions
  /        |      C C                             |
 *         |   C    C  C  C                       |
 |         |  C     C     C C   C C               |
 |         .-----C-----C-----------C--------------.
 |        /      C C   C          C              /
 |       /         C     C  C  C                /
 |      /              C                       /

[...]

Density initialized from wave functions
  /        |      C C                             |
 *         |   C    C  C  C                       |
 |         |  C     C     C C   C C               |
 |         .-----C-----C-----------C--------------.
 |        /      C C   C       C  C              /
 |       /         C     C  C                   /
 |      /              C                       /

[...]

Density initialized from wave functions
  /        |      C C                             |
 *         |   C    C  C  C                       |
 |         |  C     C     C C   C C               |
 |         .-----C-----C-----------C--------------.
 |        /     C  C   C       C  C              /
 |       /         C     C  C                   /
 |      /             C                        /

[...]

Density initialized from wave functions
  /        |      C C                             |
 *         |   C    C  C  C                       |
 |         |  C     C     C C   C C               |
 |         .-----C-----C-----------C--------------.
 |        /     C  C   C    C  C  C              /
 |       /         C     C                      /
 |      /             C                        /

[...]

Density initialized from wave functions
  /        |      C C                             |
 *         |   C    C  C  C                       |
 |         |  C     C     C C   C C               |
 |         .-----C-----C-----------C--------------.
 |        /     C  C  C     C  C  C              /
 |       /         C     C                      /
 |      /             C                        /

[...]

Density initialized from wave functions
  /        |      C C                             |
 *         |   C    C  C  C                       |
 |         |  C     C     C C   C C               |
 |         .----C------C-----------C--------------.
 |        /     C  C  C     C  C  C              /
 |       /         C  C  C                      /

[...]

Density initialized from wave functions
  /        |      C C                             |
 *         |   C    C  C  C                       |
 |         |  C     C     C C   C C               |
 |         .----C------C-----------C--------------.
 |        /     C  C  C     C  C  C              /
 |       /         C  C  C                      /

[...]

Density initialized from wave functions
  /        |      C C                             |
 *         |   C    C  C  C                       |
 |         |  C     C     C C   C C               |
 |         .-----C-----C-----------C--------------.
 |        /     C  C  C     C  C  C              /
 |       /         C  C  C                      /

[...]

Density initialized from wave functions
  /        |      C C                             |
 *         |   C    C  C  C                       |
 |         |  C     C     C C   C C               |
 |         .-----C-----C-----------C--------------.
 |        /     C  C  C     C  C  C              /
 |       /         C  C  C                      /

[...]

Density initialized from wave functions
  /        |      C C                             |
 *         |   C    C  C  C                       |
 |         |  C     C     C C   C C               |
 |         .----C------C------------C-------------.
 |        /     C  C  C     C  C  C              /
 |       /         C  C  C                      /

[...]

System changes: positions

Initializing position-dependent things.

Density initialized from wave functions
  /        |      C C                             |
 *         |   C    C  C  C                       |
 |         |  C     C     C C   C C               |
 |         .----C------C------------C-------------.
 |        /     C  C  C     C  C  C              /
 |       /         C  C  C                      /

Positions:
   0 C      5.135155   10.554156    5.001931
   1 C      3.518718    7.287229    5.518744
   2 C      6.137364    4.579475    4.947633
   3 C      7.352912    5.424432    4.870645
   4 C     11.038623    5.308672    4.469376
   5 C      4.876461    5.109199    5.067718
   6 C      8.529919    4.498248    4.725463
   7 C      7.993316    3.153189    4.717448
   8 C      9.844156    4.895164    4.586795
   9 C      6.716215    3.240150    4.786766
  10 C     11.882664    6.335645    4.380726
  11 C      4.684132    6.493144    5.237322
  12 C      7.222144    6.859153    4.888800
  13 C     12.239966    7.563070    4.376665
  14 C      8.328957    7.723248    4.754591
  15 C      6.512508    9.912988    5.179936
  16 C     10.292186    9.235495    4.593619
  17 C     11.378100    8.609921    4.459421
  18 C      7.817013    9.892669    4.906159
  19 C      8.901278    8.993430    4.742513
  20 C      5.683939    8.733973    5.400198
  21 C      3.378287    8.538980    5.713727
  22 C      5.852580    7.382879    5.108070
  23 C      4.450727    9.448170    5.649078

Unit cell:
           periodic     x           y           z      points  spacing
  1. axis:    yes   16.000000    0.000000    0.000000    80     0.2000
  2. axis:    yes    0.000000   16.000000    0.000000    80     0.2000
  3. axis:    yes    0.000000    0.000000   10.000000    48     0.2083

Effective grid spacing dv^(1/3) = 0.2027

                     log10-error:    total        iterations:
           time      wfs    density  energy       fermi  poisson
iter:   1  09:42:43          +inf  -180.218292    2      5
iter:   2  09:42:44         -2.68  -180.218002    2      1
iter:   3  09:42:44         -2.81  -180.218288    1      1
iter:   4  09:42:45         -3.00  -180.218178    2      1
iter:   5  09:42:45         -3.14  -180.219140    2      1
iter:   6  09:42:46         -3.41  -180.218354    2      1
iter:   7  09:42:46         -3.55  -180.218340    2      1
iter:   8  09:42:47         -3.76  -180.218009    2      1
iter:   9  09:42:47         -3.86  -180.217880    2      1
iter:  10  09:42:48         -4.03  -180.217807    2      1

Converged after 10 iterations.

Dipole moment: (0.584758, 0.197300, 0.119219) |e|*Ang

Energy contributions relative to reference atoms: (reference = -24663.074771)

Kinetic:       +110.923351
Potential:     -118.176457
External:        +0.000000
XC:            -175.879340
Entropy (-ST):   -0.166417
Local:           +2.997848
Free energy:   -180.301015
Extrapolated:  -180.217807

Fermi level: -4.13608

 Band  Eigenvalues  Occupancy
    0    -23.24156    2.00000
    1    -22.14024    2.00000
    2    -21.38967    2.00000
    3    -21.08713    2.00000
    4    -20.86688    2.00000
    5    -19.94031    2.00000
    6    -19.72844    2.00000
    7    -19.12430    2.00000
    8    -18.47124    2.00000
    9    -18.35473    2.00000
   10    -17.72017    2.00000
   11    -17.04252    2.00000
   12    -16.41928    2.00000
   13    -16.21961    2.00000
   14    -15.15237    2.00000
   15    -15.08368    2.00000
   16    -14.44126    2.00000
   17    -13.65810    2.00000
   18    -13.43243    2.00000
   19    -13.09521    2.00000
   20    -12.61796    2.00000
   21    -12.34339    2.00000
   22    -11.83144    2.00000
   23    -11.59325    2.00000
   24    -11.11900    2.00000
   25    -10.64679    2.00000
   26    -10.35991    2.00000
   27    -10.08505    2.00000
   28     -9.84107    2.00000
   29     -9.78121    2.00000
   30     -9.64437    2.00000
   31     -9.42030    2.00000
   32     -9.22435    2.00000
   33     -9.05918    2.00000
   34     -8.47865    2.00000
   35     -7.84363    2.00000
   36     -7.53761    2.00000
   37     -7.42277    2.00000
   38     -7.02868    2.00000
   39     -6.62390    2.00000
   40     -6.26659    2.00000
   41     -5.92581    2.00000
   42     -5.66880    2.00000
   43     -5.62174    2.00000
   44     -5.49668    2.00000
   45     -5.11874    1.99989
   46     -4.72642    1.99455
   47     -4.32370    1.73435
   48     -3.94675    0.26174
   49     -3.57470    0.00727
   50     -3.44736    0.00204
   51     -3.17990    0.00014
   52     -2.91885    0.00001
   53     -2.78234    0.00000
   54     -2.60384    0.00000
   55     -2.06013    0.00000
   56     -1.50585    0.00000
   57     -1.29122    0.00000
   58     -0.63686    0.00000
   59     -0.47004    0.00000
[...]
   83      8.85500    0.00000
   84      8.91495    0.00000
   85      9.25168    0.00000
   86      9.34789    0.00000
   87      9.36351    0.00000
   88      9.48257    0.00000
   89      9.57916    0.00000
   90      9.63146    0.00000
   91      9.79703    0.00000
   92      9.83586    0.00000
   93     10.04420    0.00000
   94     10.16686    0.00000
   95     10.38349    0.00000
   96     10.48146    0.00000
   97     10.54733    0.00000

Forces in eV/Ang:
  0 C    -0.03071    0.03253   -0.02678
  1 C    -0.01458    0.02200   -0.01387
  2 C     0.02005    0.01965    0.01071
  3 C    -0.04434    0.00440    0.01313
  4 C     0.00691   -0.04511    0.00940
  5 C    -0.01001   -0.04432    0.00999
  6 C    -0.05973    0.03395   -0.03009
  7 C     0.01338   -0.00819   -0.00091
  8 C    -0.00078   -0.00326   -0.02521
  9 C    -0.02748   -0.03538    0.00221
 10 C     0.02197   -0.08336   -0.01839
 11 C    -0.01232   -0.03365    0.04815
 12 C     0.09485    0.00433    0.02019
 13 C     0.01737    0.04015   -0.00691
 14 C    -0.08303    0.03901   -0.01480
 15 C    -0.07270    0.00320    0.02524
 16 C     0.03294    0.01322    0.01468
 17 C     0.04336    0.04512    0.02468
 18 C    -0.00193    0.02145   -0.04455
 19 C    -0.03867   -0.05304    0.02396
 20 C     0.01826    0.01727    0.04940
 21 C    -0.02941    0.04018   -0.01651
 22 C     0.07989   -0.01181   -0.03495
 23 C     0.01146    0.02380    0.01936