User:   esb@s66n71.grendel.cscaa.dk
Date:   Wed Nov  8 14:12:59 2017
Arch:   x86_64
Pid:    9166
Python: 2.7.13
gpaw:   /home/esb/DFT/gpaw_git/gpaw
_gpaw:  /home/esb/DFT/gpaw_git/build/bin.linux-x86_64-2.7/gpaw-python
ase:    /home/esb/DFT/ase_git/ase (version 3.15.0b1)
numpy:  /comm/swstack/core/python/2.7.13/lib/python2.7/site-packages/numpy (version 1.13.3)
scipy:  /comm/swstack/core/python/2.7.13/lib/python2.7/site-packages/scipy (version 0.19.1)
units:  Angstrom and eV
cores:  16
Extra parameters: {'blacs': True}

Input parameters:
  basis: dzp
  gpts: [80 80 48]
  kpts: [1 1 1]
  maxiter: 99
  mixer: {backend: pulay,
          beta: 0.05,
          method: separate,
          nmaxold: 5,
          weight: 75}
  mode: lcao
  nbands: -50
  occupations: {name: fermi-dirac,
                width: 0.1}
  poissonsolver: {eps: 1e-07,
                  name: fd,
                  nn: 3,
                  relax: GS}
  xc: PBE

System changes: positions, numbers, cell, pbc, initial_charges, initial_magmoms

Initialize ...

C-setup:
  name: Carbon
  id: 4aa54d4b901d75f77cc0ea3eec22967b
  Z: 6
  valence: 4
  core: 2
  charge: 0.0
  file: /home/esb/DFT/gpaw-setups-0.8.7929/C.PBE.gz
  cutoffs: 0.64(comp), 1.14(filt), 1.14(core), lmax=2
  valence states:
                energy  radius
    2s(2.00)   -13.751   0.635
    2p(2.00)    -5.284   0.635
    *s          13.461   0.635
    *p          21.927   0.635
    *d           0.000   0.635

  LCAO basis set for C:
    Name: dzp
    File: /home/esb/DFT/gpaw-setups-0.8.7929/C.dzp.basis.gz
    Number of radial functions: 5
    Number of spherical harmonics: 13
      l=0, rc=5.5469 Bohr: 2s-sz confined orbital
      l=1, rc=6.6719 Bohr: 2p-sz confined orbital
      l=0, rc=3.0312 Bohr: 2s-dz split-valence wave
      l=1, rc=3.7500 Bohr: 2p-dz split-valence wave
      l=2, rc=6.6719 Bohr: d-type Gaussian polarization

Reference energy: -24663.074771

Spin-paired calculation

Occupation numbers:
  Fermi-Dirac: width=0.1000 eV

Convergence criteria:
  Maximum total energy change: 0.0005 eV / electron
  Maximum integral of absolute density change: 0.0001 electrons
  Maximum integral of absolute eigenstate change: 4e-08 eV^2
  Maximum number of iterations: 99

Symmetries present (total): 1

  ( 1  0  0)
  ( 0  1  0)
  ( 0  0  1)

1 k-point (Gamma)
1 k-point in the irreducible part of the Brillouin zone
       k-points in crystal coordinates                weights
   0:     0.00000000    0.00000000    0.00000000          1/1

Wave functions: LCAO
  Diagonalizer: Serial LAPACK
  Atomic Correction: dense with blas
  Datatype: float
  Eigensolver: None

LCAO using direct dense diagonalizer

Densities:
  Coarse grid: 80*80*48 grid
  Fine grid: 160*160*96 grid
  Total Charge: 0.000000

Density mixing:
  Method: separate
  Backend: pulay
  Linear mixing parameter: 0.05
  Mixing with 5 old densities
  Damping of long wave oscillations: 75

Hamiltonian:
  XC and Coulomb potentials evaluated on a 160*160*96 grid
  Using the PBE Exchange-Correlation functional
  Interpolation: tri-quintic (5. degree polynomial)
  Poisson solver: Gauss-Seidel solver with 6 multi-grid levels
    Coarsest grid: 5 x 5 x 3 points
    Stencil: 6*3+1=19 point O(h^6) finite-difference Laplacian
    Max iterations: 1000
    Tolerance: 1.000000e-07

Total number of cores used: 16
Domain decomposition: 2 x 4 x 2

Number of atoms: 24
Number of atomic orbitals: 312
Number of bands in calculation: 98
Bands to converge: occupied states only
Number of valence electrons: 96

... initialized

Initializing position-dependent things.

Density initialized from atomic densities
   /       |                C                     |
  /        |         C    C C                     |
 *         |       C       C                      |
 |         |  C C     C  C   C                    |
 |         .-C-CC--C--------CC-CC-C---------------.
 |        /           C                          /
 |       /          C                           /

Positions:
   0 C      8.139543   10.745565    5.723419
   1 C      7.003593    6.065078    4.286466
   2 C      6.626205    4.672797    4.591015
   3 C      7.737923    8.330260    4.995192
   4 C      5.383293   10.571835    5.119725
   5 C      3.304650    7.300285    5.502072
   6 C      4.638000    5.800956    5.028252
   7 C      3.391418    5.779862    5.471643
   8 C      6.838479    6.774880    5.710570
   9 C      4.024442    6.852453    4.699725
  10 C      9.662234    4.899795    5.541850
  11 C      7.618944    9.796428    5.577490
  12 C      8.465273    8.938614    5.504510
  13 C     11.853898    6.944205    4.755890
  14 C      7.713669    4.261302    4.918215
  15 C      6.908290    3.091672    4.738663
  16 C      5.871907    5.516188    5.051436
  17 C      8.050711   11.329301    4.603531
  18 C     11.165826    6.265911    5.382650
  19 C     11.063384    4.781553    5.465914
  20 C      3.836020    8.834338    4.744601
  21 C      9.152659    9.064437    4.551959
  22 C      9.748203    6.019453    5.609626
  23 C      5.317961    7.516538    5.728759

Unit cell:
           periodic     x           y           z      points  spacing
  1. axis:    yes   16.000000    0.000000    0.000000    80     0.2000
  2. axis:    yes    0.000000   16.000000    0.000000    80     0.2000
  3. axis:    yes    0.000000    0.000000   10.000000    48     0.2083

Effective grid spacing dv^(1/3) = 0.2027

                     log10-error:    total        iterations:
           time      wfs    density  energy       fermi  poisson
iter:   1  14:13:01          +inf  -126.749400    2      6
iter:   2  14:13:02         -0.79  -121.550018    4      3
iter:   3  14:13:02         -0.87  -120.076923    4      3
iter:   4  14:13:03         -0.86  -118.751325    4      2
iter:   5  14:13:04         -0.91  -117.844808    3      3
iter:   6  14:13:04         -0.97  -116.289002    34     4
iter:   7  14:13:05         -1.13  -115.026941    3      2
iter:   8  14:13:05         -1.28  -114.872585    3      3
iter:   9  14:13:06         -1.44  -114.755591    3      3
iter:  10  14:13:07         -1.55  -114.689926    3      3
iter:  11  14:13:07         -1.68  -114.656300    2      3
iter:  12  14:13:08         -1.82  -114.630959    3      2
iter:  13  14:13:08         -1.98  -114.619637    3      2
iter:  14  14:13:09         -2.10  -114.609873    3      2
iter:  15  14:13:10         -2.24  -114.607197    2      2
iter:  16  14:13:10         -2.36  -114.600910    2      2
iter:  17  14:13:11         -2.62  -114.604234    2      2
iter:  18  14:13:11         -2.72  -114.604973    2      2
iter:  19  14:13:12         -2.86  -114.602543    2      1
iter:  20  14:13:12         -2.94  -114.604510    2      2
iter:  21  14:13:13         -3.17  -114.602491    2      1
iter:  22  14:13:14         -3.32  -114.602846    2      1
iter:  23  14:13:14         -3.44  -114.606681    2      1
iter:  24  14:13:15         -3.56  -114.608454    2      1
iter:  25  14:13:15         -3.85  -114.605162    2      1
iter:  26  14:13:16         -3.89  -114.603195    2      1
iter:  27  14:13:16         -4.00  -114.604658    2      1
iter:  28  14:13:17         -4.12  -114.604319    2      1

Converged after 28 iterations.

Dipole moment: (-0.694706, -0.185208, 0.607435) |e|*Ang

Energy contributions relative to reference atoms: (reference = -24663.074771)

Kinetic:       +342.211865
Potential:     -269.742702
External:        +0.000000
XC:            -189.759361
Entropy (-ST):   -0.496526
Local:           +2.934142
Free energy:   -114.852582
Extrapolated:  -114.604319

Fermi level: -4.68956

 Band  Eigenvalues  Occupancy
    0    -28.98059    2.00000
    1    -28.40059    2.00000
    2    -26.73087    2.00000
    3    -25.09412    2.00000
    4    -23.54098    2.00000
    5    -22.93855    2.00000
    6    -20.85357    2.00000
    7    -19.76746    2.00000
    8    -19.55564    2.00000
    9    -19.41512    2.00000
   10    -18.32823    2.00000
   11    -17.17136    2.00000
   12    -16.13517    2.00000
   13    -15.86160    2.00000
   14    -14.88386    2.00000
   15    -14.43793    2.00000
   16    -14.24937    2.00000
   17    -14.19977    2.00000
   18    -13.92925    2.00000
   19    -13.66438    2.00000
   20    -13.05115    2.00000
   21    -12.72331    2.00000
   22    -12.54015    2.00000
   23    -11.38134    2.00000
   24    -11.16865    2.00000
   25    -11.04158    2.00000
   26    -10.62523    2.00000
   27    -10.47494    2.00000
   28     -9.75279    2.00000
   29     -9.49483    2.00000
   30     -9.13552    2.00000
   31     -8.72862    2.00000
   32     -8.42734    2.00000
   33     -8.03730    2.00000
   34     -7.92247    2.00000
   35     -7.56215    2.00000
   36     -7.52143    2.00000
   37     -7.17415    2.00000
   38     -6.89203    2.00000
   39     -6.61496    2.00000
   40     -6.53145    2.00000
   41     -6.40187    2.00000
   42     -5.70037    1.99992
   43     -5.33875    1.99697
   44     -5.29981    1.99554
   45     -4.97667    1.89280
   46     -4.83973    1.63566
   47     -4.81768    1.56530
   48     -4.58964    0.53820
   49     -4.46476    0.19105
   50     -4.44311    0.15677
   51     -4.26008    0.02691
   52     -3.86811    0.00054
   53     -3.82151    0.00034
   54     -3.29646    0.00000
   55     -3.11064    0.00000
   56     -2.99184    0.00000
   57     -2.71531    0.00000
   58     -2.54765    0.00000
   59     -2.17375    0.00000
[...]
   83      7.29738    0.00000
   84      7.42685    0.00000
   85      7.73793    0.00000
   86      7.91367    0.00000
   87      8.24159    0.00000
   88      8.34028    0.00000
   89      8.63512    0.00000
   90      8.76308    0.00000
   91      8.97775    0.00000
   92      9.12722    0.00000
   93      9.13988    0.00000
   94      9.24350    0.00000
   95      9.35312    0.00000
   96      9.46490    0.00000
   97      9.57392    0.00000

Forces in eV/Ang:
  0 C    10.99309   27.44922    7.56174
  1 C     1.55291    4.47661   -0.59814
  2 C    -4.96319   -7.16134   -5.39792
  3 C   -24.21851  -19.98320  -16.36595
  4 C     0.18953   -2.48753    0.07475
  5 C   -12.29980    9.10998   13.12999
  6 C     2.42481   -7.88284    0.48519
  7 C    -7.65609   -3.28270    3.16760
  8 C    -1.79776    2.27258   -2.66372
  9 C    10.08031    6.15982  -16.80620
 10 C    -9.16034  -23.26076   -3.15560
 11 C   -25.85809  -14.23815    0.46786
 12 C    25.70207    3.85449   27.95458
 13 C    10.72361   10.59198   -9.35757
 14 C    16.09715   -9.53774    3.83082
 15 C     1.56606    2.22553   -0.23182
 16 C    -3.79559    4.34965    4.21852
 17 C     0.98422    3.60944   -4.51369
 18 C    -7.56253   -7.52404    7.97744
 19 C     1.56798   -0.79391    0.86653
 20 C     0.28428   -1.14729    0.70933
 21 C    11.83851    0.43681  -14.87727
 22 C     1.52903   21.03340    2.82356
 23 C     1.85644    1.84396    0.64756

System changes: positions

[...]

Density initialized from wave functions
   /       |                C                     |
  /        |         C    C C                     |
 *         |       C       C                      |
 |         |  C C     C  C   C                    |
[...]

[...]

Density initialized from wave functions
  /        |              C  CC                   |
 *         |     C  C  C    C                     |
 |         | C    C     C    C                    |
 |         .-C--C-----C----------C-C--------------.
 |        /C      C CC      C   C                /
 |       /            C  C                      /

[...]

Density initialized from wave functions
  /        |              C  CC                   |
 *         |     C  C  C    C                     |
 |         | C    C     C    C                    |
 |         C-C--C-----C----------C-C--------------.
 |        /       C CC      C   C                /
 |       /            C  C                      /

[...]

Density initialized from wave functions
  /        |              C  CC                   |
 *         |     C  C  C    C                     |
 |         |  C   C     C    C                    |
 |         C-C--C-----C----------C-C--------------.
 |        /       C CC      C   C                /
 |       /            C  C                      /

[...]

Density initialized from wave functions
  /        |              C  CC                   |
 *         |     C  C  C    C                     |
 |         |  C   C     C    C                    |
 |        C.-C--C-----C----------C-C--------------.
 |        /       C CC      C   C                /
 |       /            C  C                      /

[...]

Density initialized from wave functions
  /        |              C  CC                   |
 *         |     C  C  C    C                     |
 |         |  C   C     C    C                    |
 |        C.-C--C-----C----------C-C--------------.
 |        /       C CC      C   C                /
 |       /            C  C                      /

[...]

Density initialized from wave functions
  /        |              C  CC                   |
 *         |        C  C    C                     |
 |         |  C  CC     C    C                    |
 |        C.-C--C-----C----------C-C--------------.
 |        /       C CC      C   C                /
 |       /            C  C                      /

[...]

Density initialized from wave functions
  /        |              C  CC                   |
 *         |        C  C    C                     |
 |         |  C  CC     C     C                   |
 |        C.-C--C-----C----------C-C--------------.
 |        /       C CC      C   C                /
 |       /            C  C                      /

[...]

Density initialized from wave functions
  /        |              C  CC                   |
 *         |        C  C    C                     |
 |         |  C  C      C     C                   |
 |        C.-C--C-C---C----------C-C--------------.
 |        /       C CC      C   C                /
 |       /            C  C                      /

[...]

Density initialized from wave functions
  /        |              C  C C                  |
 *         |        C  C    C                     |
 |         |  C  C      C     C                   |
 |        C.-C--C-C---C----------C-C--------------.
 |        /       C CC      C   C                /
 |       /            C  C                      /

[...]

Density initialized from wave functions
   /       |                 C                    |
  /        |              C    C                  |
 *         |        C  C    C                     |
 |         |  C  C      C     C                   |
 |        C.-C--C-C---C----------C-C--------------.
 |        /       C CC      C   C                /
 |       /            C  C                      /

[...]

Density initialized from wave functions
  /        |              C  C C                  |
 *         |        C  C    C                     |
 |        C|  C  C      C     C                   |
 |         .-C--C-C---C----------C-C--------------.
 |        /       C CC      C   C                /
 |       /            C  C                      /

[...]

Density initialized from wave functions
  /        |              C  C C                  |
 *         |        C  C    C                     |
 |         |  C  C      C     C                   |
 |        C.-C--C-C---C----------C-C--------------.
 |        /       C CC      C   C                /
 |       /            C  C                      /

[...]

Density initialized from wave functions
  /        |              C  C C                  |
 *         |        C  C    C                     |
 |         |  C  C      C     C                   |
 |        C.-C--C-C---C----------C--C-------------.
 |        /       C CC      C   C                /
 |       /            C  C                      /

[...]

Density initialized from wave functions
  /        |              C  C C                  |
 *         |        C  C    C                     |
 |         |  C  C      C     C                   |
 |        C.-C--C-C---C----------C--C-------------.
 |        /       C CC      C   C                /
 |       /            C  C                      /

[...]

Density initialized from wave functions
  /        |              C  C C                  |
 *         |        C  C    C                     |
 |         |  C  C      C     C                   |
 |        C.-C--C-C---C----------C--C-------------.
 |        /       C CC   C  C   C                /
 |       /            C                         /

[...]

Density initialized from wave functions
  /        |              C  C C                  |
 *         |        C  C    C                     |
 |         |  C  C      C     C                   |
 |        C.-C--C-C---C----------C--C-------------.
 |        /       C CC   C  C   C                /
 |       /            C                         /

[...]

Density initialized from wave functions
  /        |              C  C C                  |
 *         |        C  C    C                     |
 |         |  C  C      C     C                   |
 |        C.-C--C-C--CC----------C--C-------------.
 |        /       C C    C  C   C                /
 |       /            C                         /

[...]

Density initialized from wave functions
  /        |              C  C C                  |
 *         |        C  C    C                     |
 |         |  C  C      C     C                   |
 |        C.-C--C-C--CC----------C--C-------------.
 |        /       C C    C  C   C                /
 |       /            C                         /

[...]

Density initialized from wave functions
  /        |              C  C C                  |
 *         |        C  CC   C                     |
 |         |  C  C            C                   |
 |        C.-C----C--CC----------C--C-------------.
 |        /     C C C    C  C   C                /
 |       /            C                         /

[...]

Density initialized from wave functions
  /        |              C  CC                   |
 *         |        C  CC   C                     |
 |         |  C  C            C                   |
 |        C.-C----C--CC----------C--C-------------.
 |        /     C C C    C  C   C                /
 |       /            C                         /

[...]

Density initialized from wave functions
  /        |              C  CC                   |
 *         |        C  CC   C                     |
 |         |  C  C            C                   |
 |        C.-C----C--CC----------C--C-------------.
 |        /     C C C    C  C   C                /
 |       /            C                         /

[...]

Density initialized from wave functions
   /       |              C                       |
  /        |                 CC                   |
 *         |        C  CC   C                     |
 |         |  C  C            C                   |
 |        C.-C----C--CC----------C--C-------------.
 |        /     C C C    C  C   C                /
 |       /            C                         /

[...]

Density initialized from wave functions
   /       |              C                       |
  /        |           C     CC                   |
 *         |        C   C   C                     |
 |         |  C  C            C                   |
 |        C.-C----C--CC-----------C-C-------------.
 |        /     C C C    C  C   C                /
 |       /            C                         /

[...]

Density initialized from wave functions
   /       |              C                       |
  /        |           C     CC                   |
 *         |        C   C   C                     |
 |         |  C  C            C                   |
 |        C.-C----C--CC-----------C-C-------------.
 |        /     C C C    C  C   C                /
 |       /            C                         /

[...]

Density initialized from wave functions
   /       |              C                       |
  /        |                 CC                   |
 *         |        C  CC   C                     |
 |         |  C  C            C                   |
 |        C.-C----C--CC----------C--C-------------.
 |        /     C C C    C  C   C                /
 |       /            C                         /

[...]

Density initialized from wave functions
   /       |              C  C                    |
  /        |                  C                   |
 *         |        C  CC   C                     |
 |         |  C  C            C                   |
 |        C.-C----C--CC----------C--C-------------.
 |        /     C C C    C  C   C                /
 |       /            C                         /

[...]

Density initialized from wave functions
   /       |              C  C                    |
  /        |                  C                   |
 *         |        C  CC   C                     |
 |         |  C  C            C                   |
 |        C.-C----C--CC----------C--C-------------.
 |        /     C C C    C  C   C                /
 |       /            C                         /

[...]

Density initialized from wave functions
   /       |              C  C                    |
  /        |                  C                   |
 *         |        C  CC   C                     |
 |         |  C  C            C                   |
 |        C.-C----C--CC-----------C-C-------------.
 |        /     C C C    C  C   C                /
 |       /            C                         /

[...]

System changes: positions

Initializing position-dependent things.

Density initialized from wave functions
   /       |              C  C                    |
  /        |                  C                   |
 *         |        C  CC   C                     |
 |         |  C  C            C                   |
 |        C.-C----C--CC-----------C-C-------------.
 |        /     C C C    C  C   C                /
 |       /            C                         /

Positions:
   0 C      8.594060   10.864063    5.643384
   1 C      6.813445    5.946828    4.849170
   2 C      6.743800    4.560613    4.898562
   3 C      7.389143    8.520347    5.163146
   4 C      5.148705    9.805877    5.114643
   5 C      3.069454    8.096044    4.845259
   6 C      4.500453    6.209387    4.681571
   7 C      3.120713    6.601593    4.724973
   8 C      6.616290    7.343744    4.910594
   9 C      1.890421    7.303645    4.804655
  10 C     10.163602    4.291790    5.393327
  11 C      6.556260    9.865652    5.249239
  12 C      9.359280    9.771684    5.606966
  13 C     12.603937    6.869948    5.039857
  14 C      8.968319    3.619763    5.248089
  15 C      7.719611    3.552776    5.113974
  16 C      5.504855    5.197097    4.725438
  17 C      7.322954   11.047169    5.504080
  18 C     11.845427    5.841816    5.452119
  19 C     11.571604    4.368406    5.328067
  20 C      4.401602    8.641442    4.901016
  21 C      8.759787    8.639790    5.379067
  22 C     10.457932    5.611701    5.923763
  23 C      5.209583    7.452334    4.782064

Unit cell:
           periodic     x           y           z      points  spacing
  1. axis:    yes   16.000000    0.000000    0.000000    80     0.2000
  2. axis:    yes    0.000000   16.000000    0.000000    80     0.2000
  3. axis:    yes    0.000000    0.000000   10.000000    48     0.2083

Effective grid spacing dv^(1/3) = 0.2027

                     log10-error:    total        iterations:
           time      wfs    density  energy       fermi  poisson
iter:   1  14:39:14          +inf  -175.324736    2      4
iter:   2  14:39:15         -2.69  -175.322893    2      1
iter:   3  14:39:15         -2.83  -175.322405    2      1
iter:   4  14:39:16         -2.94  -175.321714    3      1
iter:   5  14:39:16         -3.10  -175.321800    2      1
iter:   6  14:39:17         -3.18  -175.321856    2      2
iter:   7  14:39:17         -3.39  -175.321549    2      1
iter:   8  14:39:18         -3.61  -175.321694    2      1
iter:   9  14:39:18         -3.74  -175.321776    2      1
iter:  10  14:39:19         -3.92  -175.321765    2      1
iter:  11  14:39:19         -4.10  -175.321826    2      1

Converged after 11 iterations.

Dipole moment: (-0.234746, -0.563969, 0.018170) |e|*Ang

Energy contributions relative to reference atoms: (reference = -24663.074771)

Kinetic:       +110.247853
Potential:     -115.623770
External:        +0.000000
XC:            -172.724731
Entropy (-ST):   -0.291510
Local:           +2.924578
Free energy:   -175.467581
Extrapolated:  -175.321826

Fermi level: -4.35971

 Band  Eigenvalues  Occupancy
    0    -23.96761    2.00000
    1    -23.66436    2.00000
    2    -23.14696    2.00000
    3    -21.89867    2.00000
    4    -21.09173    2.00000
    5    -20.17343    2.00000
    6    -19.54757    2.00000
    7    -19.35106    2.00000
    8    -18.54588    2.00000
    9    -18.20201    2.00000
   10    -17.65895    2.00000
   11    -16.84095    2.00000
   12    -16.37440    2.00000
   13    -15.15965    2.00000
   14    -14.85219    2.00000
   15    -14.57231    2.00000
   16    -14.18321    2.00000
   17    -14.02050    2.00000
   18    -13.72849    2.00000
   19    -12.63495    2.00000
   20    -12.50497    2.00000
   21    -11.61022    2.00000
   22    -11.41263    2.00000
   23    -11.05041    2.00000
   24    -11.02445    2.00000
   25    -10.52861    2.00000
   26    -10.37907    2.00000
   27    -10.25139    2.00000
   28     -9.84879    2.00000
   29     -9.78101    2.00000
   30     -9.55002    2.00000
   31     -9.52459    2.00000
   32     -8.77612    2.00000
   33     -8.29749    2.00000
   34     -7.96240    2.00000
   35     -7.88274    2.00000
   36     -7.40141    2.00000
   37     -7.21098    2.00000
   38     -7.08579    2.00000
   39     -6.78137    2.00000
   40     -6.61093    2.00000
   41     -6.15022    2.00000
   42     -5.90127    2.00000
   43     -5.63586    1.99999
   44     -5.62704    1.99999
   45     -5.52821    1.99998
   46     -4.69231    1.93062
   47     -4.42571    1.31848
   48     -4.30867    0.75018
   49     -3.55072    0.00061
   50     -3.39040    0.00012
   51     -3.13029    0.00001
   52     -2.98126    0.00000
   53     -2.72559    0.00000
   54     -2.57418    0.00000
   55     -1.53876    0.00000
   56     -1.38002    0.00000
   57     -1.28749    0.00000
   58     -1.05955    0.00000
   59     -0.29459    0.00000
[...]
   83      8.58024    0.00000
   84      8.68798    0.00000
   85      8.91259    0.00000
   86      9.06925    0.00000
   87      9.11021    0.00000
   88      9.26947    0.00000
   89      9.39346    0.00000
   90      9.46391    0.00000
   91      9.60358    0.00000
   92      9.72876    0.00000
   93      9.81515    0.00000
   94      9.95187    0.00000
   95      9.97423    0.00000
   96     10.10173    0.00000
   97     10.20041    0.00000

Forces in eV/Ang:
  0 C     0.00993    0.03088    0.02094
  1 C    -0.02065    0.00668    0.05458
  2 C    -0.00985   -0.00415   -0.02911
  3 C    -0.06907   -0.03637    0.00680
  4 C     0.02242    0.00620   -0.00119
  5 C    -0.02979    0.01885    0.04788
  6 C     0.04041   -0.03391    0.01000
  7 C     0.02735    0.02441   -0.03387
  8 C     0.01868   -0.01046   -0.00369
  9 C    -0.03120   -0.02901   -0.04223
 10 C     0.03797    0.02504    0.03460
 11 C    -0.09468   -0.00973   -0.00959
 12 C    -0.00658    0.08865    0.03199
 13 C     0.00811   -0.04305    0.00401
 14 C    -0.05918    0.00897    0.00604
 15 C    -0.01495    0.01056   -0.01708
 16 C    -0.00274    0.01866    0.00776
 17 C     0.01352   -0.04628   -0.04793
 18 C     0.02155   -0.02549   -0.02347
 19 C    -0.00146   -0.01485   -0.00553
 20 C    -0.06069   -0.01321   -0.03022
 21 C    -0.02631    0.02753   -0.08746
 22 C     0.06409   -0.04780    0.04685
 23 C     0.03537    0.04091    0.03941