User:   esb@s65n22.grendel.cscaa.dk
Date:   Thu Nov  9 11:13:10 2017
Arch:   x86_64
Pid:    69291
Python: 2.7.13
gpaw:   /home/esb/DFT/gpaw_git/gpaw
_gpaw:  /home/esb/DFT/gpaw_git/build/bin.linux-x86_64-2.7/gpaw-python
ase:    /home/esb/DFT/ase_git/ase (version 3.15.0b1)
numpy:  /comm/swstack/core/python/2.7.13/lib/python2.7/site-packages/numpy (version 1.13.3)
scipy:  /comm/swstack/core/python/2.7.13/lib/python2.7/site-packages/scipy (version 0.19.1)
units:  Angstrom and eV
cores:  16
Extra parameters: {'blacs': True}

Input parameters:
  basis: dzp
  gpts: [80 80 48]
  kpts: [1 1 1]
  maxiter: 99
  mixer: {backend: pulay,
          beta: 0.05,
          method: separate,
          nmaxold: 5,
          weight: 75}
  mode: lcao
  nbands: -50
  occupations: {name: fermi-dirac,
                width: 0.1}
  poissonsolver: {eps: 1e-07,
                  name: fd,
                  nn: 3,
                  relax: GS}
  xc: PBE

System changes: positions, numbers, cell, pbc, initial_charges, initial_magmoms

Initialize ...

C-setup:
  name: Carbon
  id: 4aa54d4b901d75f77cc0ea3eec22967b
  Z: 6
  valence: 4
  core: 2
  charge: 0.0
  file: /home/esb/DFT/gpaw-setups-0.8.7929/C.PBE.gz
  cutoffs: 0.64(comp), 1.14(filt), 1.14(core), lmax=2
  valence states:
                energy  radius
    2s(2.00)   -13.751   0.635
    2p(2.00)    -5.284   0.635
    *s          13.461   0.635
    *p          21.927   0.635
    *d           0.000   0.635

  LCAO basis set for C:
    Name: dzp
    File: /home/esb/DFT/gpaw-setups-0.8.7929/C.dzp.basis.gz
    Number of radial functions: 5
    Number of spherical harmonics: 13
      l=0, rc=5.5469 Bohr: 2s-sz confined orbital
      l=1, rc=6.6719 Bohr: 2p-sz confined orbital
      l=0, rc=3.0312 Bohr: 2s-dz split-valence wave
      l=1, rc=3.7500 Bohr: 2p-dz split-valence wave
      l=2, rc=6.6719 Bohr: d-type Gaussian polarization

Reference energy: -24663.074771

Spin-paired calculation

Occupation numbers:
  Fermi-Dirac: width=0.1000 eV

Convergence criteria:
  Maximum total energy change: 0.0005 eV / electron
  Maximum integral of absolute density change: 0.0001 electrons
  Maximum integral of absolute eigenstate change: 4e-08 eV^2
  Maximum number of iterations: 99

Symmetries present (total): 1

  ( 1  0  0)
  ( 0  1  0)
  ( 0  0  1)

1 k-point (Gamma)
1 k-point in the irreducible part of the Brillouin zone
       k-points in crystal coordinates                weights
   0:     0.00000000    0.00000000    0.00000000          1/1

Wave functions: LCAO
  Diagonalizer: Serial LAPACK
  Atomic Correction: dense with blas
  Datatype: float
  Eigensolver: None

LCAO using direct dense diagonalizer

Densities:
  Coarse grid: 80*80*48 grid
  Fine grid: 160*160*96 grid
  Total Charge: 0.000000

Density mixing:
  Method: separate
  Backend: pulay
  Linear mixing parameter: 0.05
  Mixing with 5 old densities
  Damping of long wave oscillations: 75

Hamiltonian:
  XC and Coulomb potentials evaluated on a 160*160*96 grid
  Using the PBE Exchange-Correlation functional
  Interpolation: tri-quintic (5. degree polynomial)
  Poisson solver: Gauss-Seidel solver with 6 multi-grid levels
    Coarsest grid: 5 x 5 x 3 points
    Stencil: 6*3+1=19 point O(h^6) finite-difference Laplacian
    Max iterations: 1000
    Tolerance: 1.000000e-07

Total number of cores used: 16
Domain decomposition: 2 x 4 x 2

Number of atoms: 24
Number of atomic orbitals: 312
Number of bands in calculation: 98
Bands to converge: occupied states only
Number of valence electrons: 96

... initialized

Initializing position-dependent things.

Density initialized from atomic densities
    /      |          C                           |
   /       |       C        C C                   |
  /        |     C                                |
 *         |  C     C     C                       |
 |         | C     C     C  C  C  C               |
 |         .---C-------C--C-----C-----------------.
 |        /    C             C                   /
 |       /       C        C                     /
 |      /              C                       /

Positions:
   0 C      5.548347    3.356786    4.939193
   1 C      4.509351    4.021253    5.177771
   2 C      4.436854    5.364954    5.565157
   3 C      5.792656    6.002502    5.695625
   4 C      3.396027    6.249711    5.869571
   5 C      6.081774   10.034463    6.912614
   6 C      8.658455    9.887700    6.722931
   7 C      4.949593    9.500842    6.807264
   8 C      9.694564    9.229946    6.455859
   9 C      4.661639    8.191085    6.405778
  10 C      5.903413    7.396757    6.106901
  11 C      3.487354    7.449353    6.229489
  12 C      8.506659    2.388800    4.957102
  13 C      7.328004    6.296022    4.857131
  14 C     11.696070    7.853692    4.825233
  15 C      9.563954    3.231182    5.000110
  16 C     10.366456    8.193381    4.803702
  17 C      7.592231   10.028324    4.760504
  18 C     10.182441    4.327776    4.981103
  19 C      7.766382    8.661297    4.790218
  20 C      9.019146    7.923105    4.803826
  21 C     11.085112    6.648478    4.874300
  22 C      8.772627    6.485049    4.860486
  23 C     10.027241    5.726528    4.910660

Unit cell:
           periodic     x           y           z      points  spacing
  1. axis:    yes   16.000000    0.000000    0.000000    80     0.2000
  2. axis:    yes    0.000000   16.000000    0.000000    80     0.2000
  3. axis:    yes    0.000000    0.000000   10.000000    48     0.2083

Effective grid spacing dv^(1/3) = 0.2027

                     log10-error:    total        iterations:
           time      wfs    density  energy       fermi  poisson
iter:   1  11:13:12          +inf  -166.954802    2      6
iter:   2  11:13:13         -0.86  -164.296611    3      3
iter:   3  11:13:13         -0.91  -162.307087    3      3
iter:   4  11:13:14         -0.99  -161.809951    2      2
iter:   5  11:13:14         -1.02  -160.842370    32     3
iter:   6  11:13:15         -1.15  -160.568773    3      2
iter:   7  11:13:16         -1.21  -160.179377    4      3
iter:   8  11:13:16         -1.46  -160.207535    3      3
iter:   9  11:13:17         -1.62  -160.135042    3      3
iter:  10  11:13:17         -1.76  -160.115960    3      3
iter:  11  11:13:18         -1.90  -160.092646    3      2
iter:  12  11:13:19         -2.06  -160.087807    3      2
iter:  13  11:13:19         -2.17  -160.084067    3      2
iter:  14  11:13:20         -2.38  -160.076937    3      2
iter:  15  11:13:20         -2.58  -160.075787    3      2
iter:  16  11:13:21         -2.73  -160.075304    3      2
iter:  17  11:13:21         -2.81  -160.089536    3      1
iter:  18  11:13:22         -2.98  -160.075766    3      2
iter:  19  11:13:22         -3.20  -160.077233    2      1
iter:  20  11:13:23         -3.31  -160.079009    2      1
iter:  21  11:13:23         -3.44  -160.073158    2      1
iter:  22  11:13:24         -3.53  -160.071210    2      1
iter:  23  11:13:24         -3.69  -160.068685    2      1
iter:  24  11:13:25         -3.98  -160.073095    2      1
iter:  25  11:13:26         -4.05  -160.074758    2      1

Converged after 25 iterations.

Dipole moment: (0.487672, -0.460888, -0.281642) |e|*Ang

Energy contributions relative to reference atoms: (reference = -24663.074771)

Kinetic:        +99.176603
Potential:     -106.584132
External:        +0.000000
XC:            -155.215738
Entropy (-ST):   -0.570820
Local:           +2.833919
Free energy:   -160.360168
Extrapolated:  -160.074758

Fermi level: -5.13285

 Band  Eigenvalues  Occupancy
    0    -24.34697    2.00000
    1    -22.09648    2.00000
    2    -21.80432    2.00000
    3    -21.32733    2.00000
    4    -20.41493    2.00000
    5    -19.99689    2.00000
    6    -19.28087    2.00000
    7    -19.07256    2.00000
    8    -18.59406    2.00000
    9    -17.95805    2.00000
   10    -17.70516    2.00000
   11    -17.38774    2.00000
   12    -17.11199    2.00000
   13    -15.70514    2.00000
   14    -15.15984    2.00000
   15    -14.86770    2.00000
   16    -14.20841    2.00000
   17    -13.74960    2.00000
   18    -12.73177    2.00000
   19    -12.50162    2.00000
   20    -12.21388    2.00000
   21    -12.02788    2.00000
   22    -11.90524    2.00000
   23    -11.64464    2.00000
   24    -10.31142    2.00000
   25     -9.90209    2.00000
   26     -9.62301    2.00000
   27     -9.52779    2.00000
   28     -9.27662    2.00000
   29     -8.72067    2.00000
   30     -8.65918    2.00000
   31     -8.47465    2.00000
   32     -8.25028    2.00000
   33     -8.11282    2.00000
   34     -7.53045    2.00000
   35     -7.15091    2.00000
   36     -7.09210    2.00000
   37     -6.88113    2.00000
   38     -6.83663    2.00000
   39     -6.63290    2.00000
   40     -6.42232    1.99999
   41     -6.18081    1.99994
   42     -6.04104    1.99977
   43     -5.99478    1.99964
   44     -5.54576    1.96831
   45     -5.35037    1.79598
   46     -5.25290    1.53721
   47     -5.22072    1.41310
   48     -5.11909    0.93128
   49     -4.91457    0.20260
   50     -4.88171    0.15012
   51     -4.41814    0.00157
   52     -4.29369    0.00045
   53     -3.87214    0.00001
   54     -3.25925    0.00000
   55     -2.40271    0.00000
   56     -2.16733    0.00000
   57     -1.98134    0.00000
   58     -1.67353    0.00000
   59     -1.23860    0.00000
[...]
   83      7.82003    0.00000
   84      7.99411    0.00000
   85      8.45806    0.00000
   86      8.64324    0.00000
   87      8.70403    0.00000
   88      8.76602    0.00000
   89      8.81689    0.00000
   90      9.03220    0.00000
   91      9.15608    0.00000
   92      9.24611    0.00000
   93      9.41130    0.00000
   94      9.50088    0.00000
   95      9.66870    0.00000
   96      9.74967    0.00000
   97      9.78479    0.00000

Forces in eV/Ang:
  0 C     2.44493   -2.56183   -0.98991
  1 C    -1.94741    1.59577    0.50730
  2 C     1.03340   -1.43641   -0.57318
  3 C     2.74691    4.96594   -0.61640
  4 C    -0.02626   -0.88784   -0.21711
  5 C     3.60536    2.36470    0.05485
  6 C    -3.82959    1.95588   -0.12814
  7 C    -1.86314   -1.23366   -0.35315
  8 C     3.22657   -1.79648   -1.34552
  9 C     1.36017    0.69356    0.06253
 10 C    -1.18130   -3.81767   -1.56007
 11 C     0.17726    0.66185    0.36103
 12 C     0.31807   -0.42482    0.03709
 13 C    -2.84290   -0.46967    2.54229
 14 C     1.88148   -0.77085   -0.80880
 15 C    -1.51790   -2.43985    0.02244
 16 C    -0.04673    1.92595    2.47558
 17 C    -0.32143   -1.43428    1.16913
 18 C    -0.17805    3.72712   -0.14246
 19 C     0.74900    2.35212    0.41963
 20 C    -2.47068   -2.41291   -0.96635
 21 C     0.20845    0.95005    0.21391
 22 C    -2.51583    0.42436   -0.32104
 23 C     0.87751   -1.92023    0.14424

System changes: positions

[...]

Density initialized from wave functions
    /      |          C                           |
   /       |       C        C                     |
  /        |      C           C                   |
 *         |  C     C     C                       |
 |         | C     C     C  C  C  C               |
 |         .---C-------C--C-----C-----------------.
[...]
 |        /                 C                    /
 |       /      C C     C C                     /
 |      /            C                         /

[...]

Density initialized from wave functions
   /       |        C  C  C  C                    |
  /        |                    C                 |
 *         |   C  C       C    C                  |
 |         |  C     C       C    C                |
 |         .----C--C---C--C-----C-----------------.
 |        /                 C                    /
 |       /      C C     C C                     /
 |      /            C                         /

[...]

Density initialized from wave functions
   /       |        C C   C  C                    |
  /        |                    C                 |
 *         |   C  C       C    C                  |
 |         |  C     C       C    C                |
 |         .----C--C---C--C-----C-----------------.
 |        /    C            C                    /
 |       /        C     C  C                    /
 |      /            C                         /

[...]

Density initialized from wave functions
   /       |          C   C  C                    |
  /        |        C           C                 |
 *         |   C  C       C    C                  |
 |         |  C     C       C    C                |
 |         .----C--C---C--C-----C-----------------.
 |        /    C            C                    /
 |       /        C     C  C                    /
 |      /            C                         /

[...]

Density initialized from wave functions
   /       |          C   C  C                    |
  /        |        C           C                 |
 *         |   C  C       C    C                  |
 |         |  C     C       C    C                |
 |         .----C--C---C--C-----C-----------------.
 |        /    C            C                    /
 |       /        C     C  C                    /
 |      /            C                         /

[...]

Density initialized from wave functions
   /       |          C      C                    |
  /        |        C     C     C                 |
 *         |   C  C       C    C                  |
 |         |  C     C       C    C                |
 |         .----C--C---C--C-----C-----------------.
 |        /    C            C                    /
 |       /        C     C  C                    /
 |      /            C                         /

[...]

Density initialized from wave functions
   /       |           C     C                    |
  /        |        C     C     C                 |
 *         |   C  C      C     C                  |
 |         |  C     C       C    C                |
 |         .----C--C---C--C-----C-----------------.
 |        /    C            C                    /
 |       /        C     C  C                    /
 |      /            C                         /

[...]

Density initialized from wave functions
   /       |           C     C                    |
  /        |        C     C     C                 |
 *         |   C  C      C     C                  |
 |         |  C     C       C    C                |
 |         .----C--C---C--C-----C-----------------.
 |        /    C            C                    /
 |       /        C  C  C  C                    /

[...]

Density initialized from wave functions
   /       |           C     C                    |
  /        |        C     C    C                  |
 *         |   C  C      C     C                  |
 |         |  C      C      C    C                |
 |         .----C--C---C--C-----C-----------------.
 |        /     C           C                    /
 |       /        C  C  C  C                    /

[...]

Density initialized from wave functions
   /       |       C   C     C                    |
  /        |              C    C                  |
 *         |   C  C      C     C                  |
 |         |  C      C      C    C                |
 |         .----C--C---C--C-----C-----------------.
 |        /     C           C                    /
 |       /        C  C  C  C                    /

[...]

Density initialized from wave functions
   /       |       C   C     C                    |
  /        |              C    C                  |
 *         |   C  C      C     C                  |
 |         |  C      C     C     C                |
 |         .----C--C---C--C-----C-----------------.
 |        /     C           C                    /
 |       /        C  C  C  C                    /

[...]

Density initialized from wave functions
   /       |       C   C     C                    |
  /        |              C    C                  |
 *         |   C  C  C   C     C                  |
 |         |  C            C     C                |
 |         .----C---C--C--C-----C-----------------.
 |        /     C           C                    /
 |       /        C  C  C  C                    /

[...]

Density initialized from wave functions
   /       |       C  C      C                    |
  /        |             C     C                  |
 *         |   C  C  C   C     C                  |
 |         |  C            C     C                |
 |         .----C---C--C--C-----C-----------------.
 |        /     C           C                    /
 |       /        C  C  C  C                    /

[...]

Density initialized from wave functions
   /       |       C  C      C                    |
  /        |      C      C     C                  |
 *         |   C     C  C      C                  |
 |         |  C            C     C                |
 |         .----C---C--C--C-----C-----------------.
 |        /     C            C                   /
 |       /        C  C  C  C                    /

[...]

Density initialized from wave functions
   /       |       C  C      C                    |
  /        |      C      C     C                  |
 *         |   C     C  C      C                  |
 |         |  C            C     C                |
 |         .----C---C--C--C-----C-----------------.
 |        /     C            C                   /
 |       /        C  C  C  C                    /

[...]

Density initialized from wave functions
   /       |       C  C                           |
  /        |      C      C   C C                  |
 *         |   C     C  C      C                  |
 |         |  C            C     C                |
 |         .----C---C--C--C-----C-----------------.
 |        /     C            C                   /
 |       /        C  C  C  C                    /

[...]

Density initialized from wave functions
   /       |       C  C                           |
  /        |      C      C   C C                  |
 *         |   C     C  C      C                  |
 |         |  C            C     C                |
 |         .----C---C--C--C-----C-----------------.
 |        /     C            C                   /
 |       /        C  C  C  C                    /

[...]

Density initialized from wave functions
   /       |       C  C                           |
  /        |      C      C   C C                  |
 *         |   C     C  C      C                  |
 |         |  C            C     C                |
 |         .----C---C-----C-----C-----------------.
 |        /     C      C     C                   /
 |       /        C  C  C  C                    /

[...]

Density initialized from wave functions
   /       |       C  C                           |
  /        |      C      C  C  C                  |
 *         |   C     C  C     C                   |
 |         |  C            C     C                |
 |         .----C---C-----C-----C-----------------.
 |        /     C      C     C                   /
 |       /        C  C   C  C                   /

[...]

Density initialized from wave functions
   /       |       C  C                           |
  /        |      C      C  C  C                  |
 *         |   C     C  C                         |
 |         |  C            C  C  C                |
 |         .----C---C-----C-----C-----------------.
 |        /     C      C     C                   /
 |       /        C  C   C  C                   /

[...]

Density initialized from wave functions
   /       |       C  C                           |
  /        |      C      C  C                     |
 *         |   C     C  C     C                   |
 |         |  C            C  C  C                |
 |         .----C---C-----C-----C-----------------.
 |        /     C     C      C                   /
 |       /        C   C  C  C                   /

[...]

Density initialized from wave functions
   /       |       C  C                           |
  /        |      C      C  C C                   |
 *         |   C     C  C                         |
 |         |  C            C  C  C                |
 |         .----C---C-----C-----C-----------------.
 |        /     C     C      C                   /
 |       /        C   C  C  C                   /

[...]

Density initialized from wave functions
   /       |       C  C                           |
  /        |      C      C  C                     |
 *         |   C     C  C     C                   |
 |         |  C            C  C  C                |
 |         .----C---C-----C-----C-----------------.
 |        /     C     C      C                   /
 |       /        C  C   C  C                   /

[...]

Density initialized from wave functions
   /       |       C  C                           |
  /        |      C      C  C                     |
 *         |   C     C  C     C                   |
 |         |  C            C  C                   |
 |         .----C---C-----C-----C-----------------.
 |        /     C     C      C                   /
 |       /        C   C  C  C                   /

[...]

Density initialized from wave functions
   /       |       C  C                           |
  /        |      C      C  C                     |
 *         |   C     C  C     C                   |
 |         |  C            C  C                   |
 |         .----C---C-----C-----C-----------------.
 |        /     C     C      C                   /
 |       /        C   C C   C                   /

[...]

Density initialized from wave functions
   /       |       C  C                           |
  /        |      C      C  C                     |
 *         |   C     C  C     C                   |
 |         |  C            C  C                   |
 |         .----C---C-C---C-----C-----------------.
 |        /     C            C                   /
 |       /        C   C C   C                   /

[...]

System changes: positions

Initializing position-dependent things.

Density initialized from wave functions
   /       |       C  C                           |
  /        |      C      C  C                     |
 *         |   C     C  C     C                   |
 |         |  C            C  C                   |
 |         .----C---C-C---C-----C-----------------.
 |        /     C            C                   /
 |       /        C   C C  C                    /

Positions:
   0 C      6.160906    3.293192    5.022105
   1 C      5.074058    3.870498    5.271393
   2 C      4.864185    5.213633    5.606307
   3 C      6.130853    6.017827    5.542890
   4 C      3.763921    5.979511    6.009004
   5 C      6.029292   10.147191    6.415569
   6 C      8.484126   10.350889    5.618169
   7 C      4.998752    9.451524    6.597589
   8 C      9.544946    9.809216    5.220166
   9 C      4.835588    8.089000    6.317865
  10 C      6.107913    7.441844    5.851455
  11 C      3.762658    7.190000    6.346629
  12 C      7.427897    3.886245    4.952054
  13 C      7.386657    5.369438    5.188568
  14 C     10.893031    7.668977    4.683200
  15 C      8.724511    3.423681    4.701982
  16 C      9.779019    8.444564    5.020894
  17 C      7.271101    9.725831    5.927304
  18 C      9.771836    4.110709    4.604516
  19 C      7.311833    8.245459    5.677940
  20 C      8.550530    7.609942    5.248572
  21 C     10.947879    6.419231    4.573355
  22 C      8.601564    6.164413    5.065250
  23 C      9.904583    5.498357    4.723933

Unit cell:
           periodic     x           y           z      points  spacing
  1. axis:    yes   16.000000    0.000000    0.000000    80     0.2000
  2. axis:    yes    0.000000   16.000000    0.000000    80     0.2000
  3. axis:    yes    0.000000    0.000000   10.000000    48     0.2083

Effective grid spacing dv^(1/3) = 0.2027

                     log10-error:    total        iterations:
           time      wfs    density  energy       fermi  poisson
iter:   1  11:43:58          +inf  -188.427780    1      4
iter:   2  11:43:59         -3.03  -188.427693    1      1
iter:   3  11:44:00         -3.17  -188.427438    1      1
iter:   4  11:44:00         -3.88  -188.427740    1      1
iter:   5  11:44:01         -3.92  -188.427518    1      1
iter:   6  11:44:01         -3.76  -188.427454    1      1
iter:   7  11:44:02         -4.63  -188.427501    1      1

Converged after 7 iterations.

Dipole moment: (-0.001132, 0.008535, 0.002341) |e|*Ang

Energy contributions relative to reference atoms: (reference = -24663.074771)

Kinetic:       +116.652446
Potential:     -125.797517
External:        +0.000000
XC:            -182.343979
Entropy (-ST):   -0.000400
Local:           +3.061747
Free energy:   -188.427701
Extrapolated:  -188.427501

Fermi level: -4.17416

 Band  Eigenvalues  Occupancy
    0    -22.46458    2.00000
    1    -21.66668    2.00000
    2    -21.66345    2.00000
    3    -20.53992    2.00000
    4    -20.53927    2.00000
    5    -19.82858    2.00000
    6    -19.43077    2.00000
    7    -18.85404    2.00000
    8    -18.00351    2.00000
    9    -17.99468    2.00000
   10    -17.65994    2.00000
   11    -17.64760    2.00000
   12    -15.65709    2.00000
   13    -15.65300    2.00000
   14    -15.08931    2.00000
   15    -14.84315    2.00000
   16    -14.84085    2.00000
   17    -13.30647    2.00000
   18    -12.51372    2.00000
   19    -12.48180    2.00000
   20    -12.46809    2.00000
   21    -12.43340    2.00000
   22    -12.11195    2.00000
   23    -11.36621    2.00000
   24    -11.35932    2.00000
   25    -10.84047    2.00000
   26    -10.82539    2.00000
   27    -10.37035    2.00000
   28     -9.76453    2.00000
   29     -9.49958    2.00000
   30     -9.49197    2.00000
   31     -9.36191    2.00000
   32     -9.34150    2.00000
   33     -8.28569    2.00000
   34     -8.28298    2.00000
   35     -7.81819    2.00000
   36     -6.89966    2.00000
   37     -6.69344    2.00000
   38     -6.48949    2.00000
   39     -6.41993    2.00000
   40     -6.41981    2.00000
   41     -6.29313    2.00000
   42     -6.28894    2.00000
   43     -6.18577    2.00000
   44     -6.16359    2.00000
   45     -6.13284    2.00000
   46     -5.17884    1.99991
   47     -5.17284    1.99991
   48     -3.17985    0.00010
   49     -3.09702    0.00004
   50     -3.09215    0.00004
   51     -2.64533    0.00000
   52     -2.46044    0.00000
   53     -2.45018    0.00000
   54     -2.19892    0.00000
   55     -2.19497    0.00000
   56     -1.06887    0.00000
   57     -1.05580    0.00000
   58     -0.90436    0.00000
   59      0.59469    0.00000
[...]
   83      9.35971    0.00000
   84      9.37221    0.00000
   85      9.37520    0.00000
   86      9.38149    0.00000
   87      9.50008    0.00000
   88      9.83682    0.00000
   89      9.83955    0.00000
   90      9.96268    0.00000
   91      9.96890    0.00000
   92      9.97414    0.00000
   93     10.24657    0.00000
   94     10.52678    0.00000
   95     10.53056    0.00000
   96     10.55503    0.00000
   97     10.86454    0.00000

Forces in eV/Ang:
  0 C     0.03643    0.03685   -0.00088
  1 C    -0.07199    0.03283    0.06027
  2 C     0.02048   -0.01611    0.01252
  3 C     0.01694   -0.00224   -0.02904
  4 C     0.02180    0.01769    0.05078
  5 C    -0.02767    0.00516   -0.00166
  6 C    -0.00577    0.04213    0.02696
  7 C     0.03326    0.00164   -0.05713
  8 C    -0.03538   -0.01148    0.04528
  9 C    -0.01016    0.01304    0.00224
 10 C     0.00676    0.02478   -0.03084
 11 C     0.01429   -0.01787   -0.02455
 12 C    -0.02064    0.02258   -0.02494
 13 C    -0.00084    0.02046    0.02010
 14 C     0.00157   -0.02554   -0.00252
 15 C     0.04166    0.01989   -0.02933
 16 C    -0.01977   -0.01269   -0.00314
 17 C    -0.00624   -0.02462    0.02824
 18 C     0.03646    0.00414   -0.01876
 19 C    -0.02403   -0.06147   -0.04030
 20 C    -0.02434    0.01007    0.00899
 21 C     0.00447   -0.04348   -0.03007
 22 C     0.02092    0.01210    0.01577
 23 C    -0.03221    0.02699    0.00470