User:   esb@s65n82.grendel.cscaa.dk
Date:   Thu Nov  9 11:33:19 2017
Arch:   x86_64
Pid:    66160
Python: 2.7.13
gpaw:   /home/esb/DFT/gpaw_git/gpaw
_gpaw:  /home/esb/DFT/gpaw_git/build/bin.linux-x86_64-2.7/gpaw-python
ase:    /home/esb/DFT/ase_git/ase (version 3.15.0b1)
numpy:  /comm/swstack/core/python/2.7.13/lib/python2.7/site-packages/numpy (version 1.13.3)
scipy:  /comm/swstack/core/python/2.7.13/lib/python2.7/site-packages/scipy (version 0.19.1)
units:  Angstrom and eV
cores:  16
Extra parameters: {'blacs': True}

Input parameters:
  basis: dzp
  gpts: [80 80 48]
  kpts: [1 1 1]
  maxiter: 99
  mixer: {backend: pulay,
          beta: 0.05,
          method: separate,
          nmaxold: 5,
          weight: 75}
  mode: lcao
  nbands: -50
  occupations: {name: fermi-dirac,
                width: 0.1}
  poissonsolver: {eps: 1e-07,
                  name: fd,
                  nn: 3,
                  relax: GS}
  xc: PBE

System changes: positions, numbers, cell, pbc, initial_charges, initial_magmoms

Initialize ...

C-setup:
  name: Carbon
  id: 4aa54d4b901d75f77cc0ea3eec22967b
  Z: 6
  valence: 4
  core: 2
  charge: 0.0
  file: /home/esb/DFT/gpaw-setups-0.8.7929/C.PBE.gz
  cutoffs: 0.64(comp), 1.14(filt), 1.14(core), lmax=2
  valence states:
                energy  radius
    2s(2.00)   -13.751   0.635
    2p(2.00)    -5.284   0.635
    *s          13.461   0.635
    *p          21.927   0.635
    *d           0.000   0.635

  LCAO basis set for C:
    Name: dzp
    File: /home/esb/DFT/gpaw-setups-0.8.7929/C.dzp.basis.gz
    Number of radial functions: 5
    Number of spherical harmonics: 13
      l=0, rc=5.5469 Bohr: 2s-sz confined orbital
      l=1, rc=6.6719 Bohr: 2p-sz confined orbital
      l=0, rc=3.0312 Bohr: 2s-dz split-valence wave
      l=1, rc=3.7500 Bohr: 2p-dz split-valence wave
      l=2, rc=6.6719 Bohr: d-type Gaussian polarization

Reference energy: -24663.074771

Spin-paired calculation

Occupation numbers:
  Fermi-Dirac: width=0.1000 eV

Convergence criteria:
  Maximum total energy change: 0.0005 eV / electron
  Maximum integral of absolute density change: 0.0001 electrons
  Maximum integral of absolute eigenstate change: 4e-08 eV^2
  Maximum number of iterations: 99

Symmetries present (total): 1

  ( 1  0  0)
  ( 0  1  0)
  ( 0  0  1)

1 k-point (Gamma)
1 k-point in the irreducible part of the Brillouin zone
       k-points in crystal coordinates                weights
   0:     0.00000000    0.00000000    0.00000000          1/1

Wave functions: LCAO
  Diagonalizer: Serial LAPACK
  Atomic Correction: dense with blas
  Datatype: float
  Eigensolver: None

LCAO using direct dense diagonalizer

Densities:
  Coarse grid: 80*80*48 grid
  Fine grid: 160*160*96 grid
  Total Charge: 0.000000

Density mixing:
  Method: separate
  Backend: pulay
  Linear mixing parameter: 0.05
  Mixing with 5 old densities
  Damping of long wave oscillations: 75

Hamiltonian:
  XC and Coulomb potentials evaluated on a 160*160*96 grid
  Using the PBE Exchange-Correlation functional
  Interpolation: tri-quintic (5. degree polynomial)
  Poisson solver: Gauss-Seidel solver with 6 multi-grid levels
    Coarsest grid: 5 x 5 x 3 points
    Stencil: 6*3+1=19 point O(h^6) finite-difference Laplacian
    Max iterations: 1000
    Tolerance: 1.000000e-07

Total number of cores used: 16
Domain decomposition: 2 x 4 x 2

Number of atoms: 24
Number of atomic orbitals: 312
Number of bands in calculation: 98
Bands to converge: occupied states only
Number of valence electrons: 96

... initialized

Initializing position-dependent things.

Density initialized from atomic densities
 *        C|C  C                    C   C  C  C   |
 |         |      C  C C   C  C  C                |
 |         .---C--C--C----------------------------.
 |        /   C       C                          /
 |       /   C C      C                         /
 |      /        C  C  C                       /

Positions:
   0 C      7.144349    5.803821    4.487939
   1 C      7.606997    4.626565    4.444737
   2 C      6.475197    7.006545    4.592228
   3 C      9.499476    9.196423    4.361138
   4 C      5.904991    9.281721    4.540395
   5 C      8.327668    8.733507    4.318860
   6 C     13.234478   10.186743    4.950406
   7 C     10.748433    9.615024    4.515277
   8 C      6.997554    8.371475    4.410588
   9 C     11.954845    9.956724    4.720559
  10 C      7.326253    2.287908    4.711268
  11 C      6.266204    1.565548    5.038311
  12 C      4.214690    3.144905    5.337802
  13 C      8.152708    3.253540    4.429890
  14 C      5.136922    2.240345    5.233474
  15 C      4.187190    4.473572    5.215507
  16 C      5.161497    6.854795    4.894499
  17 C      4.415156    5.721384    5.084039
  18 C      4.736463    8.283314    4.961586
  19 C      1.050936    9.712789    5.163518
  20 C      3.437843    8.730295    5.114046
  21 C     14.530943   10.199512    4.904154
  22 C     15.834976   10.055833    5.068163
  23 C      2.293020    9.242548    5.189941

Unit cell:
           periodic     x           y           z      points  spacing
  1. axis:    yes   16.000000    0.000000    0.000000    80     0.2000
  2. axis:    yes    0.000000   16.000000    0.000000    80     0.2000
  3. axis:    yes    0.000000    0.000000   10.000000    48     0.2083

Effective grid spacing dv^(1/3) = 0.2027

                     log10-error:    total        iterations:
           time      wfs    density  energy       fermi  poisson
iter:   1  11:33:21          +inf  -187.766975    2      6
iter:   2  11:33:21         -0.91  -187.085724    4      3
iter:   3  11:33:22         -0.94  -184.329825    36     4
iter:   4  11:33:22         -1.19  -184.070518    34     4
iter:   5  11:33:23         -1.51  -183.972270    3      3
iter:   6  11:33:24         -1.62  -183.925846    4      3
iter:   7  11:33:24         -1.82  -183.914397    3      2
iter:   8  11:33:25         -1.89  -183.894694    3      2
iter:   9  11:33:25         -2.07  -183.885548    4      2
iter:  10  11:33:26         -2.41  -183.861098    3      2
iter:  11  11:33:26         -2.54  -183.862347    3      2
iter:  12  11:33:27         -2.66  -183.858537    2      1
iter:  13  11:33:27         -2.78  -183.856480    3      2
iter:  14  11:33:28         -3.08  -183.840729    3      1
iter:  15  11:33:28         -3.19  -183.853498    2      1
iter:  16  11:33:29         -3.44  -183.860538    2      1
iter:  17  11:33:29         -3.50  -183.860340    2      1
iter:  18  11:33:29         -3.58  -183.860777    2      1
iter:  19  11:33:30         -3.75  -183.860294    2      1
iter:  20  11:33:30         -3.95  -183.861734    2      1
iter:  21  11:33:31         -3.94  -183.859209    2      1
iter:  22  11:33:31         -4.08  -183.857292    2      1

Converged after 22 iterations.

Dipole moment: (13.187979, -0.694084, 0.073363) |e|*Ang

Energy contributions relative to reference atoms: (reference = -24663.074771)

Kinetic:       +105.690121
Potential:     -119.078581
External:        +0.000000
XC:            -173.409448
Entropy (-ST):   -0.299316
Local:           +3.090274
Free energy:   -184.006950
Extrapolated:  -183.857292

Fermi level: -4.69473

 Band  Eigenvalues  Occupancy
    0    -22.41386    2.00000
    1    -21.21236    2.00000
    2    -20.34502    2.00000
    3    -20.27420    2.00000
    4    -20.09756    2.00000
    5    -19.85479    2.00000
    6    -19.43955    2.00000
    7    -19.32350    2.00000
    8    -18.68948    2.00000
    9    -18.64275    2.00000
   10    -17.88457    2.00000
   11    -17.80086    2.00000
   12    -17.03088    2.00000
   13    -16.51675    2.00000
   14    -15.79670    2.00000
   15    -15.73917    2.00000
   16    -14.65378    2.00000
   17    -14.38269    2.00000
   18    -14.03949    2.00000
   19    -13.83401    2.00000
   20    -13.17509    2.00000
   21    -13.03616    2.00000
   22    -12.30251    2.00000
   23    -11.83286    2.00000
   24    -10.44022    2.00000
   25    -10.24251    2.00000
   26     -9.86352    2.00000
   27     -9.48354    2.00000
   28     -9.46958    2.00000
   29     -9.13427    2.00000
   30     -9.12916    2.00000
   31     -8.84669    2.00000
   32     -8.60076    2.00000
   33     -8.47810    2.00000
   34     -8.18980    2.00000
   35     -8.14225    2.00000
   36     -7.73428    2.00000
   37     -7.47025    2.00000
   38     -7.27054    2.00000
   39     -7.23922    2.00000
   40     -6.62663    2.00000
   41     -6.33341    2.00000
   42     -6.11092    2.00000
   43     -5.74101    1.99994
   44     -5.30601    1.99558
   45     -5.25104    1.99236
   46     -5.05863    1.94879
   47     -4.74640    1.25274
   48     -4.65637    0.81053
   49     -3.66075    0.00006
   50     -3.01995    0.00000
   51     -2.88161    0.00000
   52     -2.09181    0.00000
   53     -1.77641    0.00000
   54     -1.68204    0.00000
   55     -1.47293    0.00000
   56     -1.16496    0.00000
   57     -0.36875    0.00000
   58      0.37953    0.00000
   59      0.52698    0.00000
[...]
   83      8.62023    0.00000
   84      8.70345    0.00000
   85      8.82879    0.00000
   86      8.92697    0.00000
   87      8.95016    0.00000
   88      9.12749    0.00000
   89      9.23869    0.00000
   90      9.41516    0.00000
   91      9.53372    0.00000
   92      9.60241    0.00000
   93      9.67720    0.00000
   94      9.78069    0.00000
   95      9.83444    0.00000
   96      9.86026    0.00000
   97      9.91807    0.00000

Forces in eV/Ang:
  0 C     1.65694   -0.85940   -0.31580
  1 C     1.86771   -3.03352   -0.12145
  2 C     4.29187   -2.06200   -1.11227
  3 C    -0.12317   -0.09459   -0.00358
  4 C    -1.96566   -2.42732    0.93792
  5 C     0.30028    0.04041   -0.00081
  6 C     1.28726   -0.09285   -0.57375
  7 C    -0.11418    0.01010    0.09264
  8 C    -0.54120    0.16214    0.22410
  9 C     0.16275    0.07117    0.06472
 10 C    -0.31172    0.14356    0.12702
 11 C    -0.19575   -0.28342    0.03702
 12 C    -0.05457   -0.26811    0.02177
 13 C    -1.40626    3.82991    0.00082
 14 C     0.01608    0.00279   -0.03300
 15 C     0.18797    0.66566   -0.05567
 16 C    -3.54155    2.84053    0.87299
 17 C    -0.31593   -0.77093    0.15881
 18 C    -0.70736    2.35433   -0.67701
 19 C     1.15794   -0.41950   -0.02478
 20 C     1.77986   -0.60236   -0.09427
 21 C    -0.93957    0.02683    0.53574
 22 C    -1.02855    0.13355   -0.08729
 23 C    -1.42482    0.64325    0.06721

System changes: positions

[...]

Density initialized from wave functions
 *        C|C  C                    C   C  C  C   |
 |         |      C  C C   C  C  C                |
 |         .---C--C--C----------------------------.
 |        /   C       C                          /
 |       /   C C      C                         /
 |      /        C  C  C                       /

[...]

System changes: positions

Initializing position-dependent things.

Density initialized from wave functions
 *        C|C  C                    C   C  C  C   |
 |         |      C  C C   C  C  C                |
 |         .---C--C--C----------------------------.
 |        /   C        C                         /
 |       /   C C       C                        /
 |      /        C  C  C                       /

Positions:
   0 C      7.393753    5.785303    4.457067
   1 C      7.857876    4.599504    4.429315
   2 C      6.596772    6.889116    4.560813
   3 C      9.490919    9.191257    4.395049
   4 C      5.843616    9.089112    4.636005
   5 C      8.319539    8.741084    4.367992
   6 C     13.235858   10.181147    4.835089
   7 C     10.736632    9.633917    4.497382
   8 C      7.008391    8.319667    4.449669
   9 C     11.944535    9.984150    4.643444
  10 C      7.274765    2.307114    4.722866
  11 C      6.206141    1.579945    5.015363
  12 C      4.164821    3.160794    5.347074
  13 C      8.094443    3.284256    4.473272
  14 C      5.074221    2.245707    5.216287
  15 C      4.181425    4.491032    5.232785
  16 C      5.158149    6.874135    4.874404
  17 C      4.431249    5.732812    5.084271
  18 C      4.706913    8.296417    4.905043
  19 C      1.018280    9.713925    5.205495
  20 C      3.405676    8.733112    5.077421
  21 C     14.493343   10.206242    5.001241
  22 C     15.795164   10.040548    5.153407
  23 C      2.263067    9.246492    5.179399

Unit cell:
           periodic     x           y           z      points  spacing
  1. axis:    yes   16.000000    0.000000    0.000000    80     0.2000
  2. axis:    yes    0.000000   16.000000    0.000000    80     0.2000
  3. axis:    yes    0.000000    0.000000   10.000000    48     0.2083

Effective grid spacing dv^(1/3) = 0.2027

                     log10-error:    total        iterations:
           time      wfs    density  energy       fermi  poisson
iter:   1  11:36:04          +inf  -185.417708    3      4
iter:   2  11:36:05         -2.66  -185.411778    3      1
iter:   3  11:36:05         -3.23  -185.411230    2      1
iter:   4  11:36:06         -3.36  -185.413330    2      1
iter:   5  11:36:06         -3.40  -185.412900    3      1
iter:   6  11:36:06         -3.18  -185.411910    2      1
iter:   7  11:36:07         -3.60  -185.414629    3      1
iter:   8  11:36:07         -3.00  -185.412185    3      1
iter:   9  11:36:08         -4.14  -185.411641    2      1

Converged after 9 iterations.

Dipole moment: (15.876089, -0.827227, 0.016789) |e|*Ang

Energy contributions relative to reference atoms: (reference = -24663.074771)

Kinetic:       +111.442689
Potential:     -123.898193
External:        +0.000000
XC:            -175.921928
Entropy (-ST):   -0.209434
Local:           +3.070510
Free energy:   -185.516358
Extrapolated:  -185.411641

Fermi level: -4.60100

 Band  Eigenvalues  Occupancy
    0    -22.22019    2.00000
    1    -21.28824    2.00000
    2    -20.45041    2.00000
    3    -20.17141    2.00000
    4    -20.01851    2.00000
    5    -19.93922    2.00000
    6    -19.42330    2.00000
    7    -19.29108    2.00000
    8    -18.72684    2.00000
    9    -18.68279    2.00000
   10    -17.84322    2.00000
   11    -17.80944    2.00000
   12    -16.95152    2.00000
   13    -16.56137    2.00000
   14    -15.83586    2.00000
   15    -15.82776    2.00000
   16    -14.76344    2.00000
   17    -14.41737    2.00000
   18    -14.16932    2.00000
   19    -13.88651    2.00000
   20    -13.02897    2.00000
   21    -12.88678    2.00000
   22    -12.82577    2.00000
   23    -11.27790    2.00000
   24    -11.12771    2.00000
   25    -10.72069    2.00000
   26    -10.11032    2.00000
   27     -9.61604    2.00000
   28     -9.53815    2.00000
   29     -8.99781    2.00000
   30     -8.97307    2.00000
   31     -8.93475    2.00000
   32     -8.62695    2.00000
   33     -8.51633    2.00000
   34     -8.35847    2.00000
   35     -8.14136    2.00000
   36     -7.65071    2.00000
   37     -7.45111    2.00000
   38     -7.37635    2.00000
   39     -7.29896    2.00000
   40     -6.65701    2.00000
   41     -6.25614    2.00000
   42     -6.13897    2.00000
   43     -5.90940    2.00000
   44     -5.22392    1.99607
   45     -5.10823    1.98754
   46     -4.94798    1.93963
   47     -4.78612    1.72854
   48     -4.44532    0.34820
   49     -3.50327    0.00003
   50     -3.19594    0.00000
   51     -2.74242    0.00000
   52     -1.96548    0.00000
   53     -1.75661    0.00000
   54     -1.67806    0.00000
   55     -1.27124    0.00000
   56     -0.99892    0.00000
   57     -0.37133    0.00000
   58     -0.15210    0.00000
   59      0.50102    0.00000
[...]
   83      8.64460    0.00000
   84      8.81361    0.00000
   85      8.87622    0.00000
   86      9.09364    0.00000
   87      9.10852    0.00000
   88      9.14068    0.00000
   89      9.36545    0.00000
   90      9.49070    0.00000
   91      9.57327    0.00000
   92      9.75359    0.00000
   93      9.83102    0.00000
   94      9.87774    0.00000
   95      9.91743    0.00000
   96      9.93588    0.00000
   97     10.13971    0.00000

Forces in eV/Ang:
  0 C     0.08352   -0.03023    0.01413
  1 C     0.02968    0.03422    0.00738
  2 C    -0.02567   -0.01260    0.00698
  3 C    -0.04768    0.01319   -0.05453
  4 C     0.01139   -0.06940   -0.01635
  5 C    -0.01703    0.02257   -0.02845
  6 C     0.04141    0.02786   -0.00199
  7 C     0.01646    0.00935   -0.03315
  8 C     0.00132   -0.00606    0.07596
  9 C    -0.01905   -0.02502    0.00885
 10 C    -0.04360   -0.03862    0.01516
 11 C    -0.02687   -0.07161    0.01013
 12 C    -0.05385   -0.01442   -0.01215
 13 C     0.03201   -0.00571   -0.00936
 14 C     0.03082   -0.03601    0.01615
 15 C    -0.02734    0.03569   -0.00231
 16 C    -0.04811    0.03074    0.01958
 17 C    -0.04940   -0.04393    0.00835
 18 C    -0.01520    0.00899   -0.02014
 19 C     0.04730   -0.08435   -0.00923
 20 C     0.00051   -0.01175   -0.00374
 21 C     0.05812    0.02755    0.05641
 22 C     0.01557   -0.00152   -0.04699
 23 C     0.01230   -0.02538    0.02786