User:   esb@s65n11.grendel.cscaa.dk
Date:   Thu Nov  9 11:42:36 2017
Arch:   x86_64
Pid:    77539
Python: 2.7.13
gpaw:   /home/esb/DFT/gpaw_git/gpaw
_gpaw:  /home/esb/DFT/gpaw_git/build/bin.linux-x86_64-2.7/gpaw-python
ase:    /home/esb/DFT/ase_git/ase (version 3.15.0b1)
numpy:  /comm/swstack/core/python/2.7.13/lib/python2.7/site-packages/numpy (version 1.13.3)
scipy:  /comm/swstack/core/python/2.7.13/lib/python2.7/site-packages/scipy (version 0.19.1)
units:  Angstrom and eV
cores:  16
Extra parameters: {'blacs': True}

Input parameters:
  basis: dzp
  gpts: [80 80 48]
  kpts: [1 1 1]
  maxiter: 99
  mixer: {backend: pulay,
          beta: 0.05,
          method: separate,
          nmaxold: 5,
          weight: 75}
  mode: lcao
  nbands: -50
  occupations: {name: fermi-dirac,
                width: 0.1}
  poissonsolver: {eps: 1e-07,
                  name: fd,
                  nn: 3,
                  relax: GS}
  xc: PBE

System changes: positions, numbers, cell, pbc, initial_charges, initial_magmoms

Initialize ...

C-setup:
  name: Carbon
  id: 4aa54d4b901d75f77cc0ea3eec22967b
  Z: 6
  valence: 4
  core: 2
  charge: 0.0
  file: /home/esb/DFT/gpaw-setups-0.8.7929/C.PBE.gz
  cutoffs: 0.64(comp), 1.14(filt), 1.14(core), lmax=2
  valence states:
                energy  radius
    2s(2.00)   -13.751   0.635
    2p(2.00)    -5.284   0.635
    *s          13.461   0.635
    *p          21.927   0.635
    *d           0.000   0.635

  LCAO basis set for C:
    Name: dzp
    File: /home/esb/DFT/gpaw-setups-0.8.7929/C.dzp.basis.gz
    Number of radial functions: 5
    Number of spherical harmonics: 13
      l=0, rc=5.5469 Bohr: 2s-sz confined orbital
      l=1, rc=6.6719 Bohr: 2p-sz confined orbital
      l=0, rc=3.0312 Bohr: 2s-dz split-valence wave
      l=1, rc=3.7500 Bohr: 2p-dz split-valence wave
      l=2, rc=6.6719 Bohr: d-type Gaussian polarization

Reference energy: -24663.074771

Spin-paired calculation

Occupation numbers:
  Fermi-Dirac: width=0.1000 eV

Convergence criteria:
  Maximum total energy change: 0.0005 eV / electron
  Maximum integral of absolute density change: 0.0001 electrons
  Maximum integral of absolute eigenstate change: 4e-08 eV^2
  Maximum number of iterations: 99

Symmetries present (total): 1

  ( 1  0  0)
  ( 0  1  0)
  ( 0  0  1)

1 k-point (Gamma)
1 k-point in the irreducible part of the Brillouin zone
       k-points in crystal coordinates                weights
   0:     0.00000000    0.00000000    0.00000000          1/1

Wave functions: LCAO
  Diagonalizer: Serial LAPACK
  Atomic Correction: dense with blas
  Datatype: float
  Eigensolver: None

LCAO using direct dense diagonalizer

Densities:
  Coarse grid: 80*80*48 grid
  Fine grid: 160*160*96 grid
  Total Charge: 0.000000

Density mixing:
  Method: separate
  Backend: pulay
  Linear mixing parameter: 0.05
  Mixing with 5 old densities
  Damping of long wave oscillations: 75

Hamiltonian:
  XC and Coulomb potentials evaluated on a 160*160*96 grid
  Using the PBE Exchange-Correlation functional
  Interpolation: tri-quintic (5. degree polynomial)
  Poisson solver: Gauss-Seidel solver with 6 multi-grid levels
    Coarsest grid: 5 x 5 x 3 points
    Stencil: 6*3+1=19 point O(h^6) finite-difference Laplacian
    Max iterations: 1000
    Tolerance: 1.000000e-07

Total number of cores used: 16
Domain decomposition: 2 x 4 x 2

Number of atoms: 24
Number of atomic orbitals: 312
Number of bands in calculation: 98
Bands to converge: occupied states only
Number of valence electrons: 96

... initialized

Initializing position-dependent things.

Density initialized from atomic densities
   /       |                     C                |
  /        |                  C   C               |
 *         |     C  C  C  CC      C               |
 |         |         C  C        C                |
 |         C---C--C-C---C------C------------------.
 |        /   C C   C       C                    /
 |       /                C                     /

Positions:
   0 C      5.366899    3.612429    5.612102
   1 C      2.999266    5.017311    5.617874
   2 C      7.526826    7.556452    5.157457
   3 C      8.480361    8.665376    5.140070
   4 C      6.516816   10.081291    5.025128
   5 C      7.752627    9.882404    5.079183
   6 C      5.471449    9.122569    5.059769
   7 C      6.061487    7.801270    5.129565
   8 C      4.103935    9.298506    5.033012
   9 C      5.321386    6.524340    5.222207
  10 C      8.110553    4.759701    5.570399
  11 C      7.724994    6.126697    5.218898
  12 C      6.562318    4.246796    5.449792
  13 C      6.407689    5.615017    5.215144
  14 C      4.195841    4.268268    5.579075
  15 C      4.122150    5.824595    5.398295
  16 C     10.924983    9.583195    5.566326
  17 C     11.488699    8.418328    5.478877
  18 C     10.721127    6.021599    5.125076
  19 C     11.347805    7.106017    5.310168
  20 C     10.245334   10.834145    5.647999
  21 C      9.365402    3.846510    4.928996
  22 C      9.542181    5.276789    5.013189
  23 C      9.375215    9.788065    5.457523

Unit cell:
           periodic     x           y           z      points  spacing
  1. axis:    yes   16.000000    0.000000    0.000000    80     0.2000
  2. axis:    yes    0.000000   16.000000    0.000000    80     0.2000
  3. axis:    yes    0.000000    0.000000   10.000000    48     0.2083

Effective grid spacing dv^(1/3) = 0.2027

                     log10-error:    total        iterations:
           time      wfs    density  energy       fermi  poisson
iter:   1  11:42:38          +inf  -175.026781    2      6
iter:   2  11:42:38         -0.91  -174.135066    4      3
iter:   3  11:42:39         -0.94  -172.061228    4      4
iter:   4  11:42:40         -1.13  -171.584494    3      3
iter:   5  11:42:40         -1.20  -171.276837    33     3
iter:   6  11:42:41         -1.45  -171.221092    3      3
iter:   7  11:42:42         -1.62  -171.147202    4      3
iter:   8  11:42:42         -1.83  -171.133096    3      2
iter:   9  11:42:43         -1.90  -171.113711    3      3
iter:  10  11:42:43         -2.07  -171.110601    3      2
iter:  11  11:42:44         -2.22  -171.102618    3      2
iter:  12  11:42:44         -2.41  -171.092404    3      2
iter:  13  11:42:45         -2.55  -171.090436    3      2
iter:  14  11:42:46         -2.93  -171.093417    2      1
iter:  15  11:42:46         -3.01  -171.088275    3      1
iter:  16  11:42:47         -3.19  -171.085927    3      1
iter:  17  11:42:47         -3.30  -171.095874    2      1
iter:  18  11:42:48         -3.55  -171.092749    2      1
iter:  19  11:42:48         -3.72  -171.093249    2      1
iter:  20  11:42:49         -3.86  -171.092000    2      1
iter:  21  11:42:49         -3.92  -171.089597    2      1
iter:  22  11:42:50         -4.12  -171.090664    2      1

Converged after 22 iterations.

Dipole moment: (0.067858, -0.129234, 0.016493) |e|*Ang

Energy contributions relative to reference atoms: (reference = -24663.074771)

Kinetic:       +115.349969
Potential:     -115.378021
External:        +0.000000
XC:            -173.889189
Entropy (-ST):   -0.287062
Local:           +2.970109
Free energy:   -171.234195
Extrapolated:  -171.090664

Fermi level: -4.31297

 Band  Eigenvalues  Occupancy
    0    -24.16089    2.00000
    1    -23.39126    2.00000
    2    -23.12012    2.00000
    3    -22.30528    2.00000
    4    -21.40817    2.00000
    5    -20.86912    2.00000
    6    -20.26721    2.00000
    7    -19.89625    2.00000
    8    -19.25025    2.00000
    9    -18.72633    2.00000
   10    -17.94747    2.00000
   11    -17.75839    2.00000
   12    -16.28894    2.00000
   13    -16.18618    2.00000
   14    -15.74623    2.00000
   15    -15.11789    2.00000
   16    -14.26650    2.00000
   17    -13.97409    2.00000
   18    -13.70915    2.00000
   19    -12.82706    2.00000
   20    -12.29401    2.00000
   21    -11.89925    2.00000
   22    -11.54011    2.00000
   23    -11.22745    2.00000
   24    -11.14694    2.00000
   25    -10.71616    2.00000
   26    -10.44785    2.00000
   27    -10.24242    2.00000
   28    -10.13450    2.00000
   29     -9.79734    2.00000
   30     -9.68021    2.00000
   31     -9.49196    2.00000
   32     -8.76838    2.00000
   33     -8.62091    2.00000
   34     -8.26650    2.00000
   35     -8.03629    2.00000
   36     -7.83756    2.00000
   37     -7.38352    2.00000
   38     -7.02002    2.00000
   39     -6.84481    2.00000
   40     -6.58619    2.00000
   41     -6.51023    2.00000
   42     -6.20492    2.00000
   43     -6.00128    2.00000
   44     -5.71265    2.00000
   45     -5.20005    1.99972
   46     -4.72372    1.96763
   47     -4.42243    1.49848
   48     -4.16233    0.36293
   49     -4.06854    0.15971
   50     -3.79639    0.01135
   51     -3.35931    0.00014
   52     -3.18499    0.00003
   53     -2.82199    0.00000
   54     -2.41183    0.00000
   55     -1.81891    0.00000
   56     -1.55184    0.00000
   57     -0.88209    0.00000
   58     -0.55704    0.00000
   59     -0.15667    0.00000
[...]
   83      8.46472    0.00000
   84      8.62460    0.00000
   85      8.85055    0.00000
   86      9.01171    0.00000
   87      9.12379    0.00000
   88      9.16686    0.00000
   89      9.29052    0.00000
   90      9.42598    0.00000
   91      9.52321    0.00000
   92      9.64125    0.00000
   93      9.66423    0.00000
   94      9.85980    0.00000
   95      9.88211    0.00000
   96      9.92852    0.00000
   97     10.01513    0.00000

Forces in eV/Ang:
  0 C    -0.61370   -0.28037    0.28449
  1 C     0.48591    0.29430   -0.23075
  2 C     1.11044   -0.57179    0.54209
  3 C     0.04706    1.19613    0.34285
  4 C    -1.41402    1.31888   -0.18748
  5 C     0.36599    0.77794   -0.08977
  6 C    -1.07312    0.62114   -0.20274
  7 C    -0.28079   -1.15508    0.27510
  8 C     0.02409   -0.20722   -0.01468
  9 C     0.39241    0.79876   -0.27302
 10 C     1.50203   -4.59135   -1.40873
 11 C    -2.67349    2.50361    0.42393
 12 C     0.59619    0.45462    0.77184
 13 C     0.27999    1.04330   -0.69487
 14 C     0.39025   -0.55201    0.05967
 15 C    -0.50069    0.16533    0.15036
 16 C     2.14718    0.64555    0.34682
 17 C     1.11611   -0.72740   -0.10549
 18 C    -2.91716   -0.87242   -0.18400
 19 C    -0.41819    2.36075    0.32867
 20 C     1.61093   -0.05254    0.28980
 21 C    -2.37449    3.75140    1.49695
 22 C     5.95225   -3.93534   -0.94088
 23 C    -3.83634   -3.05380   -0.89557

System changes: positions

[...]

Density initialized from wave functions
   /       |                     C                |
  /        |                  C   C               |
 *         |     C  C  C  CC      C               |
 |         |         C  C        C                |
 |         C---C--C-C---C------C------------------.
 |        /   C C   C       C                    /
 |       /                C                     /

[...]

Density initialized from wave functions
   /       |                     C                |
  /        |                  C   C               |
 *         |     C  C  C  CC      C               |
 |         |         C  C        C                |
 |         C---C--C-C---C------C------------------.
 |        /   C C   C       C                    /
 |       /                C                     /

[...]

Density initialized from wave functions
   /       |                     C                |
  /        |                  C   C               |
 *         |     C  C  C  CC      C               |
 |         |         C  C        C                |
 |         .C--C--C-C---C------C------------------.
 |        /   C C   C   C   C                    /
 |       /                C                     /

[...]

Density initialized from wave functions
   /       |                     C                |
  /        |                  C   C               |
 *         |     C  C  C  CC      C               |
 |         |         C  C        C                |
 |         .C--C--C-C---C------C------------------.
 |        /   C C   C   C   C                    /
 |       /                C                     /

[...]

Density initialized from wave functions
  /        |                  C  CC               |
 *         |     C  C  C  CC      C               |
 |         |         C  C        C                |
 |         .C--C--C-C---C------C------------------.
 |        /   C C   C   C   C                    /
 |       /                C                     /

[...]

Density initialized from wave functions
  /        |                 C   CC               |
 *         |     C  C  C  CC       C              |
 |         |         C  C        C                |
 |         .C--C--C-C---C------C------------------.
 |        /   C C   C  C    C                    /
 |       /                C                     /

[...]

Density initialized from wave functions
  /        |                 C   CC               |
 *         |     C  C  C  CC       C              |
 |         |         C  C        C                |
 |         .C--C--C-C---C------C------------------.
 |        /   C C   C  C  C C                    /

[...]

Density initialized from wave functions
  /        |                 C   CC               |
 *         |     C  C  C  CC       C              |
 |         |         C  C        C                |
 |         .C--C--C-C---C------C------------------.
 |        /   C C   C  C  C  C                   /

[...]

Density initialized from wave functions
  /        |                 C   CC               |
 *         |     C  C  C  CC       C              |
 |         |         C  C        C                |
 |         .C--C--C-C--C-------C------------------.
 |        /   C C   C  C  C  C                   /

[...]

Density initialized from wave functions
  /        |                 C   CC               |
 *         |     C  C  C  CC       C              |
 |         |         C  C        C                |
 |         .C--C--C-C--C-------C------------------.
 |        /   C C   C  C  C  C                   /

[...]

Density initialized from wave functions
  /        |              C  C   CC               |
 *         |     C  C  C   C       C              |
 |         |         C  C        C                |
 |         .C--C--C-C--C-------C------------------.
 |        /   C C   C  C  C  C                   /

[...]

Density initialized from wave functions
  /        |              C  C   CC               |
 *         |     C  C  C   C       C              |
 |         |        C   C        C                |
 |         .C--C--C-C--C-------C------------------.
 |        /   C C   C  C  C  C                   /

[...]

Density initialized from wave functions
  /        |              C  C   CC               |
 *         |    C   C  C   C       C              |
 |         |        C   C        C                |
 |         .C--C--C-C--C--------C-----------------.
 |        /   C C   C  C  C  C                   /

[...]

Density initialized from wave functions
  /        |              C  C   CC               |
 *         |    C   C  C   C       C              |
 |         |        C   C        C                |
 |         .C--C--C-C--C--------C-----------------.
 |        /   C C   C  C  C  C                   /

[...]

Density initialized from wave functions
  /        |              C  C   CC               |
 *         |    C   C  C   C       C              |
 |         |        C   C        C                |
 |         .C-C---C-C--C--------C-----------------.
 |        /   C C   C  C  C  C                   /

[...]

Density initialized from wave functions
  /        |              C  C   CC               |
 *         |    C   C  C   C       C              |
 |         |      C C   C        C                |
 |         .C-C-----C--C--------C-----------------.
 |        /   C C   C  C  C  C                   /

[...]

Density initialized from wave functions
  /        |              C  C   CC               |
 *         |    C   C  C  C        C              |
 |         |      C C   C         C               |
 |         .C-C-----C--C--------C-----------------.
 |        /   C C   C  C  C  C                   /

[...]

Density initialized from wave functions
  /        |              C  C  C C               |
 *         |    C   C  C  C        C              |
 |         |      C C   C         C               |
 |         .C-C-----C--C--------C-----------------.
 |        /   C C   C  C  C  C                   /

[...]

Density initialized from wave functions
  /        |              C  C  C C               |
 *         |    C   C  C  C        C              |
 |         |      C C   C         C               |
 |         .C-C-----C--C--------C-----------------.
 |        /   C C   C  C  C  C                   /

[...]

Density initialized from wave functions
  /        |              C  C  C                 |
 *         |    C   C  C  C       CC              |
 |         |      C C   C         C               |
 |         .-CC-----C--C--------C-----------------.
 |        /   C C   C  C  C  C                   /

[...]

Density initialized from wave functions
  /        |              C  C  C                 |
 *         |    C   C  C  C       CC              |
 |         |      C C   C         C               |
 |         .-CC-----C--C--------C-----------------.
 |        /   C  C  C  C  C  C                   /

[...]

Density initialized from wave functions
  /        |              C  C  C                 |
 *         |    C   C  C  C       CC              |
 |         |      C C   C         C               |
 |         .-CC-----C--C---------C----------------.
 |        /   C  C  C  C  C  C                   /

[...]

Density initialized from wave functions
  /        |              C  C  C                 |
 *         |    C   C  C  C       CC              |
 |         |      C C  C          C               |
 |         .-CC----C---C---------C----------------.
 |        /   C  C  C  C  C   C                  /

[...]

Density initialized from wave functions
  /        |              C  C  C                 |
 *         |    C   C  C  C       CC              |
 |         |      C C  C          C               |
 |         .-CC-----C--C---------C----------------.
 |        /   C  C  C  C  C   C                  /

[...]

Density initialized from wave functions
  /        |              C  C  C                 |
 *         |    C   C  C  C       CC              |
 |         |     C  C  C          C               |
 |         .-CC----C---C---------C----------------.
 |        /   C  C  C  C  C   C                  /

[...]

Density initialized from wave functions
  /        |              C  C  C                 |
 *         |    C   C  C  C       C C             |
 |         |     C  C  C          C               |
 |         .-CC----C---C---------C----------------.
 |        /   C  C  C  C  C   C                  /

[...]

Density initialized from wave functions
  /        |              C     C                 |
 *         |    C   C  C  C  C    C C             |
 |         |     C  C  C          C               |
 |         .-CC----C---C---------C----------------.
 |        /   C  C  C  C  C   C                  /

[...]

Density initialized from wave functions
  /        |              C     C                 |
 *         |    C   C  C  C  C    C C             |
 |         |     C  C  C          C               |
 |         .-CC----C---C---------C----------------.
 |        /   C  C  C  C  C   C                  /

[...]

Density initialized from wave functions
  /        |           C  C     C                 |
 *         |    C  C      C  C    C C             |
 |         |     C  C  C          C               |
 |         .-CC----C---C---------C----------------.
 |        /   C  C  C  C  C   C                  /

[...]

Density initialized from wave functions
  /        |           C  C     C                 |
 *         |    C  C      C  C    C C             |
 |         |        C  C          C               |
 |         .-CC--C-C---C---------C----------------.
 |        /   C  C  C  C  C   C                  /

[...]

Density initialized from wave functions
  /        |           C  C     C                 |
 *         |    C  C      C  C    C C             |
 |         |        C  C          C               |
 |         .-CC--C-C---C---------C----------------.
 |        /   C  C  C  C  C   C                  /

[...]

Density initialized from wave functions
  /        |           C  C     C                 |
 *         |    C  C      C  C    C C             |
 |         |        C  C          C               |
 |         .-CC--C-C---C------C--C----------------.
 |        /   C  C  C  C  C                      /

[...]

System changes: positions

Initializing position-dependent things.

Density initialized from wave functions
  /        |           C  C     C                 |
 *         |    C  C      C  C    C C             |
 |         |        C  C          C               |
 |         .-CC--C-C---C------C--C----------------.
 |        /   C  C  C  C  C                      /

Positions:
   0 C      5.618639    3.394744    5.544048
   1 C      3.553300    4.762245    5.641639
   2 C      7.114720    7.747239    5.040164
   3 C      7.932799    8.884983    5.089841
   4 C      6.322657   10.210349    5.289409
   5 C      7.568295   10.497082    5.274195
   6 C      5.163963    9.381315    5.205613
   7 C      5.645516    7.956656    5.193804
   8 C      3.830605    9.654038    5.051305
   9 C      4.988362    6.698699    5.229448
  10 C      7.958265    4.900881    5.164322
  11 C      7.344514    6.335765    4.927460
  12 C      6.568893    4.413296    5.259324
  13 C      6.078627    5.767152    5.033536
  14 C      4.383402    3.703878    5.736882
  15 C      3.768718    6.021911    5.528821
  16 C     11.202812    9.119630    5.390492
  17 C     12.130066    8.168415    5.476081
  18 C     11.583539    5.609295    5.437996
  19 C     11.923633    6.874607    5.452195
  20 C     10.274946   10.021233    5.335470
  21 C      9.240583    4.452472    5.290687
  22 C     10.419736    4.992246    5.344812
  23 C      8.911956    9.834122    5.213846

Unit cell:
           periodic     x           y           z      points  spacing
  1. axis:    yes   16.000000    0.000000    0.000000    80     0.2000
  2. axis:    yes    0.000000   16.000000    0.000000    80     0.2000
  3. axis:    yes    0.000000    0.000000   10.000000    48     0.2083

Effective grid spacing dv^(1/3) = 0.2027

                     log10-error:    total        iterations:
           time      wfs    density  energy       fermi  poisson
iter:   1  11:53:32          +inf  -179.543760    2      4
iter:   2  11:53:33         -2.88  -179.541426    2      1
iter:   3  11:53:33         -3.04  -179.539702    2      1
iter:   4  11:53:34         -3.25  -179.540573    2      1
iter:   5  11:53:34         -3.41  -179.538228    2      1
iter:   6  11:53:35         -3.43  -179.541390    2      1
iter:   7  11:53:35         -3.55  -179.540576    2      1
iter:   8  11:53:36         -3.88  -179.540090    2      1
iter:   9  11:53:36         -4.20  -179.540229    2      1

Converged after 9 iterations.

Dipole moment: (-0.504671, 0.114070, 0.029188) |e|*Ang

Energy contributions relative to reference atoms: (reference = -24663.074771)

Kinetic:       +107.244136
Potential:     -114.616104
External:        +0.000000
XC:            -175.130067
Entropy (-ST):   -0.107409
Local:           +3.015510
Free energy:   -179.593934
Extrapolated:  -179.540229

Fermi level: -4.13683

 Band  Eigenvalues  Occupancy
    0    -23.73577    2.00000
    1    -22.96914    2.00000
    2    -21.42117    2.00000
    3    -20.97192    2.00000
    4    -20.37804    2.00000
    5    -20.20429    2.00000
    6    -19.50368    2.00000
    7    -19.20378    2.00000
    8    -18.84603    2.00000
    9    -18.35602    2.00000
   10    -17.82559    2.00000
   11    -17.42771    2.00000
   12    -16.77203    2.00000
   13    -16.03430    2.00000
   14    -15.42983    2.00000
   15    -14.96272    2.00000
   16    -14.65220    2.00000
   17    -14.25903    2.00000
   18    -13.71476    2.00000
   19    -13.34595    2.00000
   20    -12.58586    2.00000
   21    -12.37531    2.00000
   22    -11.97875    2.00000
   23    -11.60136    2.00000
   24    -10.95042    2.00000
   25    -10.73369    2.00000
   26    -10.23532    2.00000
   27    -10.11782    2.00000
   28    -10.01763    2.00000
   29     -9.36798    2.00000
   30     -8.99441    2.00000
   31     -8.86301    2.00000
   32     -8.75682    2.00000
   33     -8.54492    2.00000
   34     -8.47398    2.00000
   35     -8.20997    2.00000
   36     -8.00033    2.00000
   37     -7.51015    2.00000
   38     -7.28216    2.00000
   39     -6.94493    2.00000
   40     -6.50530    2.00000
   41     -6.47956    2.00000
   42     -5.78256    2.00000
   43     -5.76256    2.00000
   44     -5.69884    2.00000
   45     -4.97462    1.99954
   46     -4.54656    1.96731
   47     -4.43016    1.89894
   48     -3.87232    0.13259
   49     -3.36641    0.00090
   50     -3.29950    0.00046
   51     -3.22030    0.00021
   52     -3.04639    0.00004
   53     -2.85743    0.00001
   54     -1.88728    0.00000
   55     -1.43897    0.00000
   56     -1.35153    0.00000
   57     -0.90900    0.00000
   58     -0.72842    0.00000
   59     -0.31982    0.00000
[...]
   83      8.82683    0.00000
   84      8.92542    0.00000
   85      9.05496    0.00000
   86      9.15173    0.00000
   87      9.26604    0.00000
   88      9.36341    0.00000
   89      9.40353    0.00000
   90      9.50331    0.00000
   91      9.60519    0.00000
   92      9.66888    0.00000
   93      9.97134    0.00000
   94     10.20598    0.00000
   95     10.27964    0.00000
   96     10.33898    0.00000
   97     10.42600    0.00000

Forces in eV/Ang:
  0 C    -0.00017    0.02602    0.02343
  1 C     0.01013    0.00549    0.03120
  2 C    -0.03080   -0.00139    0.04044
  3 C     0.00290   -0.06551   -0.02549
  4 C    -0.00289    0.03844   -0.07904
  5 C    -0.01193   -0.02989    0.07560
  6 C    -0.00728   -0.00433    0.00327
  7 C    -0.01629    0.01578   -0.00086
  8 C     0.04580   -0.01984    0.01875
  9 C     0.00211   -0.01249   -0.03522
 10 C     0.00203   -0.00204    0.00337
 11 C    -0.06779    0.04871   -0.04347
 12 C     0.00105   -0.03197   -0.00067
 13 C    -0.02135   -0.03377   -0.08155
 14 C     0.02114    0.05244   -0.00499
 15 C     0.08117    0.01944   -0.01475
 16 C     0.02686    0.07681   -0.01861
 17 C    -0.00755    0.02914   -0.02857
 18 C     0.00023   -0.08603    0.00953
 19 C     0.03530    0.00532   -0.02416
 20 C    -0.04597    0.05459   -0.00563
 21 C     0.01157   -0.04430    0.03433
 22 C    -0.00150    0.02005    0.01860
 23 C    -0.03632   -0.04751    0.04865