User:   esb@s65n11.grendel.cscaa.dk
Date:   Thu Nov  9 10:43:00 2017
Arch:   x86_64
Pid:    76274
Python: 2.7.13
gpaw:   /home/esb/DFT/gpaw_git/gpaw
_gpaw:  /home/esb/DFT/gpaw_git/build/bin.linux-x86_64-2.7/gpaw-python
ase:    /home/esb/DFT/ase_git/ase (version 3.15.0b1)
numpy:  /comm/swstack/core/python/2.7.13/lib/python2.7/site-packages/numpy (version 1.13.3)
scipy:  /comm/swstack/core/python/2.7.13/lib/python2.7/site-packages/scipy (version 0.19.1)
units:  Angstrom and eV
cores:  16
Extra parameters: {'blacs': True}

Input parameters:
  basis: dzp
  gpts: [80 80 48]
  kpts: [1 1 1]
  maxiter: 99
  mixer: {backend: pulay,
          beta: 0.05,
          method: separate,
          nmaxold: 5,
          weight: 75}
  mode: lcao
  nbands: -50
  occupations: {name: fermi-dirac,
                width: 0.1}
  poissonsolver: {eps: 1e-07,
                  name: fd,
                  nn: 3,
                  relax: GS}
  xc: PBE

System changes: positions, numbers, cell, pbc, initial_charges, initial_magmoms

Initialize ...

C-setup:
  name: Carbon
  id: 4aa54d4b901d75f77cc0ea3eec22967b
  Z: 6
  valence: 4
  core: 2
  charge: 0.0
  file: /home/esb/DFT/gpaw-setups-0.8.7929/C.PBE.gz
  cutoffs: 0.64(comp), 1.14(filt), 1.14(core), lmax=2
  valence states:
                energy  radius
    2s(2.00)   -13.751   0.635
    2p(2.00)    -5.284   0.635
    *s          13.461   0.635
    *p          21.927   0.635
    *d           0.000   0.635

  LCAO basis set for C:
    Name: dzp
    File: /home/esb/DFT/gpaw-setups-0.8.7929/C.dzp.basis.gz
    Number of radial functions: 5
    Number of spherical harmonics: 13
      l=0, rc=5.5469 Bohr: 2s-sz confined orbital
      l=1, rc=6.6719 Bohr: 2p-sz confined orbital
      l=0, rc=3.0312 Bohr: 2s-dz split-valence wave
      l=1, rc=3.7500 Bohr: 2p-dz split-valence wave
      l=2, rc=6.6719 Bohr: d-type Gaussian polarization

Reference energy: -24663.074771

Spin-paired calculation

Occupation numbers:
  Fermi-Dirac: width=0.1000 eV

Convergence criteria:
  Maximum total energy change: 0.0005 eV / electron
  Maximum integral of absolute density change: 0.0001 electrons
  Maximum integral of absolute eigenstate change: 4e-08 eV^2
  Maximum number of iterations: 99

Symmetries present (total): 1

  ( 1  0  0)
  ( 0  1  0)
  ( 0  0  1)

1 k-point (Gamma)
1 k-point in the irreducible part of the Brillouin zone
       k-points in crystal coordinates                weights
   0:     0.00000000    0.00000000    0.00000000          1/1

Wave functions: LCAO
  Diagonalizer: Serial LAPACK
  Atomic Correction: dense with blas
  Datatype: float
  Eigensolver: None

LCAO using direct dense diagonalizer

Densities:
  Coarse grid: 80*80*48 grid
  Fine grid: 160*160*96 grid
  Total Charge: 0.000000

Density mixing:
  Method: separate
  Backend: pulay
  Linear mixing parameter: 0.05
  Mixing with 5 old densities
  Damping of long wave oscillations: 75

Hamiltonian:
  XC and Coulomb potentials evaluated on a 160*160*96 grid
  Using the PBE Exchange-Correlation functional
  Interpolation: tri-quintic (5. degree polynomial)
  Poisson solver: Gauss-Seidel solver with 6 multi-grid levels
    Coarsest grid: 5 x 5 x 3 points
    Stencil: 6*3+1=19 point O(h^6) finite-difference Laplacian
    Max iterations: 1000
    Tolerance: 1.000000e-07

Total number of cores used: 16
Domain decomposition: 2 x 4 x 2

Number of atoms: 24
Number of atomic orbitals: 312
Number of bands in calculation: 98
Bands to converge: occupied states only
Number of valence electrons: 96

... initialized

Initializing position-dependent things.

Density initialized from atomic densities
 *         |  C  C  C C  C  C C                   |
 |         |    C   C        CC   C               |
 |         .--C-C----C---C--CC---CC---------------.
 |        /       C  C  C  C                     /

Positions:
   0 C     11.800996    5.108547    5.343198
   1 C     11.985390    6.396024    5.180474
   2 C     11.499205    7.619818    5.045835
   3 C     10.374948    4.866626    5.403511
   4 C      9.701391    3.626037    5.569670
   5 C     10.056582    7.435461    5.102261
   6 C      9.500400    6.078773    5.277858
   7 C      8.418039    3.469673    5.611555
   8 C      9.160730    8.535773    4.974009
   9 C      8.096512    6.039501    5.309670
  10 C      7.087566    3.675466    5.628731
  11 C      9.435229    9.924971    4.778218
  12 C      3.328999    8.318028    5.279464
  13 C      4.046057    9.403713    5.120747
  14 C      5.222755    9.997551    4.998618
  15 C      4.235898    7.192307    5.357328
  16 C      3.916196    5.817666    5.526149
  17 C      6.180257    8.903945    5.073100
  18 C      5.695608    7.520158    5.249235
  19 C      4.773157    4.850478    5.584135
  20 C      7.581860    9.133903    4.962131
  21 C      6.720550    6.560762    5.299318
  22 C      5.905679    4.123206    5.619840
  23 C      8.299269   10.355312    4.769672

Unit cell:
           periodic     x           y           z      points  spacing
  1. axis:    yes   16.000000    0.000000    0.000000    80     0.2000
  2. axis:    yes    0.000000   16.000000    0.000000    80     0.2000
  3. axis:    yes    0.000000    0.000000   10.000000    48     0.2083

Effective grid spacing dv^(1/3) = 0.2027

                     log10-error:    total        iterations:
           time      wfs    density  energy       fermi  poisson
iter:   1  10:43:01          +inf  -179.982804    3      6
iter:   2  10:43:02         -0.89  -179.011741    3      3
iter:   3  10:43:02         -0.93  -177.371862    34     4
iter:   4  10:43:03         -1.08  -177.168175    3      2
iter:   5  10:43:03         -1.10  -175.894196    32     3
iter:   6  10:43:04         -1.33  -176.059254    32     3
iter:   7  10:43:05         -1.56  -175.981202    3      2
iter:   8  10:43:05         -1.64  -175.800180    4      3
iter:   9  10:43:06         -1.99  -175.783388    3      2
iter:  10  10:43:06         -2.12  -175.771956    4      2
iter:  11  10:43:07         -2.36  -175.765986    3      2
iter:  12  10:43:07         -2.52  -175.765702    3      2
iter:  13  10:43:08         -2.67  -175.762093    3      2
iter:  14  10:43:08         -2.77  -175.760865    2      2
iter:  15  10:43:09         -2.91  -175.757317    2      2
iter:  16  10:43:09         -3.23  -175.753451    2      1
iter:  17  10:43:10         -3.32  -175.744076    3      1
iter:  18  10:43:10         -3.63  -175.753358    2      1
iter:  19  10:43:11         -3.78  -175.757186    2      1
iter:  20  10:43:11         -3.94  -175.755261    2      1
iter:  21  10:43:12         -4.08  -175.756909    2      1

Converged after 21 iterations.

Dipole moment: (-0.074746, -0.218609, 0.015008) |e|*Ang

Energy contributions relative to reference atoms: (reference = -24663.074771)

Kinetic:        +98.912279
Potential:     -107.243445
External:        +0.000000
XC:            -170.203013
Entropy (-ST):   -0.439061
Local:           +2.996801
Free energy:   -175.976440
Extrapolated:  -175.756909

Fermi level: -4.49911

 Band  Eigenvalues  Occupancy
    0    -23.09901    2.00000
    1    -21.95355    2.00000
    2    -21.94415    2.00000
    3    -20.70293    2.00000
    4    -20.27751    2.00000
    5    -19.72318    2.00000
    6    -19.52980    2.00000
    7    -19.44876    2.00000
    8    -18.60123    2.00000
    9    -18.20875    2.00000
   10    -17.08828    2.00000
   11    -17.02628    2.00000
   12    -16.62948    2.00000
   13    -16.21898    2.00000
   14    -15.24395    2.00000
   15    -14.91005    2.00000
   16    -14.11226    2.00000
   17    -13.92231    2.00000
   18    -13.85084    2.00000
   19    -12.64893    2.00000
   20    -12.34307    2.00000
   21    -12.03343    2.00000
   22    -11.38596    2.00000
   23    -11.12155    2.00000
   24    -10.90170    2.00000
   25    -10.49436    2.00000
   26    -10.37797    2.00000
   27    -10.32245    2.00000
   28     -9.73903    2.00000
   29     -9.63501    2.00000
   30     -9.32046    2.00000
   31     -9.10047    2.00000
   32     -8.93621    2.00000
   33     -8.24305    2.00000
   34     -7.82463    2.00000
   35     -7.61986    2.00000
   36     -7.26692    2.00000
   37     -7.23912    2.00000
   38     -7.07716    2.00000
   39     -7.03134    2.00000
   40     -6.44861    2.00000
   41     -6.33499    2.00000
   42     -6.05671    2.00000
   43     -5.93099    2.00000
   44     -5.50061    1.99991
   45     -5.05540    1.99235
   46     -4.60398    1.48106
   47     -4.57576    1.36554
   48     -4.50507    1.02980
   49     -4.20606    0.10133
   50     -4.07892    0.02949
   51     -3.67165    0.00051
   52     -3.29890    0.00001
   53     -2.25198    0.00000
   54     -2.05325    0.00000
   55     -1.56269    0.00000
   56     -1.44751    0.00000
   57     -1.42488    0.00000
   58     -1.34489    0.00000
   59     -0.38861    0.00000
[...]
   83      8.68420    0.00000
   84      8.81763    0.00000
   85      8.85224    0.00000
   86      8.98452    0.00000
   87      9.09493    0.00000
   88      9.19476    0.00000
   89      9.29146    0.00000
   90      9.36903    0.00000
   91      9.61898    0.00000
   92      9.68969    0.00000
   93     10.00209    0.00000
   94     10.15026    0.00000
   95     10.25242    0.00000
   96     10.31434    0.00000
   97     10.35861    0.00000

Forces in eV/Ang:
  0 C    -1.06442   -0.45808    0.07907
  1 C     0.13250    0.84743   -0.10035
  2 C    -0.09491   -0.41851    0.02592
  3 C     1.67932    0.28270   -0.06547
  4 C    -2.00153    0.34784   -0.00190
  5 C    -0.69778    0.92599   -0.14694
  6 C    -1.65875   -0.31232    0.06795
  7 C     0.15333    0.05658    0.01370
  8 C    -1.04665   -0.82268    0.19185
  9 C    -6.37147    3.37456   -0.10919
 10 C     0.88245   -1.51591    0.14641
 11 C     7.75711   -1.48014   -0.11715
 12 C     0.49822   -1.04132    0.09203
 13 C     0.47130    0.71242   -0.09781
 14 C    -0.20270   -0.36746    0.02797
 15 C    -1.04296    1.33284   -0.09545
 16 C     1.73671   -1.06137    0.02663
 17 C     1.14285    0.20820   -0.13601
 18 C     1.07344   -1.32812    0.08397
 19 C    -0.05955    0.13702    0.02275
 20 C     0.21385   -1.26784    0.19568
 21 C     6.97091   -1.67306   -0.02675
 22 C    -1.66781   -0.54475    0.14022
 23 C    -6.75333    4.04873   -0.22894

System changes: positions

[...]

Density initialized from wave functions
 *         |  C  C  C C  C  C C                   |
 |         |    C   C        CC   C               |
 |         .--C-C-----C-C---CC---CC---------------.
 |        /       C  C  C  C                     /

[...]

Density initialized from wave functions
 *         |  C  C  C C  C  C C                   |
 |         |    C   C        CC   C               |
 |         .--C-C-----C-C---CC---CC---------------.
 |        /       C C   C  C                     /

[...]

Density initialized from wave functions
 *         |  C  C  C C  C  C C                   |
 |         |    C   C       C C   C               |
 |         .--C-C-----C-C---CC---CC---------------.
 |        /       C C   C  C                     /

[...]

Density initialized from wave functions
 *         |  C  C  C C  C  C  C                  |
 |         |    C   C       C C   C               |
 |         .--C-C-----C-C---CC---CC---------------.
 |        /       C C   C  C                     /

[...]

Density initialized from wave functions
 *         |  C  C  C C  C  C  C                  |
 |         |    C   C       C C   C               |
 |         .---CC-----C-C---CC---CC---------------.
 |        /       C C   C  C                     /

[...]

Density initialized from wave functions
 *         |   C C  C C  C  C  C                  |
 |         |    C   C       C C  C                |
 |         .---CC-----C-C---CC---CC---------------.
 |        /       C C  C   C                     /

[...]

Density initialized from wave functions
 *         |   C C  C C  C  C  C                  |
 |         |    C   C        CC  C                |
 |         .---CC-----C-C---CC---CC---------------.
 |        /      C  C  C   C                     /

[...]

Density initialized from wave functions
 *         |   C C  C C   C C  C                  |
 |         |    C   C        CC   C               |
 |         .---CC-----C-C---CC---CC---------------.
 |        /      C  C  C  C                      /

[...]

Density initialized from wave functions
 *         |     C  C C   C C  C                  |
 |         |   CC   C        CC   C               |
 |         .---CC-----C-C---CC---CC---------------.
 |        /      C  C  C  C                      /

[...]

System changes: positions

Initializing position-dependent things.

Density initialized from wave functions
 *         |     C  C C   C C  C                  |
 |         |   CC   C        CC   C               |
 |         .---CC-----C-C---CC---CC---------------.
 |        /      C  C  C  C                      /

Positions:
   0 C     11.640695    5.182297    5.332651
   1 C     11.871901    6.470938    5.173537
   2 C     11.397370    7.691456    5.028211
   3 C     10.222607    4.988915    5.392117
   4 C      9.413339    3.802475    5.551320
   5 C      9.954933    7.542683    5.088357
   6 C      9.404804    6.186821    5.270468
   7 C      8.258969    3.318235    5.638103
   8 C      9.109693    8.689369    4.963585
   9 C      8.011035    6.141010    5.315644
  10 C      6.901700    3.188061    5.694222
  11 C      9.574954   10.095490    4.757635
  12 C      3.502021    8.264565    5.273526
  13 C      4.179917    9.383122    5.112762
  14 C      5.345256    9.984183    4.979585
  15 C      4.435292    7.179926    5.346955
  16 C      4.248046    5.756925    5.513851
  17 C      6.326532    8.917212    5.054296
  18 C      5.840576    7.537980    5.239480
  19 C      4.799938    4.634495    5.617068
  20 C      7.721164    9.216746    4.951932
  21 C      6.854719    6.581695    5.304792
  22 C      5.725161    3.633913    5.686736
  23 C      8.310003   10.577162    4.756591

Unit cell:
           periodic     x           y           z      points  spacing
  1. axis:    yes   16.000000    0.000000    0.000000    80     0.2000
  2. axis:    yes    0.000000   16.000000    0.000000    80     0.2000
  3. axis:    yes    0.000000    0.000000   10.000000    48     0.2083

Effective grid spacing dv^(1/3) = 0.2027

                     log10-error:    total        iterations:
           time      wfs    density  energy       fermi  poisson
iter:   1  10:46:23          +inf  -179.221517    2      4
iter:   2  10:46:24         -3.28  -179.222846    2      1
iter:   3  10:46:24         -3.62  -179.223040    2      1
iter:   4  10:46:25         -3.69  -179.221907    2      1
iter:   5  10:46:25         -3.79  -179.223234    2      1
iter:   6  10:46:26         -3.59  -179.222378    2      1
iter:   7  10:46:26         -4.27  -179.222006    2      1

Converged after 7 iterations.

Dipole moment: (-0.092298, -0.265804, 0.031828) |e|*Ang

Energy contributions relative to reference atoms: (reference = -24663.074771)

Kinetic:       +109.384240
Potential:     -117.569196
External:        +0.000000
XC:            -173.868597
Entropy (-ST):   -0.313478
Local:           +2.988286
Free energy:   -179.378745
Extrapolated:  -179.222006

Fermi level: -4.58496

 Band  Eigenvalues  Occupancy
    0    -23.15927    2.00000
    1    -22.17456    2.00000
    2    -22.13458    2.00000
    3    -20.46604    2.00000
    4    -20.16437    2.00000
    5    -20.12439    2.00000
    6    -19.55879    2.00000
    7    -19.52397    2.00000
    8    -18.76586    2.00000
    9    -18.29865    2.00000
   10    -17.54670    2.00000
   11    -16.99298    2.00000
   12    -16.63562    2.00000
   13    -16.45545    2.00000
   14    -15.36560    2.00000
   15    -15.00450    2.00000
   16    -14.47548    2.00000
   17    -14.15829    2.00000
   18    -13.64971    2.00000
   19    -12.73969    2.00000
   20    -12.58716    2.00000
   21    -12.20972    2.00000
   22    -11.52037    2.00000
   23    -11.22060    2.00000
   24    -11.13362    2.00000
   25    -10.69661    2.00000
   26    -10.69137    2.00000
   27    -10.46217    2.00000
   28     -9.92783    2.00000
   29     -9.68791    2.00000
   30     -9.59266    2.00000
   31     -8.94278    2.00000
   32     -8.84989    2.00000
   33     -8.28784    2.00000
   34     -8.19313    2.00000
   35     -7.47527    2.00000
   36     -7.30868    2.00000
   37     -7.18056    2.00000
   38     -7.13256    2.00000
   39     -7.04847    2.00000
   40     -6.88618    2.00000
   41     -6.61474    2.00000
   42     -6.06392    2.00000
   43     -5.83392    1.99999
   44     -5.60278    1.99992
   45     -5.09702    1.98813
   46     -4.92642    1.93632
   47     -4.70594    1.54054
   48     -4.41320    0.30438
   49     -4.35040    0.17484
   50     -4.23001    0.05588
   51     -3.02722    0.00000
   52     -2.77367    0.00000
   53     -2.24787    0.00000
   54     -2.19095    0.00000
   55     -1.43112    0.00000
   56     -1.36548    0.00000
   57     -0.95701    0.00000
   58     -0.51855    0.00000
   59     -0.49192    0.00000
[...]
   83      8.53352    0.00000
   84      8.77982    0.00000
   85      8.86376    0.00000
   86      8.97684    0.00000
   87      9.26004    0.00000
   88      9.40018    0.00000
   89      9.43873    0.00000
   90      9.60746    0.00000
   91      9.62876    0.00000
   92      9.84262    0.00000
   93      9.89630    0.00000
   94     10.07404    0.00000
   95     10.09560    0.00000
   96     10.23914    0.00000
   97     10.27071    0.00000

Forces in eV/Ang:
  0 C     0.02669   -0.02968   -0.00917
  1 C    -0.00984   -0.03701   -0.00774
  2 C     0.00800    0.01571    0.00263
  3 C     0.01676    0.02248   -0.00800
  4 C    -0.03799    0.01969    0.00584
  5 C     0.00720   -0.00882    0.01220
  6 C    -0.00289    0.00600    0.00155
  7 C     0.06798    0.00700    0.00117
  8 C    -0.02271   -0.04118    0.01311
  9 C     0.01101    0.00921   -0.00105
 10 C    -0.01722   -0.01330   -0.00057
 11 C    -0.03061   -0.03582   -0.02325
 12 C    -0.05266   -0.01188   -0.00149
 13 C    -0.01296   -0.02340    0.00086
 14 C    -0.01510    0.01109   -0.00405
 15 C    -0.00396    0.02739    0.00172
 16 C     0.03460    0.01701    0.00177
 17 C    -0.01380    0.03334   -0.01858
 18 C    -0.01343    0.01441   -0.01215
 19 C    -0.02275    0.01567   -0.00007
 20 C    -0.01252   -0.03128    0.00820
 21 C     0.00302    0.02885   -0.01173
 22 C    -0.01269   -0.00161   -0.01235
 23 C     0.00071   -0.02938    0.05920