User:   esb@s65n11.grendel.cscaa.dk
Date:   Thu Nov  9 10:52:53 2017
Arch:   x86_64
Pid:    76571
Python: 2.7.13
gpaw:   /home/esb/DFT/gpaw_git/gpaw
_gpaw:  /home/esb/DFT/gpaw_git/build/bin.linux-x86_64-2.7/gpaw-python
ase:    /home/esb/DFT/ase_git/ase (version 3.15.0b1)
numpy:  /comm/swstack/core/python/2.7.13/lib/python2.7/site-packages/numpy (version 1.13.3)
scipy:  /comm/swstack/core/python/2.7.13/lib/python2.7/site-packages/scipy (version 0.19.1)
units:  Angstrom and eV
cores:  16
Extra parameters: {'blacs': True}

Input parameters:
  basis: dzp
  gpts: [80 80 48]
  kpts: [1 1 1]
  maxiter: 99
  mixer: {backend: pulay,
          beta: 0.05,
          method: separate,
          nmaxold: 5,
          weight: 75}
  mode: lcao
  nbands: -50
  occupations: {name: fermi-dirac,
                width: 0.1}
  poissonsolver: {eps: 1e-07,
                  name: fd,
                  nn: 3,
                  relax: GS}
  xc: PBE

System changes: positions, numbers, cell, pbc, initial_charges, initial_magmoms

Initialize ...

C-setup:
  name: Carbon
  id: 4aa54d4b901d75f77cc0ea3eec22967b
  Z: 6
  valence: 4
  core: 2
  charge: 0.0
  file: /home/esb/DFT/gpaw-setups-0.8.7929/C.PBE.gz
  cutoffs: 0.64(comp), 1.14(filt), 1.14(core), lmax=2
  valence states:
                energy  radius
    2s(2.00)   -13.751   0.635
    2p(2.00)    -5.284   0.635
    *s          13.461   0.635
    *p          21.927   0.635
    *d           0.000   0.635

  LCAO basis set for C:
    Name: dzp
    File: /home/esb/DFT/gpaw-setups-0.8.7929/C.dzp.basis.gz
    Number of radial functions: 5
    Number of spherical harmonics: 13
      l=0, rc=5.5469 Bohr: 2s-sz confined orbital
      l=1, rc=6.6719 Bohr: 2p-sz confined orbital
      l=0, rc=3.0312 Bohr: 2s-dz split-valence wave
      l=1, rc=3.7500 Bohr: 2p-dz split-valence wave
      l=2, rc=6.6719 Bohr: d-type Gaussian polarization

Reference energy: -24663.074771

Spin-paired calculation

Occupation numbers:
  Fermi-Dirac: width=0.1000 eV

Convergence criteria:
  Maximum total energy change: 0.0005 eV / electron
  Maximum integral of absolute density change: 0.0001 electrons
  Maximum integral of absolute eigenstate change: 4e-08 eV^2
  Maximum number of iterations: 99

Symmetries present (total): 1

  ( 1  0  0)
  ( 0  1  0)
  ( 0  0  1)

1 k-point (Gamma)
1 k-point in the irreducible part of the Brillouin zone
       k-points in crystal coordinates                weights
   0:     0.00000000    0.00000000    0.00000000          1/1

Wave functions: LCAO
  Diagonalizer: Serial LAPACK
  Atomic Correction: dense with blas
  Datatype: float
  Eigensolver: None

LCAO using direct dense diagonalizer

Densities:
  Coarse grid: 80*80*48 grid
  Fine grid: 160*160*96 grid
  Total Charge: 0.000000

Density mixing:
  Method: separate
  Backend: pulay
  Linear mixing parameter: 0.05
  Mixing with 5 old densities
  Damping of long wave oscillations: 75

Hamiltonian:
  XC and Coulomb potentials evaluated on a 160*160*96 grid
  Using the PBE Exchange-Correlation functional
  Interpolation: tri-quintic (5. degree polynomial)
  Poisson solver: Gauss-Seidel solver with 6 multi-grid levels
    Coarsest grid: 5 x 5 x 3 points
    Stencil: 6*3+1=19 point O(h^6) finite-difference Laplacian
    Max iterations: 1000
    Tolerance: 1.000000e-07

Total number of cores used: 16
Domain decomposition: 2 x 4 x 2

Number of atoms: 24
Number of atomic orbitals: 312
Number of bands in calculation: 98
Bands to converge: occupied states only
Number of valence electrons: 96

... initialized

Initializing position-dependent things.

Density initialized from atomic densities
    /      |          C                           |
   /       |       C                              |
  /        |     C        C                       |
 *         |  C     C      C   C  C               |
 |         | C     C     C       C                |
 |         .---C-----C---C-C---C-C----------------.
 |        /    C          C                      /
 |       /       C  C  C                        /

Positions:
   0 C     10.747157    6.005169    5.043671
   1 C     11.269447    7.134263    4.957308
   2 C     11.113106    8.505769    4.934269
   3 C     10.978126    9.956465    4.854680
   4 C      9.289009    3.933811    5.174407
   5 C      9.501709    5.328032    5.187972
   6 C      9.873213    9.080310    5.151590
   7 C      7.622854    9.807095    5.802140
   8 C      8.244528    3.229307    5.229574
   9 C      7.778894    7.476540    5.450777
  10 C      8.217251    6.019402    5.321390
  11 C      8.496992    8.748068    5.468537
  12 C      5.548347    3.356786    4.939193
  13 C      6.878563    3.785099    5.003931
  14 C      4.509351    4.021253    5.177771
  15 C      6.994755    5.226605    5.413361
  16 C      4.436854    5.364954    5.565157
  17 C      5.792656    6.002502    5.695625
  18 C      3.396027    6.249711    5.869571
  19 C      6.081774   10.034463    6.912614
  20 C      4.949593    9.500842    6.807264
  21 C      4.661639    8.191085    6.405778
  22 C      5.903413    7.396757    6.106901
  23 C      3.487354    7.449353    6.229489

Unit cell:
           periodic     x           y           z      points  spacing
  1. axis:    yes   16.000000    0.000000    0.000000    80     0.2000
  2. axis:    yes    0.000000   16.000000    0.000000    80     0.2000
  3. axis:    yes    0.000000    0.000000   10.000000    48     0.2083

Effective grid spacing dv^(1/3) = 0.2027

                     log10-error:    total        iterations:
           time      wfs    density  energy       fermi  poisson
iter:   1  10:52:55          +inf  -182.745386    2      6
iter:   2  10:52:56         -0.89  -181.729162    3      3
iter:   3  10:52:56         -0.93  -178.942122    3      4
iter:   4  10:52:57         -1.13  -178.385379    34     3
iter:   5  10:52:58         -1.22  -177.943796    34     3
iter:   6  10:52:58         -1.47  -178.070935    31     3
iter:   7  10:52:59         -1.64  -178.002976    4      3
iter:   8  10:53:00         -1.84  -177.975270    3      3
iter:   9  10:53:00         -2.01  -177.967264    3      2
iter:  10  10:53:01         -2.15  -177.955521    3      2
iter:  11  10:53:02         -2.36  -177.945892    3      2
iter:  12  10:53:02         -2.59  -177.941937    3      2
iter:  13  10:53:03         -2.66  -177.940496    3      2
iter:  14  10:53:03         -3.01  -177.939065    2      1
iter:  15  10:53:04         -3.07  -177.939342    2      2
iter:  16  10:53:05         -3.45  -177.940002    2      1
iter:  17  10:53:05         -3.52  -177.940065    2      1
iter:  18  10:53:06         -3.60  -177.942563    2      1
iter:  19  10:53:06         -3.78  -177.941980    2      1
iter:  20  10:53:07         -3.84  -177.941078    2      1
iter:  21  10:53:08         -4.08  -177.941191    2      1

Converged after 21 iterations.

Dipole moment: (-0.327701, -0.659438, -0.018575) |e|*Ang

Energy contributions relative to reference atoms: (reference = -24663.074771)

Kinetic:        +88.579750
Potential:     -100.211670
External:        +0.000000
XC:            -169.115973
Entropy (-ST):   -0.267387
Local:           +2.940396
Free energy:   -178.074884
Extrapolated:  -177.941191

Fermi level: -4.43523

 Band  Eigenvalues  Occupancy
    0    -22.94922    2.00000
    1    -22.39733    2.00000
    2    -21.57497    2.00000
    3    -20.95654    2.00000
    4    -20.48537    2.00000
    5    -19.89719    2.00000
    6    -19.60710    2.00000
    7    -19.40125    2.00000
    8    -18.47575    2.00000
    9    -17.99338    2.00000
   10    -17.45516    2.00000
   11    -16.79582    2.00000
   12    -15.92335    2.00000
   13    -15.60268    2.00000
   14    -15.23365    2.00000
   15    -15.04549    2.00000
   16    -14.49396    2.00000
   17    -13.35650    2.00000
   18    -13.11588    2.00000
   19    -12.84163    2.00000
   20    -12.41155    2.00000
   21    -12.01229    2.00000
   22    -11.89623    2.00000
   23    -11.04237    2.00000
   24    -10.92614    2.00000
   25    -10.40118    2.00000
   26    -10.27827    2.00000
   27    -10.08353    2.00000
   28     -9.89772    2.00000
   29     -9.46869    2.00000
   30     -9.43181    2.00000
   31     -8.86867    2.00000
   32     -8.73140    2.00000
   33     -8.48424    2.00000
   34     -8.09685    2.00000
   35     -7.76973    2.00000
   36     -7.30280    2.00000
   37     -7.08492    2.00000
   38     -6.95118    2.00000
   39     -6.72347    2.00000
   40     -6.61162    2.00000
   41     -6.45985    2.00000
   42     -6.36936    2.00000
   43     -5.99928    2.00000
   44     -5.86354    2.00000
   45     -5.49244    1.99995
   46     -4.84680    1.96789
   47     -4.51570    1.38194
   48     -4.36188    0.64884
   49     -3.70049    0.00129
   50     -3.36552    0.00005
   51     -3.35911    0.00004
   52     -2.98693    0.00000
   53     -2.78648    0.00000
   54     -2.63140    0.00000
   55     -1.85220    0.00000
   56     -1.71995    0.00000
   57     -1.39599    0.00000
   58     -1.06478    0.00000
   59     -0.81821    0.00000
[...]
   83      8.58966    0.00000
   84      8.87171    0.00000
   85      9.06692    0.00000
   86      9.14116    0.00000
   87      9.30111    0.00000
   88      9.44340    0.00000
   89      9.49301    0.00000
   90      9.62168    0.00000
   91      9.69638    0.00000
   92      9.73739    0.00000
   93      9.81784    0.00000
   94     10.06154    0.00000
   95     10.13749    0.00000
   96     10.19792    0.00000
   97     10.38239    0.00000

Forces in eV/Ang:
  0 C    -0.61150   -0.28925   -0.07899
  1 C     0.14659    0.23290   -0.00732
  2 C     0.12485   -0.35049    0.03817
  3 C    -0.09285   -0.22055    0.05608
  4 C     0.03595    0.31087    0.00350
  5 C     1.02729   -0.15762   -0.00352
  6 C    -0.52562    1.06195   -0.10933
  7 C    -1.88876    2.50876    1.51864
  8 C    -2.27430    0.44302   -1.08517
  9 C    -0.28075   -1.13739    1.76037
 10 C    -2.01278    1.55170    0.50970
 11 C    -2.53502   -1.02895    1.06651
 12 C     0.48331   -0.42878   -0.06990
 13 C     2.55704   -0.05807    1.82734
 14 C     0.00668    0.02276   -0.18350
 15 C    -0.68861   -0.11508   -1.02283
 16 C    -0.21043   -0.00985    0.10382
 17 C    -1.03265    0.63340    0.22699
 18 C     0.15907   -0.46136    0.05172
 19 C     4.27791    0.15581   -1.74363
 20 C     0.34579    0.43454   -0.43961
 21 C     1.42020   -0.80151   -0.20526
 22 C     1.30035   -2.65949   -2.35288
 23 C     0.28118    0.31687    0.13089

System changes: positions

[...]

Density initialized from wave functions
    /      |          C                           |
   /       |       C                              |
  /        |      C       C                       |
 *         |  C     C      C   C  C               |
 |         | C     C     C       C                |
 |         .---C-----C---C--C--C-C----------------.
 |        /    C          C                      /
 |       /       C  C  C                        /

[...]

Density initialized from wave functions
    /      |          C                           |
   /       |       C                              |
  /        |      C       C                       |
 *         |  C     C      C   C  C               |
 |         | C     C     C       C                |
 |         .---C-----C---C--C--C-C----------------.
 |        /    C          C                      /
 |       /       C  C  C                        /

[...]

Density initialized from wave functions
   /       |       C  C                           |
  /        |      C       C                       |
 *         |  C     C      C   C  C               |
 |         | C     C     C       C                |
 |         .---C-----C---C--C--C-C----------------.
 |        /    C          C                      /
 |       /       C  C  C                        /

[...]

Density initialized from wave functions
   /       |       C   C                          |
  /        |      C      C                        |
 *         |  C     C      C   C  C               |
 |         | C     C    C        C                |
 |         .---C-----C---C--C--C-C----------------.
 |        /    C          C                      /
 |       /       C  C  C                        /

[...]

Density initialized from wave functions
   /       |       C   C                          |
  /        |      C      C                        |
 *         |  C     C      C   C  C               |
 |         | C     C    C        C                |
 |         .---C-----C---C--C--C-C----------------.
 |        /    C    C     C                      /
 |       /       C     C                        /

[...]

Density initialized from wave functions
   /       |       C   C                          |
  /        |      C      C                        |
 *         |  C     C      C   C  C               |
 |         | C     C    C        C                |
 |         .---C-----C---C-C---C-C----------------.
 |        /    C    C     C                      /
 |       /       C     C                        /

[...]

Density initialized from wave functions
   /       |       C   C                          |
  /        |      C      C                        |
 *         |  C     C      C  C   C               |
 |         | C          C        C                |
 |         .---C---C-C---C-C---C-C----------------.
 |        /    C    C     C                      /
 |       /       C     C                        /

[...]

Density initialized from wave functions
   /       |        C  C                          |
  /        |      C       C                       |
 *         |   C    C      C  C   C               |
 |         | C          C        C                |
 |         .---C---C-C---C-C---C-C----------------.
 |        /    C    C     C                      /
 |       /       C     C                        /

[...]

Density initialized from wave functions
   /       |        C  C                          |
  /        |      C       C                       |
 *         |   C    C   C  C  C   C               |
 |         | C                   C                |
 |         .---C---C-C---C-C---C-C----------------.
 |        /    C    C     C                      /
 |       /       C     C                        /

[...]

Density initialized from wave functions
   /       |        C  C                          |
  /        |      C       C                       |
 *         |   C    C   C  C  C  C                |
 |         | C                   C                |
 |         .---C---C-C---C-C---C-C----------------.
 |        /    C    C     C                      /
 |       /       C     C                        /

[...]

Density initialized from wave functions
   /       |        C  C  C                       |
  /        |      C                               |
 *         |   C    C      C  C  C                |
 |         | C          C        C                |
 |         .---C---C-C---C-C---C-C----------------.
 |        /   C     C     C                      /
 |       /       C     C                        /

[...]

Density initialized from wave functions
   /       |        C  C  C                       |
  /        |      C                               |
 *         |   C    C      C  C  C                |
 |         | C          C        C                |
 |         .---C---C-C---C-C---C-C----------------.
 |        /   C           C                      /
 |       /       C  C  C                        /

[...]

Density initialized from wave functions
   /       |        C  C  C                       |
  /        |      C                               |
 *         |   C    C      C  C  C                |
 |         | C          C        C                |
 |         .---C---C-C---C-C---C-C----------------.
 |        /    C          C                      /
 |       /       C  C  C                        /

[...]

Density initialized from wave functions
   /       |        C  C  C                       |
  /        |      C                               |
 *         |   C    C      C  C  C                |
 |         | C          C        C                |
 |         .---C---C-C---C-C---C------------------.
 |        /    C          C                      /
 |       /       C  C  C                        /

[...]

Density initialized from wave functions
   /       |        C  C  C                       |
  /        |      C                               |
 *         |   C    C      C  C  C                |
 |         | C          C        C                |
 |         .---C---C-C---C-C---C------------------.
 |        /   C           C                      /
 |       /       C  C  C                        /

[...]

Density initialized from wave functions
   /       |        C  C  C                       |
  /        |      C                               |
 *         |   C    C      C  C  C                |
 |         | C          C        C                |
 |         .---C---C-C---C-C---C------------------.
 |        /   C                                  /
 |       /       C  C  C  C                     /

[...]

System changes: positions

Initializing position-dependent things.

Density initialized from wave functions
   /       |        C  C  C                       |
  /        |      C                               |
 *         |   C    C      C  C  C                |
 |         | C          C        C                |
 |         .---C---C-C---C-C---C------------------.
 |        /    C                                 /
 |       /       C  C  C  C                     /

Positions:
   0 C     10.641694    6.077745    5.277241
   1 C     11.146132    7.220301    5.244110
   2 C     10.890854    8.550736    4.989361
   3 C     10.634512    9.919214    4.605309
   4 C      9.241813    3.989508    4.957091
   5 C      9.418091    5.366847    5.221373
   6 C      9.592766    9.059026    5.110602
   7 C      7.766792    9.818090    6.357286
   8 C      8.225830    3.244283    4.883236
   9 C      7.587436    7.423421    5.631824
  10 C      8.101947    6.010828    5.380925
  11 C      8.296294    8.700679    5.668253
  12 C      5.570465    3.261080    5.116025
  13 C      6.910199    3.717306    5.069317
  14 C      4.533806    3.943538    5.353840
  15 C      6.943810    5.160138    5.320744
  16 C      4.435275    5.329580    5.622295
  17 C      5.764383    5.923814    5.572271
  18 C      3.474353    6.319531    5.952406
  19 C      6.487859    9.860480    6.598320
  20 C      5.206434    9.586395    6.658324
  21 C      5.007067    8.248994    6.192968
  22 C      6.105163    7.306035    5.811462
  23 C      3.784071    7.520531    6.166885

Unit cell:
           periodic     x           y           z      points  spacing
  1. axis:    yes   16.000000    0.000000    0.000000    80     0.2000
  2. axis:    yes    0.000000   16.000000    0.000000    80     0.2000
  3. axis:    yes    0.000000    0.000000   10.000000    48     0.2083

Effective grid spacing dv^(1/3) = 0.2027

                     log10-error:    total        iterations:
           time      wfs    density  energy       fermi  poisson
iter:   1  10:59:31          +inf  -184.426696    2      4
iter:   2  10:59:31         -3.15  -184.426584    2      1
iter:   3  10:59:32         -3.24  -184.426376    2      1
iter:   4  10:59:33         -3.53  -184.426276    2      1
iter:   5  10:59:33         -3.81  -184.425878    2      1
iter:   6  10:59:34         -3.82  -184.425488    2      1
iter:   7  10:59:34         -4.11  -184.425750    2      1

Converged after 7 iterations.

Dipole moment: (-0.097833, -0.687908, -0.007872) |e|*Ang

Energy contributions relative to reference atoms: (reference = -24663.074771)

Kinetic:       +114.503858
Potential:     -122.798505
External:        +0.000000
XC:            -179.099711
Entropy (-ST):   -0.050698
Local:           +2.993957
Free energy:   -184.451099
Extrapolated:  -184.425750

Fermi level: -4.31726

 Band  Eigenvalues  Occupancy
    0    -23.00274    2.00000
    1    -22.78326    2.00000
    2    -21.68730    2.00000
    3    -21.32228    2.00000
    4    -20.55180    2.00000
    5    -20.41047    2.00000
    6    -19.85134    2.00000
    7    -19.41911    2.00000
    8    -18.57676    2.00000
    9    -18.15670    2.00000
   10    -17.74087    2.00000
   11    -16.97399    2.00000
   12    -16.62960    2.00000
   13    -16.11577    2.00000
   14    -15.21408    2.00000
   15    -15.12062    2.00000
   16    -14.34213    2.00000
   17    -13.74591    2.00000
   18    -13.15945    2.00000
   19    -12.92576    2.00000
   20    -12.55798    2.00000
   21    -12.19430    2.00000
   22    -11.92312    2.00000
   23    -11.26842    2.00000
   24    -10.78446    2.00000
   25    -10.70124    2.00000
   26    -10.68862    2.00000
   27    -10.29122    2.00000
   28     -9.97587    2.00000
   29     -9.70770    2.00000
   30     -9.46582    2.00000
   31     -9.35821    2.00000
   32     -8.95826    2.00000
   33     -8.70337    2.00000
   34     -8.32753    2.00000
   35     -8.15100    2.00000
   36     -7.43386    2.00000
   37     -7.26126    2.00000
   38     -6.99235    2.00000
   39     -6.88742    2.00000
   40     -6.62594    2.00000
   41     -6.55598    2.00000
   42     -6.40738    2.00000
   43     -6.18981    2.00000
   44     -5.81736    2.00000
   45     -5.79565    2.00000
   46     -4.81357    1.98612
   47     -4.71376    1.96277
   48     -3.95290    0.05098
   49     -3.31521    0.00009
   50     -3.22698    0.00004
   51     -3.04984    0.00001
   52     -2.79361    0.00000
   53     -2.75092    0.00000
   54     -1.69309    0.00000
   55     -1.59457    0.00000
   56     -1.25547    0.00000
   57     -1.11808    0.00000
   58     -0.70915    0.00000
   59      0.33077    0.00000
[...]
   83      8.82047    0.00000
   84      8.98093    0.00000
   85      9.04755    0.00000
   86      9.25497    0.00000
   87      9.43177    0.00000
   88      9.51544    0.00000
   89      9.59028    0.00000
   90      9.62078    0.00000
   91      9.73300    0.00000
   92      9.92735    0.00000
   93      9.96955    0.00000
   94     10.04664    0.00000
   95     10.26774    0.00000
   96     10.39488    0.00000
   97     10.43955    0.00000

Forces in eV/Ang:
  0 C    -0.00117   -0.01854    0.01584
  1 C     0.00905   -0.00270    0.03286
  2 C    -0.05405    0.01928    0.03598
  3 C    -0.01595    0.02137    0.00056
  4 C    -0.01177    0.02646   -0.00365
  5 C     0.01125   -0.01470   -0.00238
  6 C    -0.00544   -0.05209   -0.06699
  7 C     0.01529    0.02621   -0.01423
  8 C     0.01114    0.01519   -0.04245
  9 C     0.05578   -0.00182    0.03003
 10 C     0.02391   -0.05426    0.00543
 11 C     0.00614    0.00959   -0.05541
 12 C     0.02520   -0.01039    0.00999
 13 C     0.00198   -0.01507    0.04854
 14 C    -0.00333   -0.01178   -0.01613
 15 C    -0.00578    0.00403   -0.03885
 16 C    -0.01133   -0.00968   -0.03997
 17 C     0.00846   -0.00088    0.04495
 18 C    -0.02978   -0.02221   -0.03665
 19 C     0.01356   -0.02539    0.01913
 20 C     0.01265   -0.01842    0.04140
 21 C    -0.00366    0.00016    0.04618
 22 C    -0.00633    0.03869   -0.01525
 23 C     0.03025   -0.01577    0.01825