User:   esb@s66n72.grendel.cscaa.dk
Date:   Wed Nov  8 14:13:03 2017
Arch:   x86_64
Pid:    43737
Python: 2.7.13
gpaw:   /home/esb/DFT/gpaw_git/gpaw
_gpaw:  /home/esb/DFT/gpaw_git/build/bin.linux-x86_64-2.7/gpaw-python
ase:    /home/esb/DFT/ase_git/ase (version 3.15.0b1)
numpy:  /comm/swstack/core/python/2.7.13/lib/python2.7/site-packages/numpy (version 1.13.3)
scipy:  /comm/swstack/core/python/2.7.13/lib/python2.7/site-packages/scipy (version 0.19.1)
units:  Angstrom and eV
cores:  16
Extra parameters: {'blacs': True}

Input parameters:
  basis: dzp
  gpts: [80 80 48]
  kpts: [1 1 1]
  maxiter: 99
  mixer: {backend: pulay,
          beta: 0.05,
          method: separate,
          nmaxold: 5,
          weight: 75}
  mode: lcao
  nbands: -50
  occupations: {name: fermi-dirac,
                width: 0.1}
  poissonsolver: {eps: 1e-07,
                  name: fd,
                  nn: 3,
                  relax: GS}
  xc: PBE

System changes: positions, numbers, cell, pbc, initial_charges, initial_magmoms

Initialize ...

C-setup:
  name: Carbon
  id: 4aa54d4b901d75f77cc0ea3eec22967b
  Z: 6
  valence: 4
  core: 2
  charge: 0.0
  file: /home/esb/DFT/gpaw-setups-0.8.7929/C.PBE.gz
  cutoffs: 0.64(comp), 1.14(filt), 1.14(core), lmax=2
  valence states:
                energy  radius
    2s(2.00)   -13.751   0.635
    2p(2.00)    -5.284   0.635
    *s          13.461   0.635
    *p          21.927   0.635
    *d           0.000   0.635

  LCAO basis set for C:
    Name: dzp
    File: /home/esb/DFT/gpaw-setups-0.8.7929/C.dzp.basis.gz
    Number of radial functions: 5
    Number of spherical harmonics: 13
      l=0, rc=5.5469 Bohr: 2s-sz confined orbital
      l=1, rc=6.6719 Bohr: 2p-sz confined orbital
      l=0, rc=3.0312 Bohr: 2s-dz split-valence wave
      l=1, rc=3.7500 Bohr: 2p-dz split-valence wave
      l=2, rc=6.6719 Bohr: d-type Gaussian polarization

Reference energy: -24663.074771

Spin-paired calculation

Occupation numbers:
  Fermi-Dirac: width=0.1000 eV

Convergence criteria:
  Maximum total energy change: 0.0005 eV / electron
  Maximum integral of absolute density change: 0.0001 electrons
  Maximum integral of absolute eigenstate change: 4e-08 eV^2
  Maximum number of iterations: 99

Symmetries present (total): 1

  ( 1  0  0)
  ( 0  1  0)
  ( 0  0  1)

1 k-point (Gamma)
1 k-point in the irreducible part of the Brillouin zone
       k-points in crystal coordinates                weights
   0:     0.00000000    0.00000000    0.00000000          1/1

Wave functions: LCAO
  Diagonalizer: Serial LAPACK
  Atomic Correction: dense with blas
  Datatype: float
  Eigensolver: None

LCAO using direct dense diagonalizer

Densities:
  Coarse grid: 80*80*48 grid
  Fine grid: 160*160*96 grid
  Total Charge: 0.000000

Density mixing:
  Method: separate
  Backend: pulay
  Linear mixing parameter: 0.05
  Mixing with 5 old densities
  Damping of long wave oscillations: 75

Hamiltonian:
  XC and Coulomb potentials evaluated on a 160*160*96 grid
  Using the PBE Exchange-Correlation functional
  Interpolation: tri-quintic (5. degree polynomial)
  Poisson solver: Gauss-Seidel solver with 6 multi-grid levels
    Coarsest grid: 5 x 5 x 3 points
    Stencil: 6*3+1=19 point O(h^6) finite-difference Laplacian
    Max iterations: 1000
    Tolerance: 1.000000e-07

Total number of cores used: 16
Domain decomposition: 2 x 4 x 2

Number of atoms: 24
Number of atomic orbitals: 312
Number of bands in calculation: 98
Bands to converge: occupied states only
Number of valence electrons: 96

... initialized

Initializing position-dependent things.

Density initialized from atomic densities
  /        |          C  C   C                    |
 *         |    C   CC   C  C     C               |
 |         |     C    C C      C                  |
 |         .--CC----C--C----C---C-----------------.
 |        /        C  C                          /
 |       /        C         CC                  /

Positions:
   0 C      6.798267    7.197296    5.528725
   1 C      3.770807    9.086746    4.967576
   2 C      4.064985    5.843754    5.108362
   3 C      7.172544    8.036998    4.732560
   4 C     10.188070    5.134088    4.315383
   5 C      6.029880    5.079312    4.855251
   6 C      6.320630    6.170181    4.793428
   7 C      7.683250    7.777461    5.656922
   8 C      7.310994   10.497992    5.418283
   9 C     10.878968   10.267136    4.916967
  10 C      6.108701    8.398065    5.218815
  11 C      9.837120    4.046108    4.390808
  12 C      6.191147    3.433497    4.857332
  13 C     10.286048    8.082284    4.643366
  14 C     11.103978    6.927979    5.078921
  15 C      9.399028    6.175472    4.723665
  16 C      7.952378    3.275138    5.542182
  17 C      7.350161    5.765792    5.108196
  18 C      4.995025   10.338633    4.480273
  19 C      4.844655    6.674409    5.675747
  20 C      5.982582    9.499641    5.594604
  21 C      8.520277   10.029684    4.406220
  22 C      3.434461    7.106680    4.260984
  23 C      9.189060    9.259645    5.705846

Unit cell:
           periodic     x           y           z      points  spacing
  1. axis:    yes   16.000000    0.000000    0.000000    80     0.2000
  2. axis:    yes    0.000000   16.000000    0.000000    80     0.2000
  3. axis:    yes    0.000000    0.000000   10.000000    48     0.2083

Effective grid spacing dv^(1/3) = 0.2027

                     log10-error:    total        iterations:
           time      wfs    density  energy       fermi  poisson
iter:   1  14:13:05          +inf  -117.897622    3      6
iter:   2  14:13:05         -0.84  -113.983104    3      3
iter:   3  14:13:06         -0.90  -110.858617    3      3
iter:   4  14:13:07         -0.96  -110.259276    3      2
iter:   5  14:13:07         -1.02  -109.073929    3      3
iter:   6  14:13:08         -1.16  -108.409528    3      3
iter:   7  14:13:08         -1.28  -108.026271    3      3
iter:   8  14:13:09         -1.52  -107.953581    3      2
iter:   9  14:13:10         -1.64  -107.929127    3      3
iter:  10  14:13:10         -1.79  -107.908532    2      2
iter:  11  14:13:11         -1.90  -107.893767    3      2
iter:  12  14:13:11         -2.03  -107.882678    3      3
iter:  13  14:13:12         -2.32  -107.883164    2      2
iter:  14  14:13:12         -2.43  -107.882812    3      2
iter:  15  14:13:13         -2.76  -107.883818    2      1
iter:  16  14:13:14         -2.82  -107.879572    3      2
iter:  17  14:13:14         -3.08  -107.879575    2      1
iter:  18  14:13:15         -3.18  -107.878075    2      1
iter:  19  14:13:15         -3.35  -107.876625    2      1
iter:  20  14:13:16         -3.46  -107.877662    2      1
iter:  21  14:13:16         -3.60  -107.879137    2      1
iter:  22  14:13:17         -3.69  -107.879240    2      1
iter:  23  14:13:17         -3.80  -107.878369    2      1
iter:  24  14:13:18         -4.07  -107.878695    2      1

Converged after 24 iterations.

Dipole moment: (-0.034607, 0.216478, 0.106203) |e|*Ang

Energy contributions relative to reference atoms: (reference = -24663.074771)

Kinetic:       +241.555907
Potential:     -193.595979
External:        +0.000000
XC:            -158.449105
Entropy (-ST):   -0.308406
Local:           +2.764685
Free energy:   -108.032898
Extrapolated:  -107.878695

Fermi level: -4.86527

 Band  Eigenvalues  Occupancy
    0    -33.18281    2.00000
    1    -28.27386    2.00000
    2    -23.14027    2.00000
    3    -21.44392    2.00000
    4    -21.22266    2.00000
    5    -21.02667    2.00000
    6    -19.94518    2.00000
    7    -18.97229    2.00000
    8    -18.34647    2.00000
    9    -16.98959    2.00000
   10    -16.39241    2.00000
   11    -16.24392    2.00000
   12    -16.01599    2.00000
   13    -15.61876    2.00000
   14    -15.17013    2.00000
   15    -14.20764    2.00000
   16    -13.72507    2.00000
   17    -13.12867    2.00000
   18    -13.01738    2.00000
   19    -12.62373    2.00000
   20    -12.48845    2.00000
   21    -11.84708    2.00000
   22    -11.50025    2.00000
   23    -11.03002    2.00000
   24    -10.57074    2.00000
   25    -10.03877    2.00000
   26     -9.41424    2.00000
   27     -9.27053    2.00000
   28     -8.97704    2.00000
   29     -8.73961    2.00000
   30     -8.41650    2.00000
   31     -8.24707    2.00000
   32     -8.05388    2.00000
   33     -7.78730    2.00000
   34     -7.40704    2.00000
   35     -7.31160    2.00000
   36     -7.04090    2.00000
   37     -6.82101    2.00000
   38     -6.72029    2.00000
   39     -6.60156    2.00000
   40     -6.36892    2.00000
   41     -6.12316    1.99999
   42     -5.82278    1.99986
   43     -5.58307    1.99847
   44     -5.44106    1.99370
   45     -5.26817    1.96504
   46     -5.12518    1.86160
   47     -5.02464    1.66225
   48     -4.73973    0.44352
   49     -4.50045    0.05075
   50     -4.41398    0.02169
   51     -4.18755    0.00228
   52     -4.06742    0.00069
   53     -3.88281    0.00011
   54     -3.72989    0.00002
   55     -3.61796    0.00001
   56     -3.49659    0.00000
   57     -3.26244    0.00000
   58     -3.13664    0.00000
   59     -2.82944    0.00000
[...]
   83      4.96462    0.00000
   84      6.14918    0.00000
   85      6.96331    0.00000
   86      7.30520    0.00000
   87      7.68487    0.00000
   88      8.10950    0.00000
   89      8.25977    0.00000
   90      8.80312    0.00000
   91      8.91568    0.00000
   92      9.13319    0.00000
   93      9.26007    0.00000
   94      9.34117    0.00000
   95      9.45591    0.00000
   96      9.56624    0.00000
   97      9.70296    0.00000

Forces in eV/Ang:
  0 C   -31.16449  -28.88874   10.12062
  1 C     2.83346    1.11826   -1.67990
  2 C    -5.95417    0.19975   -4.39943
  3 C     2.04160   14.58168  -40.72280
  4 C     3.26169   14.71004   -0.77893
  5 C    -6.60800  -31.18820   -0.50448
  6 C   -11.19524   22.49807  -10.63271
  7 C    47.83753   14.03689   29.84056
  8 C     0.43917   -2.67212   -2.58398
  9 C    -3.46712   -2.71856    0.55694
 10 C   -10.91630   -5.30794   -2.17150
 11 C    -5.75827  -16.87430    1.46039
 12 C     2.82391    4.96747    1.33169
 13 C     1.08555   -1.12325    3.26329
 14 C    -2.50354    3.58680   -1.31108
 15 C     0.56209    3.33374   -0.11550
 16 C    -2.65056    1.49823   -2.17567
 17 C    22.98496  -12.08347    6.24041
 18 C    -1.96493   -4.78698    3.74157
 19 C    -2.35516    4.97431    3.67764
 20 C    -2.54672   21.42191    2.88426
 21 C    -1.19777    0.81536    5.60495
 22 C     2.31868   -1.39214    3.22878
 23 C     2.04987   -0.58558   -4.84090

System changes: positions

[...]

Density initialized from wave functions
  /        |          C  C   C                    |
 *         |    C   CC   C  C     C               |
 |         |     C    C C      C                  |
 |         .--CC----C--C----C---C-----------------.
 |        /        C  C                          /
 |       /        C        C C                  /

[...]

Density initialized from wave functions
  /        |          C  C   C                    |
 *         |    C   CC   C  C     C               |
 |         |     C    C C      C                  |
[...]
 |       /          C  C     C                  /
 |      /                 C                    /

[...]

Density initialized from wave functions
 *         |      C  C   C  C C                   |
 |         |  CC  C    CC        C                |
 |         .--C--C-C-----C--C-C-C-----------------.
 |       /          C  C     C                  /
 |      /                 C                    /

[...]

Density initialized from wave functions
 *         |      C  C   C  C C                   |
 |         |  C C C    CC        C                |
 |         .--C--C-C-----C--C-C-C-----------------.
 |       /          C  C     C                  /
 |      /                 C                    /

[...]

Density initialized from wave functions
 *         |      C  C   C  C C                   |
 |         |  C C C    CC        C                |
 |         .--C--C-C-----C--C-C-C-----------------.
 |       /          C  C     C                  /
 |      /                 C                    /

[...]

Density initialized from wave functions
 *         |      C  C   C  C C                   |
 |         |  C C C    CC        C                |
 |         .--C--C-C-----C---C--C-----------------.
 |        /                 C                    /
 |       /          C  C     C                  /
 |      /                 C                    /

[...]

Density initialized from wave functions
 *         |      C  C   C  C C                   |
 |         |  C C      CC        C                |
 |         .--C--C-C-----C---C--C-----------------.
 |        /                 C                    /
 |       /          C  C     C                  /
 |      /                 C                    /

[...]

Density initialized from wave functions
 *         |      C  C   C  C C                   |
 |         |  C C      CC        C                |
 |         .--C--C-C-----C---C--C-----------------.
 |        /                 C                    /
 |       /          C  C     C                  /
 |      /                 C                    /

[...]

Density initialized from wave functions
  /        |                C                     |
 *         |      C  C   C C  C                   |
 |         |  C C      CC        C                |
 |         .--C--C-C-----C---C--C-----------------.
 |        /                 C                    /
 |       /          C  C     C                  /
 |      /                 C                    /

[...]

Density initialized from wave functions
  /        |                C                     |
 *         |      C  C   C C  C                   |
 |         |  C C C    CC        C                |
 |         .--C--C-C-----C---C--C-----------------.
 |        /                 C                    /
 |       /          C  C     C                  /
 |      /                 C                    /

[...]

Density initialized from wave functions
  /        |                C                     |
 *         |      C  C   C C  C                   |
 |         |   CC C    CC        C                |
 |         .--C--C-C-----C---C--C-----------------.
 |        /                 C                    /
 |       /          C  C     C                  /
 |      /                 C                    /

[...]

Density initialized from wave functions
  /        |                C                     |
 *         |      C  C   C C  C                   |
 |         |   C  C    CC        C                |
 |         .-----C-C-----C---C--C-----------------.
 |        /   C             C                    /
 |       /          C  C     C                  /
 |      /                 C                    /

[...]

Density initialized from wave functions
  /        |                C                     |
 *         |      C  C   C   C                    |
 |         |   C  C    CC  C     C                |
 |         .-----C-C-----C---C--C-----------------.
 |        /   C             C                    /
 |       /          C  C     C                  /
 |      /                 C                    /

[...]

Density initialized from wave functions
 *         |      C  C   C  CC                    |
 |         |   C  C    CC  C     C                |
 |         .-----C-C-----C----C-C-----------------.
 |        /   C             C                    /
 |       /          C  C     C                  /
 |      /                 C                    /

[...]

Density initialized from wave functions
 *         |      C  C   C  CC                    |
 |         |   C  C    CC  C     C                |
 |         .-----C-C-----C----C-C-----------------.
 |        /   C             C                    /
 |       /          C  C     C                  /
 |      /                 C                    /

[...]

Density initialized from wave functions
 *         |      C  C   C  CC                    |
 |         |   C  C    CC  C     C                |
 |         .-----C-C-----C----C-C-----------------.
 |        /   C     C       C                    /
 |       /             C     C                  /
 |      /                 C                    /

[...]

Density initialized from wave functions
 *         |      C  C   C  CC                    |
 |         |   C  C    CC  C     C                |
 |         .-----C-C-----C---C--C-----------------.
 |        /   C     C       C                    /
 |       /             C     C                  /
 |      /                 C                    /

[...]

Density initialized from wave functions
 *         |      C  C   C  CC                    |
 |         |   C  C    CC  C     C                |
 |         .--C--C-C-----C---C--C-----------------.
 |        /         C       C                    /
 |       /             C     C                  /
 |      /                 C                    /

[...]

Density initialized from wave functions
 *         |      C  C   C  CC                    |
 |         |   C  C    CC  C     C                |
 |         .--C--C-C-----C----C-C-----------------.
 |        /         C       C                    /
 |       /             C     C                  /
 |      /                 C                    /

[...]

Density initialized from wave functions
 *         |      C  C  C   CC                    |
 |         |   C  C    CC  C     C                |
 |         .--C--C-C-----C----C-C-----------------.
 |        /         C       C                    /
 |       /             C     C                  /
 |      /                 C                    /

[...]

Density initialized from wave functions
  /        |            C                         |
 *         |      C  C      CC                    |
 |         |   C  C    CC  C     C                |
 |         .--C--C-C-----C----C-C-----------------.
 |        /         C       C                    /
 |       /             C     C                  /
 |      /                 C                    /

[...]

Density initialized from wave functions
  /        |            C                         |
 *         |      C  C      CC                    |
 |         |   C  C    CC  C     C                |
 |         .-----C-C-----C----C-C-----------------.
 |        /   C     C       C                    /
 |       /             C     C                  /
 |      /                 C                    /

[...]

Density initialized from wave functions
  /        |            C                         |
 *         |      C  C     C C                    |
 |         |   C  C    CC  C     C                |
 |         .-----C-C-----C----C-C-----------------.
 |        /   C     C       C                    /
 |       /             C     C                  /
 |      /                 C                    /

[...]

Density initialized from wave functions
  /        |            C                         |
 *         |      C  C     C C                    |
 |         |   C  C    CC  C     C                |
 |         .-----C-C-----C----C-C-----------------.
 |        /   C     C       C                    /
 |       /             C     C                  /
 |      /                 C                    /

[...]

Density initialized from wave functions
  /        |            C                         |
 *         |      C  C     C C                    |
 |         |   C  C    CC  C     C                |
 |         .-----C-C-----C----C--C----------------.
 |        /   C     C       C                    /
 |       /             C     C                  /
 |      /                 C                    /

[...]

Density initialized from wave functions
  /        |            C                         |
 *         |      C  C     C C                    |
 |         |   C  C    CC  C     C                |
 |         .--C--C-C-----C----C--C----------------.
 |        /         C       C                    /
 |       /             C     C                  /
 |      /                 C                    /

[...]

Density initialized from wave functions
  /        |            C                         |
 *         |      C  C     C C                    |
 |         |   C  C    CC  C     C                |
 |         .--C--C-C-----C----C--C----------------.
 |        /         C       C                    /
 |       /             C     C                  /
 |      /                 C                    /

[...]

Density initialized from wave functions
  /        |            C                         |
 *         |   C  C  C     C C                    |
 |         |   C  C    CC  C     C                |
 |         .--C--C-C-----C----C--C----------------.
 |        /         C       C                    /
 |       /             C     C                  /
 |      /                 C                    /

[...]

Density initialized from wave functions
  /        |            C                         |
 *         |   C  C  C     C C                    |
 |         |   C  C    CC  C     C                |
 |         .--C--C-C-----C----C--C----------------.
 |        /         C       C                    /
 |       /             C  C  C                  /

[...]

Density initialized from wave functions
  /        |            C                         |
 *         |   C  C  C     C C                    |
 |         |   C  C     C  C     C                |
 |         .--C--C-C---C-C----C--C----------------.
 |        /                 C                    /
 |       /          C  C  C  C                  /

[...]

System changes: positions

Initializing position-dependent things.

Density initialized from wave functions
  /        |            C                         |
 *         |   C  C  C     C C                    |
 |         |   C  C     C  C     C                |
 |         .--C--C-C---C-C----C--C----------------.
 |        /                 C                    /
 |       /          C  C  C  C                  /

Positions:
   0 C      5.046574    7.363117    5.560126
   1 C      3.487152    8.984722    5.080027
   2 C      4.973726    5.916072    5.403558
   3 C      7.416336    7.588807    5.330246
   4 C     10.334750    4.483668    4.384499
   5 C      6.173372    5.220626    5.367358
   6 C      7.317255    6.156252    5.479013
   7 C      8.742426    8.055700    5.031690
   8 C      6.926071   10.479970    5.018803
   9 C     10.599348    9.365001    4.436524
  10 C      6.118183    8.265193    5.322122
  11 C      9.395154    3.594231    4.445904
  12 C      6.707423    3.863389    5.030805
  13 C     10.914834    8.132074    4.308480
  14 C      9.900048    7.178060    4.739915
  15 C      9.743938    5.767010    4.798098
  16 C      8.079911    3.958384    4.966523
  17 C      8.429532    5.376545    5.252974
  18 C      4.363609    9.903943    5.045482
  19 C      3.669618    6.279387    4.734094
  20 C      5.778881    9.686244    5.126591
  21 C      8.179097   10.388685    4.888688
  22 C      3.622345    7.610403    5.328322
  23 C      9.208450    9.466950    4.782842

Unit cell:
           periodic     x           y           z      points  spacing
  1. axis:    yes   16.000000    0.000000    0.000000    80     0.2000
  2. axis:    yes    0.000000   16.000000    0.000000    80     0.2000
  3. axis:    yes    0.000000    0.000000   10.000000    48     0.2083

Effective grid spacing dv^(1/3) = 0.2027

                     log10-error:    total        iterations:
           time      wfs    density  energy       fermi  poisson
iter:   1  14:37:56          +inf  -182.023950    3      4
iter:   2  14:37:57         -2.80  -182.019743    3      1
iter:   3  14:37:57         -3.06  -182.018467    2      1
iter:   4  14:37:58         -3.20  -182.019891    2      1
iter:   5  14:37:58         -3.37  -182.018885    2      1
iter:   6  14:37:59         -3.25  -182.023577    3      1
iter:   7  14:37:59         -3.11  -182.022293    2      1
iter:   8  14:38:00         -3.34  -182.018356    2      1
iter:   9  14:38:00         -3.98  -182.018088    2      1
iter:  10  14:38:01         -4.18  -182.018385    2      1

Converged after 10 iterations.

Dipole moment: (-0.203362, 0.647075, 0.307505) |e|*Ang

Energy contributions relative to reference atoms: (reference = -24663.074771)

Kinetic:       +117.122063
Potential:     -122.087937
External:        +0.000000
XC:            -179.904660
Entropy (-ST):   -0.241874
Local:           +2.973087
Free energy:   -182.139322
Extrapolated:  -182.018385

Fermi level: -4.28163

 Band  Eigenvalues  Occupancy
    0    -23.45546    2.00000
    1    -22.68163    2.00000
    2    -22.07353    2.00000
    3    -21.40506    2.00000
    4    -20.89571    2.00000
    5    -20.11611    2.00000
    6    -19.84402    2.00000
    7    -18.96582    2.00000
    8    -18.65666    2.00000
    9    -17.84637    2.00000
   10    -17.17654    2.00000
   11    -16.96948    2.00000
   12    -16.64643    2.00000
   13    -15.63860    2.00000
   14    -15.04932    2.00000
   15    -14.58170    2.00000
   16    -13.99505    2.00000
   17    -13.73224    2.00000
   18    -13.27067    2.00000
   19    -12.90217    2.00000
   20    -12.52653    2.00000
   21    -11.79540    2.00000
   22    -11.59157    2.00000
   23    -11.15300    2.00000
   24    -11.11104    2.00000
   25    -10.85785    2.00000
   26    -10.59689    2.00000
   27    -10.48273    2.00000
   28    -10.09775    2.00000
   29     -9.94223    2.00000
   30     -9.63920    2.00000
   31     -9.26386    2.00000
   32     -8.93890    2.00000
   33     -8.82020    2.00000
   34     -8.59597    2.00000
   35     -8.32674    2.00000
   36     -7.89357    2.00000
   37     -7.16863    2.00000
   38     -6.89615    2.00000
   39     -6.78986    2.00000
   40     -6.43454    2.00000
   41     -6.34495    2.00000
   42     -6.18387    2.00000
   43     -5.65409    2.00000
   44     -5.38898    1.99997
   45     -5.12871    1.99958
   46     -4.94567    1.99739
   47     -4.40106    1.53502
   48     -4.14434    0.40430
   49     -3.93005    0.05773
   50     -3.69884    0.00587
   51     -3.30357    0.00011
   52     -3.13385    0.00002
   53     -2.82160    0.00000
   54     -2.37519    0.00000
   55     -2.13570    0.00000
   56     -1.15818    0.00000
   57     -0.71977    0.00000
   58      0.22225    0.00000
   59      0.73224    0.00000
[...]
   83      8.92722    0.00000
   84      8.98059    0.00000
   85      9.02148    0.00000
   86      9.25027    0.00000
   87      9.47635    0.00000
   88      9.60256    0.00000
   89      9.67042    0.00000
   90      9.73048    0.00000
   91      9.82443    0.00000
   92      9.87952    0.00000
   93     10.16481    0.00000
   94     10.23044    0.00000
   95     10.44325    0.00000
   96     10.47548    0.00000
   97     10.58574    0.00000

Forces in eV/Ang:
  0 C    -0.07150   -0.02319    0.00460
  1 C    -0.01892   -0.00076    0.00321
  2 C    -0.01897   -0.04386    0.05251
  3 C    -0.00421    0.02962   -0.04794
  4 C    -0.03639    0.01793    0.02338
  5 C    -0.00182   -0.04609   -0.00292
  6 C    -0.02286    0.01916   -0.04815
  7 C     0.06247    0.01467    0.05770
  8 C     0.00960   -0.00080   -0.01496
  9 C    -0.00287   -0.04299    0.00563
 10 C    -0.03324   -0.00502    0.01050
 11 C    -0.03027   -0.00836   -0.02225
 12 C     0.05988    0.06414   -0.00007
 13 C     0.00857    0.00980    0.02025
 14 C    -0.01857   -0.01750    0.00063
 15 C     0.03426   -0.05046    0.00800
 16 C     0.00891   -0.01732    0.01664
 17 C     0.08926   -0.01512   -0.00401
 18 C     0.01272   -0.00169    0.00679
 19 C     0.00447    0.00080   -0.01257
 20 C    -0.04483    0.03841   -0.02743
 21 C    -0.01903   -0.00940   -0.00226
 22 C    -0.00128   -0.00135    0.02597
 23 C     0.01066   -0.00127    0.01635