User:   esb@s65n31.grendel.cscaa.dk
Date:   Thu Nov  9 11:53:30 2017
Arch:   x86_64
Pid:    18287
Python: 2.7.13
gpaw:   /home/esb/DFT/gpaw_git/gpaw
_gpaw:  /home/esb/DFT/gpaw_git/build/bin.linux-x86_64-2.7/gpaw-python
ase:    /home/esb/DFT/ase_git/ase (version 3.15.0b1)
numpy:  /comm/swstack/core/python/2.7.13/lib/python2.7/site-packages/numpy (version 1.13.3)
scipy:  /comm/swstack/core/python/2.7.13/lib/python2.7/site-packages/scipy (version 0.19.1)
units:  Angstrom and eV
cores:  16
Extra parameters: {'blacs': True}

Input parameters:
  basis: dzp
  gpts: [80 80 48]
  kpts: [1 1 1]
  maxiter: 99
  mixer: {backend: pulay,
          beta: 0.05,
          method: separate,
          nmaxold: 5,
          weight: 75}
  mode: lcao
  nbands: -50
  occupations: {name: fermi-dirac,
                width: 0.1}
  poissonsolver: {eps: 1e-07,
                  name: fd,
                  nn: 3,
                  relax: GS}
  xc: PBE

System changes: positions, numbers, cell, pbc, initial_charges, initial_magmoms

Initialize ...

C-setup:
  name: Carbon
  id: 4aa54d4b901d75f77cc0ea3eec22967b
  Z: 6
  valence: 4
  core: 2
  charge: 0.0
  file: /home/esb/DFT/gpaw-setups-0.8.7929/C.PBE.gz
  cutoffs: 0.64(comp), 1.14(filt), 1.14(core), lmax=2
  valence states:
                energy  radius
    2s(2.00)   -13.751   0.635
    2p(2.00)    -5.284   0.635
    *s          13.461   0.635
    *p          21.927   0.635
    *d           0.000   0.635

  LCAO basis set for C:
    Name: dzp
    File: /home/esb/DFT/gpaw-setups-0.8.7929/C.dzp.basis.gz
    Number of radial functions: 5
    Number of spherical harmonics: 13
      l=0, rc=5.5469 Bohr: 2s-sz confined orbital
      l=1, rc=6.6719 Bohr: 2p-sz confined orbital
      l=0, rc=3.0312 Bohr: 2s-dz split-valence wave
      l=1, rc=3.7500 Bohr: 2p-dz split-valence wave
      l=2, rc=6.6719 Bohr: d-type Gaussian polarization

Reference energy: -24663.074771

Spin-paired calculation

Occupation numbers:
  Fermi-Dirac: width=0.1000 eV

Convergence criteria:
  Maximum total energy change: 0.0005 eV / electron
  Maximum integral of absolute density change: 0.0001 electrons
  Maximum integral of absolute eigenstate change: 4e-08 eV^2
  Maximum number of iterations: 99

Symmetries present (total): 1

  ( 1  0  0)
  ( 0  1  0)
  ( 0  0  1)

1 k-point (Gamma)
1 k-point in the irreducible part of the Brillouin zone
       k-points in crystal coordinates                weights
   0:     0.00000000    0.00000000    0.00000000          1/1

Wave functions: LCAO
  Diagonalizer: Serial LAPACK
  Atomic Correction: dense with blas
  Datatype: float
  Eigensolver: None

LCAO using direct dense diagonalizer

Densities:
  Coarse grid: 80*80*48 grid
  Fine grid: 160*160*96 grid
  Total Charge: 0.000000

Density mixing:
  Method: separate
  Backend: pulay
  Linear mixing parameter: 0.05
  Mixing with 5 old densities
  Damping of long wave oscillations: 75

Hamiltonian:
  XC and Coulomb potentials evaluated on a 160*160*96 grid
  Using the PBE Exchange-Correlation functional
  Interpolation: tri-quintic (5. degree polynomial)
  Poisson solver: Gauss-Seidel solver with 6 multi-grid levels
    Coarsest grid: 5 x 5 x 3 points
    Stencil: 6*3+1=19 point O(h^6) finite-difference Laplacian
    Max iterations: 1000
    Tolerance: 1.000000e-07

Total number of cores used: 16
Domain decomposition: 2 x 4 x 2

Number of atoms: 24
Number of atomic orbitals: 312
Number of bands in calculation: 98
Bands to converge: occupied states only
Number of valence electrons: 96

... initialized

Initializing position-dependent things.

Density initialized from atomic densities
 *         |               C   C                  |
 |         |           C C       C                |
 |         .----------C-CC----C--C----------------.
 |        /      C CCCC C  C                     /
 |       /     CCC C                            /
 |      /      C C                             /

Positions:
   0 C     11.276769    6.520440    5.168737
   1 C     10.617882    5.436876    5.189754
   2 C     10.922082    7.823306    5.173210
   3 C      9.279801    5.030768    5.236228
   4 C      8.579609    3.772877    5.288190
   5 C     10.003193    8.689628    5.189560
   6 C      7.207756    3.893018    5.346201
   7 C      8.254515    6.127211    5.252488
   8 C      7.056925    5.424422    5.322264
   9 C      8.597020    8.821074    5.232599
  10 C      5.886402    3.442330    5.431109
  11 C      7.841128    7.569422    5.266749
  12 C      5.134415    9.311749    1.829630
  13 C      4.681983    8.134365    1.962880
  14 C      6.037123   10.043210    2.517648
  15 C      4.846219    7.045549    2.826043
  16 C      4.279596    5.726959    2.950617
  17 C      6.854131   10.120677    3.477666
  18 C      4.765108    5.003046    4.018329
  19 C      5.837810    7.225450    3.938719
  20 C      5.759083    6.014208    4.616731
  21 C      7.368698    9.379268    4.564859
  22 C      4.869003    3.904673    4.878031
  23 C      6.837210    8.025639    4.720999

Unit cell:
           periodic     x           y           z      points  spacing
  1. axis:    yes   16.000000    0.000000    0.000000    80     0.2000
  2. axis:    yes    0.000000   16.000000    0.000000    80     0.2000
  3. axis:    yes    0.000000    0.000000   10.000000    48     0.2083

Effective grid spacing dv^(1/3) = 0.2027

                     log10-error:    total        iterations:
           time      wfs    density  energy       fermi  poisson
iter:   1  11:53:33          +inf  -183.450723    3      6
iter:   2  11:53:33         -0.88  -182.401732    4      3
iter:   3  11:53:34         -0.94  -180.838680    31     3
iter:   4  11:53:35         -1.04  -179.280057    36     4
iter:   5  11:53:35         -1.39  -179.206198    4      3
iter:   6  11:53:36         -1.51  -179.041676    4      3
iter:   7  11:53:37         -1.77  -179.046878    3      3
iter:   8  11:53:37         -1.90  -179.019646    3      2
iter:   9  11:53:38         -2.04  -178.994376    3      3
iter:  10  11:53:39         -2.35  -178.994822    3      2
iter:  11  11:53:39         -2.59  -178.989923    3      2
iter:  12  11:53:40         -2.74  -178.990734    2      1
iter:  13  11:53:41         -2.79  -178.983618    2      2
iter:  14  11:53:41         -2.97  -178.982979    2      2
iter:  15  11:53:42         -3.18  -178.981326    2      1
iter:  16  11:53:43         -3.28  -178.974577    3      1
iter:  17  11:53:43         -3.62  -178.979843    2      1
iter:  18  11:53:44         -3.78  -178.981431    2      1
iter:  19  11:53:44         -3.89  -178.982975    2      1
iter:  20  11:53:45         -3.94  -178.984420    2      1
iter:  21  11:53:46         -4.12  -178.983667    2      1

Converged after 21 iterations.

Dipole moment: (0.199047, 0.503642, 0.025222) |e|*Ang

Energy contributions relative to reference atoms: (reference = -24663.074771)

Kinetic:       +128.894622
Potential:     -129.421798
External:        +0.000000
XC:            -181.303387
Entropy (-ST):   -0.414519
Local:           +3.054154
Free energy:   -179.190927
Extrapolated:  -178.983667

Fermi level: -4.16948

 Band  Eigenvalues  Occupancy
    0    -23.79684    2.00000
    1    -22.24516    2.00000
    2    -21.61102    2.00000
    3    -20.71204    2.00000
    4    -20.52029    2.00000
    5    -20.25728    2.00000
    6    -19.19375    2.00000
    7    -18.80507    2.00000
    8    -18.74507    2.00000
    9    -18.24119    2.00000
   10    -17.01294    2.00000
   11    -16.93029    2.00000
   12    -16.44823    2.00000
   13    -16.34750    2.00000
   14    -14.97515    2.00000
   15    -14.73575    2.00000
   16    -14.40293    2.00000
   17    -13.91798    2.00000
   18    -13.33466    2.00000
   19    -13.10524    2.00000
   20    -12.84832    2.00000
   21    -11.52980    2.00000
   22    -11.34078    2.00000
   23    -11.15525    2.00000
   24    -10.98924    2.00000
   25    -10.83471    2.00000
   26    -10.56295    2.00000
   27    -10.42910    2.00000
   28     -9.87121    2.00000
   29     -9.51705    2.00000
   30     -9.33165    2.00000
   31     -8.86338    2.00000
   32     -8.81621    2.00000
   33     -8.49363    2.00000
   34     -8.35805    2.00000
   35     -8.19052    2.00000
   36     -8.14612    2.00000
   37     -7.95959    2.00000
   38     -6.99963    2.00000
   39     -6.36983    2.00000
   40     -6.19733    2.00000
   41     -6.12739    2.00000
   42     -6.04781    2.00000
   43     -5.59567    2.00000
   44     -5.47150    2.00000
   45     -4.63892    1.98187
   46     -4.41414    1.84062
   47     -4.21397    1.21887
   48     -4.09111    0.62702
   49     -4.00764    0.33084
   50     -3.38417    0.00078
   51     -2.77051    0.00000
   52     -2.69973    0.00000
   53     -2.34867    0.00000
   54     -1.78563    0.00000
   55     -1.60453    0.00000
   56     -1.13476    0.00000
   57     -0.73186    0.00000
   58     -0.40781    0.00000
   59      0.32018    0.00000
[...]
   83      9.03726    0.00000
   84      9.15498    0.00000
   85      9.29579    0.00000
   86      9.31308    0.00000
   87      9.34407    0.00000
   88      9.64964    0.00000
   89      9.79387    0.00000
   90      9.88469    0.00000
   91     10.01922    0.00000
   92     10.12191    0.00000
   93     10.35066    0.00000
   94     10.35097    0.00000
   95     10.53158    0.00000
   96     10.53657    0.00000
   97     10.78215    0.00000

Forces in eV/Ang:
  0 C     0.17328    0.64550    0.01916
  1 C    -0.44969   -0.39212   -0.01148
  2 C     0.59174   -0.60974    0.05816
  3 C     0.35861   -0.75784    0.35766
  4 C     1.52213   -0.35295   -0.08103
  5 C    -1.73252    1.53318    0.02194
  6 C    -0.56151    2.08955    1.07195
  7 C    -2.05047    1.20415    1.29660
  8 C    -3.03560   -0.08984   -2.09694
  9 C     1.85371    1.41619   -0.73855
 10 C     2.90770   -1.90090    0.82530
 11 C    11.15797   -7.67788    5.19551
 12 C     0.33752    0.56362    0.10333
 13 C    -0.08975   -0.57446    0.18703
 14 C    -0.59222   -0.04378   -0.61450
 15 C    -0.84884   -0.23395   -0.26540
 16 C    -0.68278    0.64045   -1.31394
 17 C     1.45645    0.06392    1.74730
 18 C     0.68378    1.51183    1.74336
 19 C     0.48954    0.06558    2.68356
 20 C     2.46840   -2.59421    0.87566
 21 C     0.77763    1.89799   -1.33411
 22 C    -2.68515    0.67239   -2.24178
 23 C   -12.10387    2.92054   -7.47340

System changes: positions

[...]

Density initialized from wave functions
 *         |               C   C                  |
 |         |           CCC       C                |
 |         .----------C--C----C--C----------------.
 |        /       CCCCC C  C                     /
 |       /     CCC C                            /
 |      /      C C                             /

[...]

Density initialized from wave functions
 *         |               C   C                  |
 |         |           CCC       C                |
 |         .---------C---C----C--C----------------.
 |        /       CCCCC C  C                     /
 |       /     CCC C                            /
 |      /      C C                             /

[...]

Density initialized from wave functions
 *         |               C   C                  |
 |         |          C CC       C                |
 |         .---------C---C----C--C----------------.
 |        /       CCCCC C  C                     /
 |       /     CCC C                            /
 |      /      C  C                            /

[...]

Density initialized from wave functions
 *         |                C  C                  |
 |         |          C CC      C                 |
 |         .---------C---C----C--C----------------.
 |        /       CCCCC C  C                     /
 |       /     CCC C                            /
 |      /      C  C                            /

[...]

Density initialized from wave functions
 *         |                C  C                  |
 |         |          C CC      C                 |
 |         .---------C---C-C--C--C----------------.
 |        /        CCCC C                        /
 |       /     CCCCC                            /
 |      /      C  C                            /

[...]

Density initialized from wave functions
 *         |                C  C                  |
 |         |          C CC      C                 |
 |         .---------C---C-C--C--C----------------.
 |        /        C CC C                        /
 |       /     CCCCC                            /
 |      /      C                               /

[...]

Density initialized from wave functions
 *         |                C  C                  |
 |         |            CC      C                 |
 |         .---------CC--C-C--C-C-----------------.
 |        /        C CC C                        /
 |       /     CCCCC                            /
 |      /      C                               /

[...]

Density initialized from wave functions
 *         |                   C                  |
 |         |            CC  C   C                 |
 |         .---------CC--C-C--C-C-----------------.
 |        /        C CC C                        /
 |       /     CCCCC                            /
 |      /      C                               /

[...]

Density initialized from wave functions
 *         |                   C                  |
 |         |             C  C   C                 |
 |         .---------CC--C-C--C-C-----------------.
 |        /        C CC C                        /
 |       /     CCCCC                            /
 |      /      C                               /

[...]

Density initialized from wave functions
 *         |                   C                  |
 |         |             C  C   C                 |
 |         .---------C-C-C-C--C-C-----------------.
 |        /        C CC C                        /
 |       /     CCCC C                           /
 |      /      C                               /

[...]

Density initialized from wave functions
 *         |                   C                  |
 |         |             C  C    C                |
 |         .---------C-C-C-C--C-C-----------------.
 |        /        C CC C                        /
 |       /     CCCC C                           /
 |      /     C                                /

[...]

Density initialized from wave functions
 *         |                   C                  |
 |         |             C  C   CC                |
 |         .---------C-C-C-C--C-------------------.
 |        /        C CC C                        /
 |       /     CCCCC                            /
 |      /     C                                /

[...]

Density initialized from wave functions
 *         |                   C                  |
 |         |             C  C   CC                |
 |         .---------C-C-C-C--C-------------------.
 |        /        C CC C                        /
 |       /     CCCCC                            /
 |      /     C                                /

[...]

Density initialized from wave functions
 *         |                   C                  |
 |         |             C  C   CC                |
 |         .---------C-C-C-C--C-------------------.
 |        /        C CC C                        /
 |       /      CCCC                            /
 |      /     C                                /

[...]

Density initialized from wave functions
 |         |             C  C  CCC                |
 |         .---------C-C-C-C--C-------------------.
 |        /        C CC C                        /
 |       /      CCCC                            /
 |      /     C                                /

[...]

Density initialized from wave functions
 |         |             C  C  CCC                |
 |         .---------C-C-C-C--C-------------------.
 |        /        C CC C                        /
 |       /      CCCC                            /
 |      /     C C                              /

[...]

Density initialized from wave functions
 |         |             C  C  CCC                |
 |         .---------C-C-C-C--C-------------------.
 |        /        C CC C                        /
 |       /      CCCC                            /
 |      /     C C                              /

[...]

Density initialized from wave functions
 |         |             C  C  C C                |
 |         .---------C-C-C-C--C-------------------.
 |        /        C CC C                        /
 |       /      CCCC                            /
 |      /     C C                              /

[...]

Density initialized from wave functions
 |         |             C  C  C C                |
 |         .---------C-C-C-C--C-------------------.
 |        /        C CC C                        /
 |       /      CCCC                            /
 |      /     C C                              /

[...]

Density initialized from wave functions
 |         |             C  C  C C                |
 |         .-------C-C-C-C-C--C-------------------.
 |        /        C CC C                        /
 |       /      CCCC                            /
 |      /     C C                              /

[...]

Density initialized from wave functions
 |         |             C  C  C C                |
 |         .-------C-C-C-C-C--C-------------------.
 |        /        C CC C                        /
 |       /      CCCC                            /
 |      /     C C                              /

[...]

Density initialized from wave functions
 |         |             C  C  C C                |
 |         .-------C-C-C-C-C--C-------------------.
 |        /        C CC C                        /
 |       /      CCC                             /
 |      /     C C                              /

[...]

Density initialized from wave functions
 |         |             C  C  C C                |
 |         .-------C-C-C-C-C--C-------------------.
 |        /        C CC C                        /
 |       /      CCC                             /
 |      /     C C                              /

[...]

Density initialized from wave functions
 |         |             C  C CC C                |
 |         .---------C-C-C-C----------------------.
 |        /        C CC C                        /
 |       /      CCC                             /
 |      /     C C                              /

[...]

Density initialized from wave functions
 |         |             C  C  C C                |
 |         .---------C-C-C-C--C-------------------.
 |        /        C CC C                        /
 |       /      CCC                             /
 |      /     C C                              /

[...]

Density initialized from wave functions
 |         |             C  C  C C                |
 |         .---------C-C-C-C--C-------------------.
 |        /        C CC C                        /
 |       /      CCC                             /
 |      /     C C                              /

[...]

System changes: positions

Initializing position-dependent things.

Density initialized from wave functions
 |         |             C  C CC C                |
 |         .---------C-C-C-C----------------------.
 |        /        C CC C                        /
 |       /      CCC                             /
 |      /     C C                              /

Positions:
   0 C     11.243232    6.639072    5.644555
   1 C     10.477465    5.638458    5.818732
   2 C     10.963187    7.873613    5.169683
   3 C      9.204465    5.054334    5.779190
   4 C      8.661514    3.765395    5.692892
   5 C     10.188266    8.808617    4.767722
   6 C      7.260345    3.892734    5.306648
   7 C      8.116912    6.093011    5.474058
   8 C      6.941379    5.314865    5.231015
   9 C      8.793662    8.659380    4.667144
  10 C      6.160459    3.205060    4.767502
  11 C      8.022201    7.427459    5.079933
  12 C      4.879210    9.520964    2.150648
  13 C      4.395580    8.393926    2.488785
  14 C      6.055589   10.098330    2.481111
  15 C      4.491356    7.195101    3.206968
  16 C      3.949703    5.903802    3.126743
  17 C      7.160822   10.175917    3.117209
  18 C      4.772934    5.023213    3.949633
  19 C      5.697217    7.193218    4.154157
  20 C      5.790414    5.838085    4.604329
  21 C      7.608539    9.196961    4.021631
  22 C      5.111162    3.681684    4.194113
  23 C      6.820712    7.973699    4.424823

Unit cell:
           periodic     x           y           z      points  spacing
  1. axis:    yes   16.000000    0.000000    0.000000    80     0.2000
  2. axis:    yes    0.000000   16.000000    0.000000    80     0.2000
  3. axis:    yes    0.000000    0.000000   10.000000    48     0.2083

Effective grid spacing dv^(1/3) = 0.2027

                     log10-error:    total        iterations:
           time      wfs    density  energy       fermi  poisson
iter:   1  12:00:00          +inf  -183.816586    3      5
iter:   2  12:00:01         -2.62  -183.815056    2      1
iter:   3  12:00:02         -2.84  -183.813867    2      1
iter:   4  12:00:02         -3.07  -183.814286    3      1
iter:   5  12:00:03         -3.13  -183.814433    3      1
iter:   6  12:00:03         -3.45  -183.816273    3      1
iter:   7  12:00:04         -3.58  -183.814353    2      1
iter:   8  12:00:05         -3.50  -183.813606    2      1
iter:   9  12:00:05         -3.94  -183.813658    2      1
iter:  10  12:00:06         -3.99  -183.814022    2      1
iter:  11  12:00:06         -3.84  -183.813511    2      1
iter:  12  12:00:07         -4.44  -183.813352    2      1

Converged after 12 iterations.

Dipole moment: (0.149808, 0.374719, 0.076206) |e|*Ang

Energy contributions relative to reference atoms: (reference = -24663.074771)

Kinetic:       +114.675419
Potential:     -121.970895
External:        +0.000000
XC:            -179.381703
Entropy (-ST):   -0.345318
Local:           +3.036486
Free energy:   -183.986011
Extrapolated:  -183.813352

Fermi level: -4.43489

 Band  Eigenvalues  Occupancy
    0    -22.94334    2.00000
    1    -22.13345    2.00000
    2    -21.64696    2.00000
    3    -20.73736    2.00000
    4    -20.63015    2.00000
    5    -20.25243    2.00000
    6    -19.24317    2.00000
    7    -18.98520    2.00000
    8    -18.68882    2.00000
    9    -18.35353    2.00000
   10    -17.32914    2.00000
   11    -17.09277    2.00000
   12    -16.58116    2.00000
   13    -16.19401    2.00000
   14    -14.80078    2.00000
   15    -14.57098    2.00000
   16    -14.52410    2.00000
   17    -14.43069    2.00000
   18    -13.56439    2.00000
   19    -13.13764    2.00000
   20    -12.82194    2.00000
   21    -11.58833    2.00000
   22    -11.34126    2.00000
   23    -10.96345    2.00000
   24    -10.61147    2.00000
   25    -10.57094    2.00000
   26    -10.52368    2.00000
   27    -10.36607    2.00000
   28    -10.05999    2.00000
   29     -9.63800    2.00000
   30     -9.48031    2.00000
   31     -8.88510    2.00000
   32     -8.80550    2.00000
   33     -8.78415    2.00000
   34     -8.50930    2.00000
   35     -8.43361    2.00000
   36     -8.16451    2.00000
   37     -8.05855    2.00000
   38     -7.08505    2.00000
   39     -6.59906    2.00000
   40     -6.25971    2.00000
   41     -6.16414    2.00000
   42     -6.00570    2.00000
   43     -5.83673    2.00000
   44     -5.49005    1.99995
   45     -4.82321    1.95966
   46     -4.68140    1.84331
   47     -4.48848    1.26171
   48     -4.42179    0.93462
   49     -3.64535    0.00074
   50     -3.17594    0.00001
   51     -2.78068    0.00000
   52     -2.66709    0.00000
   53     -2.58341    0.00000
   54     -1.90435    0.00000
   55     -1.88587    0.00000
   56     -1.71474    0.00000
   57     -0.55644    0.00000
   58     -0.33062    0.00000
   59      0.08346    0.00000
[...]
   83      8.90487    0.00000
   84      9.10992    0.00000
   85      9.25937    0.00000
   86      9.34005    0.00000
   87      9.44948    0.00000
   88      9.56775    0.00000
   89      9.86474    0.00000
   90      9.92208    0.00000
   91     10.14530    0.00000
   92     10.17170    0.00000
   93     10.36036    0.00000
   94     10.41453    0.00000
   95     10.53444    0.00000
   96     10.61337    0.00000
   97     10.62874    0.00000

Forces in eV/Ang:
  0 C     0.02666    0.04079    0.01246
  1 C     0.04206   -0.06398    0.04480
  2 C     0.00579    0.03817    0.02406
  3 C     0.04723    0.00127   -0.03451
  4 C     0.04178   -0.03855    0.00928
  5 C    -0.01204    0.00030    0.01614
  6 C     0.00241    0.07663   -0.01236
  7 C    -0.04535   -0.03867    0.00940
  8 C     0.00025   -0.02008   -0.01868
  9 C    -0.01621    0.04341   -0.03470
 10 C    -0.06345   -0.01553    0.02129
 11 C    -0.01879   -0.00295   -0.07529
 12 C    -0.05312   -0.01175    0.00905
 13 C    -0.06571    0.03387   -0.03624
 14 C    -0.00604    0.04968    0.02257
 15 C    -0.03109   -0.03315   -0.06604
 16 C     0.02098    0.02216   -0.00893
 17 C     0.02441   -0.00121    0.01775
 18 C     0.00510    0.04371   -0.00627
 19 C    -0.00587   -0.08909    0.03925
 20 C     0.01838   -0.00331   -0.02568
 21 C     0.04276    0.01354   -0.00174
 22 C    -0.00333   -0.02861    0.05824
 23 C     0.08280   -0.04463   -0.02388