User:   esb@s65n23.grendel.cscaa.dk
Date:   Thu Nov  9 09:32:28 2017
Arch:   x86_64
Pid:    65873
Python: 2.7.13
gpaw:   /home/esb/DFT/gpaw_git/gpaw
_gpaw:  /home/esb/DFT/gpaw_git/build/bin.linux-x86_64-2.7/gpaw-python
ase:    /home/esb/DFT/ase_git/ase (version 3.15.0b1)
numpy:  /comm/swstack/core/python/2.7.13/lib/python2.7/site-packages/numpy (version 1.13.3)
scipy:  /comm/swstack/core/python/2.7.13/lib/python2.7/site-packages/scipy (version 0.19.1)
units:  Angstrom and eV
cores:  16
Extra parameters: {'blacs': True}

Input parameters:
  basis: dzp
  gpts: [80 80 48]
  kpts: [1 1 1]
  maxiter: 99
  mixer: {backend: pulay,
          beta: 0.05,
          method: separate,
          nmaxold: 5,
          weight: 75}
  mode: lcao
  nbands: -50
  occupations: {name: fermi-dirac,
                width: 0.1}
  poissonsolver: {eps: 1e-07,
                  name: fd,
                  nn: 3,
                  relax: GS}
  xc: PBE

System changes: positions, numbers, cell, pbc, initial_charges, initial_magmoms

Initialize ...

C-setup:
  name: Carbon
  id: 4aa54d4b901d75f77cc0ea3eec22967b
  Z: 6
  valence: 4
  core: 2
  charge: 0.0
  file: /home/esb/DFT/gpaw-setups-0.8.7929/C.PBE.gz
  cutoffs: 0.64(comp), 1.14(filt), 1.14(core), lmax=2
  valence states:
                energy  radius
    2s(2.00)   -13.751   0.635
    2p(2.00)    -5.284   0.635
    *s          13.461   0.635
    *p          21.927   0.635
    *d           0.000   0.635

  LCAO basis set for C:
    Name: dzp
    File: /home/esb/DFT/gpaw-setups-0.8.7929/C.dzp.basis.gz
    Number of radial functions: 5
    Number of spherical harmonics: 13
      l=0, rc=5.5469 Bohr: 2s-sz confined orbital
      l=1, rc=6.6719 Bohr: 2p-sz confined orbital
      l=0, rc=3.0312 Bohr: 2s-dz split-valence wave
      l=1, rc=3.7500 Bohr: 2p-dz split-valence wave
      l=2, rc=6.6719 Bohr: d-type Gaussian polarization

Reference energy: -24663.074771

Spin-paired calculation

Occupation numbers:
  Fermi-Dirac: width=0.1000 eV

Convergence criteria:
  Maximum total energy change: 0.0005 eV / electron
  Maximum integral of absolute density change: 0.0001 electrons
  Maximum integral of absolute eigenstate change: 4e-08 eV^2
  Maximum number of iterations: 99

Symmetries present (total): 1

  ( 1  0  0)
  ( 0  1  0)
  ( 0  0  1)

1 k-point (Gamma)
1 k-point in the irreducible part of the Brillouin zone
       k-points in crystal coordinates                weights
   0:     0.00000000    0.00000000    0.00000000          1/1

Wave functions: LCAO
  Diagonalizer: Serial LAPACK
  Atomic Correction: dense with blas
  Datatype: float
  Eigensolver: None

LCAO using direct dense diagonalizer

Densities:
  Coarse grid: 80*80*48 grid
  Fine grid: 160*160*96 grid
  Total Charge: 0.000000

Density mixing:
  Method: separate
  Backend: pulay
  Linear mixing parameter: 0.05
  Mixing with 5 old densities
  Damping of long wave oscillations: 75

Hamiltonian:
  XC and Coulomb potentials evaluated on a 160*160*96 grid
  Using the PBE Exchange-Correlation functional
  Interpolation: tri-quintic (5. degree polynomial)
  Poisson solver: Gauss-Seidel solver with 6 multi-grid levels
    Coarsest grid: 5 x 5 x 3 points
    Stencil: 6*3+1=19 point O(h^6) finite-difference Laplacian
    Max iterations: 1000
    Tolerance: 1.000000e-07

Total number of cores used: 16
Domain decomposition: 2 x 4 x 2

Number of atoms: 24
Number of atomic orbitals: 312
Number of bands in calculation: 98
Bands to converge: occupied states only
Number of valence electrons: 96

... initialized

Initializing position-dependent things.

Density initialized from atomic densities
   /       |    C                                 |
  /        |    C         C   C  C                |
 *         |     C     C           C              |
 |         | C   C CC               C             |
 |         .----C-----C-----------C---------------.
 |        /    C  C     C   C                    /
 |       /          C  C   C C                  /

Positions:
   0 C     10.359173    4.563178    4.382357
   1 C      7.252239    6.043942    5.461289
   2 C      9.626277    3.499931    4.446701
   3 C      7.036266    3.069328    4.960335
   4 C      9.646979    5.747938    4.760416
   5 C      8.238096    3.703530    4.855152
   6 C      8.269004    5.191823    5.106994
   7 C      5.843413    3.635617    5.220171
   8 C      5.790969    6.395937    5.588713
   9 C      4.547479    5.694903    5.544622
  10 C      4.722877    4.250913    5.396976
  11 C      3.405582    6.559922    5.598811
  12 C      7.976175    9.619483    5.572758
  13 C      4.505634    8.260299    5.251921
  14 C      6.904215    8.980043    5.435828
  15 C      3.023826   11.955746    5.024513
  16 C     11.593640    9.011697    5.452197
  17 C      4.054090    9.554636    5.242533
  18 C      9.270143    9.999101    5.652306
  19 C      5.949814    7.948779    5.267782
  20 C     12.162129    7.903492    5.201614
  21 C     11.954197    6.603708    4.906998
  22 C     10.520340    9.802169    5.624984
  23 C      3.563675   10.747788    5.172919

Unit cell:
           periodic     x           y           z      points  spacing
  1. axis:    yes   16.000000    0.000000    0.000000    80     0.2000
  2. axis:    yes    0.000000   16.000000    0.000000    80     0.2000
  3. axis:    yes    0.000000    0.000000   10.000000    48     0.2083

Effective grid spacing dv^(1/3) = 0.2027

                     log10-error:    total        iterations:
           time      wfs    density  energy       fermi  poisson
iter:   1  09:32:30          +inf  -173.979795    3      6
iter:   2  09:32:30         -0.90  -173.114501    3      3
iter:   3  09:32:31         -0.94  -171.591145    4      3
iter:   4  09:32:32         -1.03  -170.382933    35     4
iter:   5  09:32:32         -1.26  -170.210730    3      3
iter:   6  09:32:33         -1.39  -170.135063    4      3
iter:   7  09:32:33         -1.63  -170.120952    3      3
iter:   8  09:32:34         -1.75  -170.087208    3      2
iter:   9  09:32:34         -1.86  -170.059851    3      2
iter:  10  09:32:35         -2.01  -170.042305    3      3
iter:  11  09:32:35         -2.22  -170.040364    2      2
iter:  12  09:32:36         -2.29  -170.042973    3      2
iter:  13  09:32:36         -2.85  -170.047287    2      1
iter:  14  09:32:37         -2.93  -170.035915    2      1
iter:  15  09:32:37         -3.10  -170.025845    2      1
iter:  16  09:32:38         -3.20  -170.036468    2      1
iter:  17  09:32:38         -3.34  -170.033789    2      1
iter:  18  09:32:39         -3.42  -170.026022    2      1
iter:  19  09:32:39         -3.58  -170.030147    2      1
iter:  20  09:32:40         -3.62  -170.033555    2      1
iter:  21  09:32:40         -3.77  -170.031951    2      1
iter:  22  09:32:41         -3.89  -170.032889    2      1
iter:  23  09:32:41         -4.10  -170.032204    2      1

Converged after 23 iterations.

Dipole moment: (1.053636, -0.089242, 0.146168) |e|*Ang

Energy contributions relative to reference atoms: (reference = -24663.074771)

Kinetic:        +83.239657
Potential:      -98.080573
External:        +0.000000
XC:            -157.947641
Entropy (-ST):   -0.374152
Local:           +2.943430
Free energy:   -170.219280
Extrapolated:  -170.032204

Fermi level: -4.78177

 Band  Eigenvalues  Occupancy
    0    -22.11494    2.00000
    1    -21.64408    2.00000
    2    -21.21670    2.00000
    3    -20.63672    2.00000
    4    -20.19698    2.00000
    5    -19.79100    2.00000
    6    -19.47370    2.00000
    7    -19.03564    2.00000
    8    -18.64563    2.00000
    9    -17.96747    2.00000
   10    -17.51897    2.00000
   11    -17.21907    2.00000
   12    -16.41048    2.00000
   13    -16.16454    2.00000
   14    -15.71415    2.00000
   15    -14.90346    2.00000
   16    -14.70568    2.00000
   17    -14.17440    2.00000
   18    -13.88515    2.00000
   19    -13.11693    2.00000
   20    -12.64594    2.00000
   21    -11.89592    2.00000
   22    -11.77323    2.00000
   23    -10.68694    2.00000
   24    -10.05943    2.00000
   25     -9.91413    2.00000
   26     -9.79608    2.00000
   27     -9.50927    2.00000
   28     -9.41573    2.00000
   29     -8.83298    2.00000
   30     -8.75769    2.00000
   31     -8.49355    2.00000
   32     -8.39132    2.00000
   33     -8.06166    2.00000
   34     -7.94892    2.00000
   35     -7.52436    2.00000
   36     -7.30972    2.00000
   37     -7.26034    2.00000
   38     -6.95891    2.00000
   39     -6.70853    2.00000
   40     -6.31437    2.00000
   41     -6.10139    2.00000
   42     -6.02198    1.99999
   43     -5.65666    1.99968
   44     -5.54202    1.99900
   45     -5.17875    1.96294
   46     -5.10523    1.92423
   47     -4.81604    1.16971
   48     -4.74333    0.81014
   49     -4.51443    0.12913
   50     -4.18304    0.00501
   51     -3.79911    0.00011
   52     -3.72364    0.00005
   53     -3.32138    0.00000
   54     -3.12581    0.00000
   55     -2.52916    0.00000
   56     -2.06759    0.00000
   57     -1.83078    0.00000
   58     -1.09286    0.00000
   59     -0.81859    0.00000
[...]
   83      8.54853    0.00000
   84      8.71661    0.00000
   85      8.81251    0.00000
   86      8.89040    0.00000
   87      9.03753    0.00000
   88      9.09239    0.00000
   89      9.18127    0.00000
   90      9.27731    0.00000
   91      9.46319    0.00000
   92      9.52214    0.00000
   93      9.71920    0.00000
   94      9.83096    0.00000
   95      9.96439    0.00000
   96     10.01952    0.00000
   97     10.17776    0.00000

Forces in eV/Ang:
  0 C     0.05492    0.84065   -0.22956
  1 C    -2.35137   -1.20347    0.11475
  2 C    -1.01173   -1.04879    0.04738
  3 C    -0.28682    0.24823   -0.07137
  4 C     0.41168   -1.79900    0.20778
  5 C     0.72293   -0.59215   -0.20894
  6 C    -0.36594    3.26484    0.52833
  7 C     0.19939   -0.66849   -0.07122
  8 C     7.56426    3.16178   -1.53936
  9 C    -0.92535    0.22549    0.18427
 10 C     0.28518    0.62785    0.09320
 11 C     1.76055    1.77383   -0.74620
 12 C     1.56083    0.80982    0.11710
 13 C    -1.63512    1.04984    0.27301
 14 C    -0.90752   -2.39045   -0.23193
 15 C     0.26472   -0.52548    0.10628
 16 C    -2.44359    2.91828    0.61259
 17 C     0.46932   -2.94602   -0.11485
 18 C    -2.02745   -0.38413   -0.11709
 19 C    -3.71623   -1.89248    1.61185
 20 C     0.67708   -2.38178   -0.53338
 21 C     0.14449    0.27031    0.15820
 22 C     2.27911   -0.81666   -0.13971
 23 C    -0.69470    1.39620   -0.11453

System changes: positions

[...]

Density initialized from wave functions
   /       |    C                                 |
  /        |    C         C   C  C                |
 *         |     C     C           C              |
 |         | C   C CC               C             |
 |         .----C-----C-----------C---------------.
 |        /    C  C     C   C                    /
 |       /          C  C   C C                  /

[...]

Density initialized from wave functions
  /        |    C         C   C  C                |
 *         |     C     C           C              |
[...]
 *         |C  C  C  C        C  C                |
 |         |           C  C                       |
 |         .---C-C---C----------------------------.
 |        /    C      C                          /
 |       /       C  C C                         /
 |      /              C                       /

[...]

Density initialized from wave functions
  /      C |                           C  C   C   |
 *         |C  C  C  C        C  C  C             |
 |         |           C  C                       |
 |         .---C-C---C----------------------------.
 |        /    C      C                          /
 |       /       C  C C                         /
 |      /              C                       /

[...]

Density initialized from wave functions
  /      C |                           C  C   C   |
 *         |C  C  C  C        C  C  C             |
 |         |           C  C                       |
 |         .---C-C---C----------------------------.
 |        /    C      C                          /
 |       /       C  C C                         /
 |      /             CC                       /

[...]

Density initialized from wave functions
  /      C |                           C   C  C   |
 *         |C  C  C  C        C  C  C             |
 |         |           C   C                      |
 |         .---C-C---C----------------------------.
 |        /    C      C                          /
 |       /       C  C C                         /
 |      /             CC                       /

[...]

Density initialized from wave functions
  /      C |                           C   C  C   |
 *         |C  C  C  C        C  C  C             |
 |         |           C   C                      |
 |         .---C--C--C----------------------------.
 |        /    C      C                          /
 |       /       C  C C                         /
 |      /             CC                       /

[...]

Density initialized from wave functions
  /      C |                           C   C  C   |
 *         |C  C  C  C        C  C  C             |
 |         |           C   C                      |
 |         .---C--C--C----------------------------.
 |        /    C      C                          /
 |       /       C  C C                         /
 |      /             CC                       /

[...]

Density initialized from wave functions
  /       C|                           C   C  C   |
 *         |C  C  C  C           C  C             |
 |         |           C   C  C                   |
 |         .---C--C--C----------------------------.
 |        /    C      C                          /
 |       /       C  C C                         /
 |      /             CC                       /

[...]

Density initialized from wave functions
  /       C|                           C   C  C   |
 *         |C  C  C  C           C  C             |
 |         |           C   C  C                   |
 |         .---C--C--C----------------------------.
 |        /    C      C                          /
 |       /       C  C C                         /
 |      /             C                        /

[...]

Density initialized from wave functions
  /       C|                           C   C  C   |
 *         |C  C  C  C           C  C             |
 |         |           C   C  C                   |
 |         .---C--C--C----------------------------.
 |        /    C      C                          /
 |       /       C C  C                         /
 |      /             C                        /

[...]

Density initialized from wave functions
  /       C|                           C   C  C   |
 *         |C  C  C  C           C  C             |
 |         |           C   C  C                   |
 |         .---C--C--C----------------------------.
 |        /    C      C                          /
 |       /       C    C                         /
 |      /          C  C                        /

[...]

Density initialized from wave functions
  /       C|                           C   C  C   |
 *         |C  C  C  C           C  C             |
 |         |      C    C   C  C                   |
 |         .---C-----C----------------------------.
 |        /    C      C                          /
 |       /       C    C                         /
 |      /          C  C                        /

[...]

Density initialized from wave functions
  /       C|                           C   C  C   |
 *         |C  C     C           C  C             |
 |         |      C    C   C  C                   |
 |         .---C-----C----------------------------.
 |        /    C      C                          /
 |       /       C    C                         /
 |      /          C  C                        /

[...]

Density initialized from wave functions
  /       C|                           C   C  C   |
 *         |C  C     C           C  C             |
 |         |      C    C   C  C                   |
 |         .---C-----C----------------------------.
 |        /    C      C                          /
 |       /       C    C                         /
 |      /          C  C                        /
 |     /              C                       /

[...]

Density initialized from wave functions
  /       C|                           C   C  C   |
 *         |C  C     C           C  C             |
 |         |      C    C   C  C                   |
 |         .---C-----C----------------------------.
 |        /    C      C                          /
 |       /      C     C                         /
 |      /          C  C                        /
 |     /              C                       /

[...]

Density initialized from wave functions
  /       C|                               C  C   |
 *         |C  C     C           C  C  C          |
 |         |      C    C   C  C                   |
 |         .---C-----C----------------------------.
 |        /    C      C                          /
 |       /      C     C                         /
 |      /          C  C                        /
 |     /              C                       /

[...]

Density initialized from wave functions
  /       C|                               C  C   |
 *         |C  C     C           C  C  C          |
 |         |      C    C   C  C                   |
 |         .---C-----C----------------------------.
 |        /    C      C                          /
 |       /      C     C                         /
 |      /          C  C                        /
 |     /              C                       /

[...]

Density initialized from wave functions
  /       C|                               C  C   |
 *         | C C                    C  C          |
 |         |      C  C C   C  C  C                |
 |         .---C-----C----------------------------.
 |        /    C      C                          /
 |       /      C     C                         /
 |      /          C  C                        /
 |     /              C                       /

[...]

Density initialized from wave functions
  /       C|                               C  C   |
 *         |C  C                    C  C          |
 |         |      C  C C   C  C  C                |
 |         .---C-----C----------------------------.
 |        /    C      C                          /
 |       /      C     C                         /
 |      /          C  C                        /
 |     /              C                       /

[...]

Density initialized from wave functions
  /       C|                               C  C   |
 *         |C  C                    C   C         |
 |         |      C  C C   C  C  C                |
 |         .---C-----C----------------------------.
 |        /    C      C                          /
 |       /      C      C                        /
 |      /          C  C                        /
 |     /              C                       /

[...]

Density initialized from wave functions
  /       C|                               C  C   |
 *         | C C                    C   C         |
 |         |      C  C C   C  C  C                |
 |         .---C-----C----------------------------.
 |        /    C      C                          /
 |       /      C     C                         /
 |      /          C  C                        /
 |     /              C                       /

[...]

Density initialized from wave functions
  /       C|                               C  C   |
 *         | C C                    C   C         |
 |         |      C  C C   C  C  C                |
 |         .---C-----C----------------------------.
 |        /    C      C                          /
 |       /      C     C                         /
 |      /          C  C                        /

[...]

Density initialized from wave functions
  /       C|                               C  C   |
 *         | C C                    C   C         |
 |         |      C  C C   C  C  C                |
 |         .---C--C--C----------------------------.
 |        /    C      C                          /
 |       /      C     C                         /
 |      /          C  C                        /

[...]

Density initialized from wave functions
  /       C|                               C  C   |
 *         | C C                    C   C         |
 |         |      C  C C   C  C  C                |
 |         .---C-----C----------------------------.
 |        /    C      C                          /
 |       /      C     C                         /
 |      /          C  C                        /

[...]

Density initialized from wave functions
  /       C|                               C  C   |
 *         | C C                    C   C         |
 |         |      C  C C   C  C  C                |
 |         .--CC--C--C----------------------------.
 |        /    C      C                          /
 |       /      C     C                         /
 |      /          C  C                        /

[...]

Density initialized from wave functions
  /       C|                               C  C   |
 *         | C C                    C   C         |
 |         |      C  C C   C  C  C                |
 |         .---C--C--C----------------------------.
 |        /   C       C                          /
 |       /      C     C                         /
 |      /          C  C                        /

[...]

System changes: positions

Initializing position-dependent things.

Density initialized from wave functions
  /       C|                               C  C   |
 *         | C C                    C   C         |
 |         |      C  C C   C  C  C                |
 |         .--CC--C--C----------------------------.
 |        /   C       C                          /
 |       /      C     C                         /
 |      /          C  C                        /

Positions:
   0 C      8.056090    1.899608    4.625320
   1 C      7.144349    5.803821    4.487939
   2 C      6.741196    2.264913    5.007565
   3 C      4.608842    3.479230    5.519144
   4 C      7.742349    3.284970    4.556233
   5 C      5.475356    2.547808    5.380250
   6 C      7.606997    4.626565    4.444737
   7 C      4.277668    4.765506    5.438223
   8 C      6.475197    7.006545    4.592228
   9 C      5.062943    7.136226    4.972492
  10 C      4.278956    6.028984    5.283401
  11 C      4.733790    8.568184    4.941612
  12 C      9.499476    9.196423    4.361138
  13 C      5.904991    9.281721    4.540395
  14 C      8.327668    8.733507    4.318860
  15 C      1.043271    9.945784    5.354893
  16 C     13.234478   10.186743    4.950406
  17 C      3.472503    9.088549    5.173458
  18 C     10.748433    9.615024    4.515277
  19 C      6.997554    8.371475    4.410588
  20 C     14.489020   10.277494    5.146169
  21 C     15.796336   10.186026    5.302523
  22 C     11.954845    9.956724    4.720559
  23 C      2.310062    9.550679    5.322292

Unit cell:
           periodic     x           y           z      points  spacing
  1. axis:    yes   16.000000    0.000000    0.000000    80     0.2000
  2. axis:    yes    0.000000   16.000000    0.000000    80     0.2000
  3. axis:    yes    0.000000    0.000000   10.000000    48     0.2083

Effective grid spacing dv^(1/3) = 0.2027

                     log10-error:    total        iterations:
           time      wfs    density  energy       fermi  poisson
iter:   1  10:24:49          +inf  -184.642894    3      5
iter:   2  10:24:49         -2.41  -184.625471    4      2
iter:   3  10:24:50         -2.68  -184.625431    3      1
iter:   4  10:24:50         -3.04  -184.626790    3      1
iter:   5  10:24:51         -3.08  -184.626797    3      1
iter:   6  10:24:51         -3.18  -184.624572    3      1
iter:   7  10:24:51         -2.84  -184.625706    3      1
iter:   8  10:24:52         -3.38  -184.626950    3      1
iter:   9  10:24:52         -3.42  -184.625775    3      1
iter:  10  10:24:53         -3.51  -184.625880    3      1
iter:  11  10:24:53         -4.01  -184.626060    2      1

Converged after 11 iterations.

Dipole moment: (15.901782, -0.252578, 0.088036) |e|*Ang

Energy contributions relative to reference atoms: (reference = -24663.074771)

Kinetic:       +109.291494
Potential:     -121.318778
External:        +0.000000
XC:            -175.461133
Entropy (-ST):   -0.398893
Local:           +3.061804
Free energy:   -184.825507
Extrapolated:  -184.626060

Fermi level: -4.72983

 Band  Eigenvalues  Occupancy
    0    -23.03154    2.00000
    1    -22.19362    2.00000
    2    -20.46650    2.00000
    3    -20.31896    2.00000
    4    -20.16301    2.00000
    5    -19.84681    2.00000
    6    -19.55291    2.00000
    7    -19.35272    2.00000
    8    -19.05601    2.00000
    9    -18.27516    2.00000
   10    -18.05120    2.00000
   11    -17.75221    2.00000
   12    -16.97597    2.00000
   13    -16.29222    2.00000
   14    -16.09822    2.00000
   15    -15.79687    2.00000
   16    -14.98016    2.00000
   17    -14.38968    2.00000
   18    -14.20631    2.00000
   19    -13.93296    2.00000
   20    -13.18827    2.00000
   21    -12.91737    2.00000
   22    -11.17405    2.00000
   23    -11.13774    2.00000
   24    -10.76855    2.00000
   25    -10.57811    2.00000
   26    -10.25646    2.00000
   27     -9.98302    2.00000
   28     -9.88221    2.00000
   29     -9.14414    2.00000
   30     -9.13565    2.00000
   31     -8.89923    2.00000
   32     -8.73406    2.00000
   33     -8.53738    2.00000
   34     -8.48294    2.00000
   35     -8.14100    2.00000
   36     -7.73783    2.00000
   37     -7.50928    2.00000
   38     -7.30143    2.00000
   39     -7.18874    2.00000
   40     -6.69024    2.00000
   41     -6.44224    2.00000
   42     -6.36739    2.00000
   43     -5.83049    1.99997
   44     -5.25141    1.98920
   45     -5.05824    1.92776
   46     -4.84849    1.53229
   47     -4.83575    1.48508
   48     -4.74298    1.06570
   49     -3.33621    0.00000
   50     -2.89362    0.00000
   51     -2.83363    0.00000
   52     -2.62304    0.00000
   53     -1.93205    0.00000
   54     -1.40358    0.00000
   55     -1.10258    0.00000
   56     -0.82900    0.00000
   57     -0.35973    0.00000
   58     -0.25714    0.00000
   59      1.02095    0.00000
[...]
   83      8.61765    0.00000
   84      8.72227    0.00000
   85      8.77726    0.00000
   86      8.91996    0.00000
   87      8.95479    0.00000
   88      9.23395    0.00000
   89      9.40986    0.00000
   90      9.49599    0.00000
   91      9.50426    0.00000
   92      9.56316    0.00000
   93      9.70328    0.00000
   94      9.78061    0.00000
   95      9.80740    0.00000
   96      9.84119    0.00000
   97      9.88511    0.00000

Forces in eV/Ang:
  0 C    -0.03699    0.02519   -0.04480
  1 C     0.06444   -0.03305    0.01067
  2 C     0.01001   -0.03611   -0.00034
  3 C    -0.05529    0.00385   -0.02128
  4 C     0.02669   -0.01398    0.04490
  5 C     0.00398   -0.02012    0.00198
  6 C     0.01101    0.04918    0.01845
  7 C     0.01211    0.03983    0.00193
  8 C     0.01792   -0.00902    0.01165
  9 C    -0.02841    0.01173   -0.02339
 10 C     0.00806    0.01099   -0.00906
 11 C     0.01641   -0.02347    0.01652
 12 C     0.02675   -0.02967    0.02052
 13 C    -0.05256    0.05142    0.05006
 14 C     0.00465    0.03250   -0.00134
 15 C    -0.03095   -0.01200   -0.02231
 16 C    -0.04263    0.01291   -0.02340
 17 C    -0.05927   -0.00177   -0.02806
 18 C    -0.05996   -0.02566   -0.01119
 19 C    -0.01869    0.03699    0.03152
 20 C     0.04478   -0.02198    0.02643
 21 C     0.03971    0.00801   -0.01032
 22 C     0.04059    0.01255    0.01615
 23 C     0.07139   -0.00547   -0.00063