User:   esb@s65n24.grendel.cscaa.dk
Date:   Thu Nov  9 09:22:32 2017
Arch:   x86_64
Pid:    49634
Python: 2.7.13
gpaw:   /home/esb/DFT/gpaw_git/gpaw
_gpaw:  /home/esb/DFT/gpaw_git/build/bin.linux-x86_64-2.7/gpaw-python
ase:    /home/esb/DFT/ase_git/ase (version 3.15.0b1)
numpy:  /comm/swstack/core/python/2.7.13/lib/python2.7/site-packages/numpy (version 1.13.3)
scipy:  /comm/swstack/core/python/2.7.13/lib/python2.7/site-packages/scipy (version 0.19.1)
units:  Angstrom and eV
cores:  16
Extra parameters: {'blacs': True}

Input parameters:
  basis: dzp
  gpts: [80 80 48]
  kpts: [1 1 1]
  maxiter: 99
  mixer: {backend: pulay,
          beta: 0.05,
          method: separate,
          nmaxold: 5,
          weight: 75}
  mode: lcao
  nbands: -50
  occupations: {name: fermi-dirac,
                width: 0.1}
  poissonsolver: {eps: 1e-07,
                  name: fd,
                  nn: 3,
                  relax: GS}
  xc: PBE

System changes: positions, numbers, cell, pbc, initial_charges, initial_magmoms

Initialize ...

C-setup:
  name: Carbon
  id: 4aa54d4b901d75f77cc0ea3eec22967b
  Z: 6
  valence: 4
  core: 2
  charge: 0.0
  file: /home/esb/DFT/gpaw-setups-0.8.7929/C.PBE.gz
  cutoffs: 0.64(comp), 1.14(filt), 1.14(core), lmax=2
  valence states:
                energy  radius
    2s(2.00)   -13.751   0.635
    2p(2.00)    -5.284   0.635
    *s          13.461   0.635
    *p          21.927   0.635
    *d           0.000   0.635

  LCAO basis set for C:
    Name: dzp
    File: /home/esb/DFT/gpaw-setups-0.8.7929/C.dzp.basis.gz
    Number of radial functions: 5
    Number of spherical harmonics: 13
      l=0, rc=5.5469 Bohr: 2s-sz confined orbital
      l=1, rc=6.6719 Bohr: 2p-sz confined orbital
      l=0, rc=3.0312 Bohr: 2s-dz split-valence wave
      l=1, rc=3.7500 Bohr: 2p-dz split-valence wave
      l=2, rc=6.6719 Bohr: d-type Gaussian polarization

Reference energy: -24663.074771

Spin-paired calculation

Occupation numbers:
  Fermi-Dirac: width=0.1000 eV

Convergence criteria:
  Maximum total energy change: 0.0005 eV / electron
  Maximum integral of absolute density change: 0.0001 electrons
  Maximum integral of absolute eigenstate change: 4e-08 eV^2
  Maximum number of iterations: 99

Symmetries present (total): 1

  ( 1  0  0)
  ( 0  1  0)
  ( 0  0  1)

1 k-point (Gamma)
1 k-point in the irreducible part of the Brillouin zone
       k-points in crystal coordinates                weights
   0:     0.00000000    0.00000000    0.00000000          1/1

Wave functions: LCAO
  Diagonalizer: Serial LAPACK
  Atomic Correction: dense with blas
  Datatype: float
  Eigensolver: None

LCAO using direct dense diagonalizer

Densities:
  Coarse grid: 80*80*48 grid
  Fine grid: 160*160*96 grid
  Total Charge: 0.000000

Density mixing:
  Method: separate
  Backend: pulay
  Linear mixing parameter: 0.05
  Mixing with 5 old densities
  Damping of long wave oscillations: 75

Hamiltonian:
  XC and Coulomb potentials evaluated on a 160*160*96 grid
  Using the PBE Exchange-Correlation functional
  Interpolation: tri-quintic (5. degree polynomial)
  Poisson solver: Gauss-Seidel solver with 6 multi-grid levels
    Coarsest grid: 5 x 5 x 3 points
    Stencil: 6*3+1=19 point O(h^6) finite-difference Laplacian
    Max iterations: 1000
    Tolerance: 1.000000e-07

Total number of cores used: 16
Domain decomposition: 2 x 4 x 2

Number of atoms: 24
Number of atomic orbitals: 312
Number of bands in calculation: 98
Bands to converge: occupied states only
Number of valence electrons: 96

... initialized

Initializing position-dependent things.

Density initialized from atomic densities
   /       |           C  C                       |
  /        |        C        C  C                 |
 *         |  C  C        C      C                |
 |         C  C  C  C     C   C  C                |
 |         .------------C-------C-C-C-------------.
 |        /               C  C                   /
 |       /          C  C                        /

Positions:
   0 C     11.018861    5.898549    4.935852
   1 C     11.516983    7.100904    4.902350
   2 C      8.154275    8.995749    4.521513
   3 C      8.131852    3.513917    5.181954
   4 C      7.695759   10.379813    4.989030
   5 C     10.838546    8.281878    4.697688
   6 C     10.596033    9.708192    4.865049
   7 C      6.835482    3.655882    5.091708
   8 C      9.320646    4.053496    5.097806
   9 C      8.751582   11.266791    5.208853
  10 C     10.434850    4.724862    5.076700
  11 C      9.989359   10.902145    5.060117
  12 C      7.277075    7.948014    4.297466
  13 C      9.530624    8.761304    4.477195
  14 C      4.334405    9.192652    5.387182
  15 C      4.785273    7.735214    5.441031
  16 C      2.966481    8.837768    4.997802
  17 C      3.539421    7.177636    5.063123
  18 C      2.262896    7.677107    4.824522
  19 C      5.086087   10.301841    5.456508
  20 C      6.090910    7.249879    5.556812
  21 C      6.103285   11.103874    5.537022
  22 C     12.554190    7.559694    4.178454
  23 C      7.172089   11.844728    5.482773

Unit cell:
           periodic     x           y           z      points  spacing
  1. axis:    yes   16.000000    0.000000    0.000000    80     0.2000
  2. axis:    yes    0.000000   16.000000    0.000000    80     0.2000
  3. axis:    yes    0.000000    0.000000   10.000000    48     0.2083

Effective grid spacing dv^(1/3) = 0.2027

                     log10-error:    total        iterations:
           time      wfs    density  energy       fermi  poisson
iter:   1  09:22:34          +inf  -169.312599    2      6
iter:   2  09:22:34         -0.90  -168.305533    3      3
iter:   3  09:22:35         -0.93  -167.075852    3      3
iter:   4  09:22:36         -1.01  -165.780734    34     4
iter:   5  09:22:36         -1.22  -165.451810    30     3
iter:   6  09:22:37         -1.42  -165.473498    4      3
iter:   7  09:22:37         -1.63  -165.384636    3      3
iter:   8  09:22:38         -1.80  -165.352328    2      3
iter:   9  09:22:38         -1.97  -165.343570    3      2
iter:  10  09:22:39         -2.05  -165.334322    4      2
iter:  11  09:22:39         -2.35  -165.327805    3      2
iter:  12  09:22:40         -2.52  -165.324635    3      2
iter:  13  09:22:40         -2.66  -165.320296    3      2
iter:  14  09:22:41         -2.78  -165.318109    2      2
iter:  15  09:22:41         -3.12  -165.317701    2      1
iter:  16  09:22:42         -3.28  -165.318207    2      1
iter:  17  09:22:42         -3.37  -165.317479    2      1
iter:  18  09:22:43         -3.59  -165.318808    2      1
iter:  19  09:22:43         -3.80  -165.320197    2      1
iter:  20  09:22:44         -3.94  -165.320204    2      1
iter:  21  09:22:44         -4.05  -165.319813    2      1

Converged after 21 iterations.

Dipole moment: (0.720695, 0.743496, 0.197172) |e|*Ang

Energy contributions relative to reference atoms: (reference = -24663.074771)

Kinetic:       +110.925285
Potential:     -112.541779
External:        +0.000000
XC:            -166.497242
Entropy (-ST):   -0.288739
Local:           +2.938293
Free energy:   -165.464182
Extrapolated:  -165.319813

Fermi level: -4.10028

 Band  Eigenvalues  Occupancy
    0    -24.17951    2.00000
    1    -23.46639    2.00000
    2    -23.14393    2.00000
    3    -22.16412    2.00000
    4    -20.61395    2.00000
    5    -20.30387    2.00000
    6    -20.09292    2.00000
    7    -19.55405    2.00000
    8    -18.86686    2.00000
    9    -18.54957    2.00000
   10    -17.60152    2.00000
   11    -17.26742    2.00000
   12    -16.40473    2.00000
   13    -15.68339    2.00000
   14    -15.46201    2.00000
   15    -15.29546    2.00000
   16    -14.74346    2.00000
   17    -14.12762    2.00000
   18    -13.97124    2.00000
   19    -13.72407    2.00000
   20    -13.43933    2.00000
   21    -11.61933    2.00000
   22    -11.46492    2.00000
   23    -11.08465    2.00000
   24    -10.90350    2.00000
   25    -10.61875    2.00000
   26    -10.28949    2.00000
   27     -9.91304    2.00000
   28     -9.88825    2.00000
   29     -9.37679    2.00000
   30     -9.26900    2.00000
   31     -8.96734    2.00000
   32     -8.86081    2.00000
   33     -8.44906    2.00000
   34     -7.91889    2.00000
   35     -7.73760    2.00000
   36     -7.49143    2.00000
   37     -7.25518    2.00000
   38     -6.76577    2.00000
   39     -6.53300    2.00000
   40     -6.33350    2.00000
   41     -6.14140    2.00000
   42     -5.78662    2.00000
   43     -5.64513    2.00000
   44     -5.08513    1.99989
   45     -4.92880    1.99950
   46     -4.54203    1.97616
   47     -4.20945    1.49743
   48     -3.95609    0.38251
   49     -3.79898    0.09369
   50     -3.69385    0.03377
   51     -3.62374    0.01690
   52     -3.14070    0.00014
   53     -2.93261    0.00002
   54     -2.54015    0.00000
   55     -2.48204    0.00000
   56     -1.86663    0.00000
   57     -1.61032    0.00000
   58     -1.47365    0.00000
   59     -1.09873    0.00000
[...]
   83      8.01931    0.00000
   84      8.51056    0.00000
   85      8.56304    0.00000
   86      8.73150    0.00000
   87      8.85402    0.00000
   88      8.90179    0.00000
   89      9.02826    0.00000
   90      9.20052    0.00000
   91      9.45769    0.00000
   92      9.50874    0.00000
   93      9.60501    0.00000
   94      9.75454    0.00000
   95      9.85480    0.00000
   96      9.92226    0.00000
   97     10.00664    0.00000

Forces in eV/Ang:
  0 C    -2.44327   -6.19466    1.49615
  1 C     1.65459   -0.45013    1.49371
  2 C    -1.08326    0.89941    0.91940
  3 C     0.74039    0.04444   -0.04115
  4 C     2.05512   -0.71935   -0.02580
  5 C    -1.31660    3.44777   -0.80608
  6 C    -1.50119   -0.14903    0.55378
  7 C    -1.14433   -0.14533    0.02669
  8 C    -0.18396   -0.47536    0.09625
  9 C    -4.43066   -0.67027    0.27207
 10 C     1.02550    2.71740   -0.59003
 11 C     3.41091    1.37931    0.50009
 12 C    -4.05016   -3.00137    2.91522
 13 C     0.23000    0.42651   -0.65835
 14 C    -0.04580    1.03447   -0.13004
 15 C     1.45775   -1.21275   -0.01195
 16 C     0.10706    0.29956   -0.16453
 17 C    -0.32257   -0.00147    0.41474
 18 C    -0.43537   -0.15189    0.02262
 19 C    -1.80160   -0.47125    0.08632
 20 C     2.55686    2.24804   -3.70798
 21 C    -0.98639   -2.86812   -0.23941
 22 C     1.85642    1.43950   -1.83400
 23 C     4.58147    2.55724   -0.59819

System changes: positions

[...]

Density initialized from wave functions
   /       |           C  C                       |
  /        |        C        C  C                 |
 *         |  C  C        C      C                |
 |         C  C   C C     C   C  C                |
 |         .------------C------C--C-C-------------.
 |        /               C  C                   /
 |       /          C  C                        /

[...]

Density initialized from wave functions
   /       |           C  C                       |
  /        |        C        C  C                 |
 *         |  C  C        C      C                |
 |         C  C   C C     C   C  C                |
 |         .------------C------C--C-C-------------.
[...]
 |       /                    CC                /
 |      /                  C                   /

[...]

Density initialized from wave functions
     /     |                       C              |
    /      |              C                       |
   /       |        C                             |
  /        | C   C     C     C  C                 |
 *        C| C  C         C     C                 |
 |         |       C  C  C  C  C                  |
 |         .---------------------C----------------.
 |        /                     C                /
 |       /                    CC                /
 |      /                  C                   /

[...]

Density initialized from wave functions
     /     |                       C              |
    /      |              C                       |
   /       |        C                             |
  /        | C   C     C     C  C                 |
 *        C| C  C        CC    C                  |
 |         |       C  C     C  C                  |
 |         .---------------------C----------------.
 |        /                     C                /
 |       /                    CC                /
 |      /                   C                  /

[...]

Density initialized from wave functions
     /     |                       C              |
    /      |              C                       |
   /       |        C  C                          |
  /        | C   C           C  C                 |
 *        C| C  C        CC    C                  |
 |         |       C  C     C  C                  |
 |         .---------------------C----------------.
 |        /                     C                /
 |       /                    CC                /
 |      /                   C                  /

[...]

Density initialized from wave functions
     /     |                       C              |
    /      |              C                       |
   /       |        C  C                          |
  /        | C   C           C  C                 |
 *        C| C  C        CC    C                  |
 |         |       C  C     C  C                  |
 |         .---------------------C----------------.
 |        /                     C                /
 |       /                    CC                /
 |      /                   C                  /

[...]

Density initialized from wave functions
     /     |                       C              |
    /      |              C                       |
   /       |        C  C                          |
  /        | C   C           C  C                 |
 *        C| C  C        C     C                  |
 |         |       C  C     C  C                  |
 |         .---------------------C----------------.
 |        /                     C                /
 |       /                    CC                /
 |      /                   C                  /

[...]

Density initialized from wave functions
     /     |                        C             |
    /      |              C                       |
   /       |        C  C                          |
  /        | C   C           C  C                 |
 *        C| C  C        C     C                  |
 |         |       C  C     C  C                  |
 |         .---------------------C----------------.
 |        /                     C                /
 |       /                    CC                /
 |      /                   C                  /

[...]

Density initialized from wave functions
     /     |                        C             |
    /      |              C                       |
   /       |        C  C                          |
  /        | C   C       C   C  C                 |
 *        C|    C        C     C                  |
 |         | C     C  C     C  C                  |
 |         .---------------------C----------------.
 |        /                     C                /
 |       /                    CC                /
 |      /                   C                  /

[...]

Density initialized from wave functions
     /     |                        C             |
    /      |              C                       |
   /       |        C  C                          |
  /        | C   C       C   C  C                 |
 *        C|    C        C     C                  |
 |         | C     C  C     C  C                  |
 |         .---------------------C----------------.
 |        /                     C                /
 |       /                    CC                /
 |      /                   C                  /

[...]

Density initialized from wave functions
     /     |                        C             |
    /      |              C                       |
   /       |        C  C                          |
  /        | C   C       C   C  C                 |
 *        C|    C        C     C                  |
 |         | C     C  C     C  C                  |
 |         .--------------------CC----------------.
 |        /                     C                /
 |       /                    CC                /
 |      /                   C                  /

[...]

Density initialized from wave functions
     /     |                        C             |
    /      |              C                       |
   /       |        C  C                          |
  /        | C   C       C   C  C                 |
 *        C|    C        C     C                  |
 |         | C     C  C     C  C                  |
 |         .--------------------CC----------------.
 |        /                     C                /
 |       /                    CC                /
 |      /                   C                  /

[...]

Density initialized from wave functions
     /     |                        C             |
    /      |              C                       |
   /       |        C  C                          |
  /        | C   C       C   C  C                 |
 *        C|    C        C     C                  |
 |         | C     C  C     C  C                  |
 |         .--------------------C-----------------.
 |        /                     C                /
 |       /                    CC                /
 |      /                   C                  /

[...]

Density initialized from wave functions
     /     |                        C             |
    /      |              C                       |
   /       |        C  C                          |
  /        | C   C       C   C  C                 |
 *        C|    C        C     C                  |
 |         | C     C  C     C  C                  |
 |         .--------------------C-----------------.
 |        /                     C                /
 |       /                    CC                /
 |      /                   C                  /

[...]

Density initialized from wave functions
     /     |                        C             |
    /      |              C                       |
   /       |        C  C     C                    |
  /        | C   C       C      C                 |
 *        C|    C        C     C                  |
 |         | C     C  C     C  C                  |
 |         .--------------------C-----------------.
 |        /                     C                /
 |       /                    CC                /
 |      /                   C                  /

[...]

Density initialized from wave functions
     /     |                        C             |
    /      |              C                       |
   /       |        C  C     C                    |
  /        | C   C       C      C                 |
 *        C|    C        C     C                  |
 |         | C     C  C     C  C                  |
 |         .--------------------C-----------------.
 |        /                     C                /
 |       /                    CC                /
 |      /                    C                 /

[...]

Density initialized from wave functions
     /     |                         C            |
    /      |              C                       |
   /       |        C  C     C                    |
  /        | C   C       C      C                 |
 *        C|C   C        C     C                  |
 |         |       C  C     C  C                  |
 |         .--------------------C-----------------.
 |        /                     C                /
 |       /                    CC                /
 |      /                    C                 /

[...]

Density initialized from wave functions
     /     |                         C            |
    /      |              C                       |
   /       |        C  C     C                    |
  /        |     C       C      C                 |
 *        C|CC  C C      C     C                  |
 |         |          C     C  C                  |
 |         .--------------------C-----------------.
 |        /                     C                /
 |       /                    CC                /
 |      /                    C                 /

[...]

Density initialized from wave functions
     /     |                         C            |
    /      |              C                       |
   /       |        C  C     C                    |
  /        | C   C       C      C                 |
 *        C|C   C        C     C                  |
 |         |       C  C     C  C                  |
 |         .--------------------C-----------------.
 |        /                     C                /
 |       /                    CC                /
 |      /                    C                 /

[...]

Density initialized from wave functions
     /     |                         C            |
    /      |              C                       |
   /       |        C  C     C                    |
  /        |     C       C      C                 |
 *        C|CC  C        C     C                  |
 |         |       C  C     C  C                  |
 |         .--------------------C-----------------.
 |        /                     C                /
 |       /                    CC                /
 |      /                    C                 /

[...]

System changes: positions

Initializing position-dependent things.

Density initialized from wave functions
     /     |                         C            |
    /      |              C                       |
   /       |        C  C    C                     |
  /        |     C       C     C                  |
 *        C|CC  C C      C     C                  |
 |         |         C      C  C                  |
 |         .--------------------C-----------------.
 |        /                     C                /
 |       /                    CC                /
 |      /                    C                 /

Positions:
   0 C     11.500232    4.840237    4.920935
   1 C     11.268363    6.125201    4.812958
   2 C      7.442671    9.171278    4.982977
   3 C     11.133717    0.985210    5.293560
   4 C      7.210656   10.612653    5.021129
   5 C     10.173910    8.490447    4.751953
   6 C      9.855497    9.889446    4.866896
   7 C     10.670493   -0.245598    5.404189
   8 C     11.385175    2.270109    5.175315
   9 C      8.305409   11.550230    5.345750
  10 C     11.541800    3.552211    5.046840
  11 C      9.629698   11.203783    5.235759
  12 C      6.237845    8.437111    5.087528
  13 C      8.802446    8.901578    4.837203
  14 C      3.676551   10.501551    5.427139
  15 C      3.753471    8.946361    5.518902
  16 C      2.291063   10.421027    4.953204
  17 C      2.439278    8.745391    5.070860
  18 C      1.256368    9.524397    4.934021
  19 C      4.725551   11.325772    5.416022
  20 C      5.004777    8.366886    5.270086
  21 C      6.071672   11.443337    5.433957
  22 C     10.911560    7.353040    4.760381
  23 C      7.196297   12.140963    6.077838

Unit cell:
           periodic     x           y           z      points  spacing
  1. axis:    yes   16.000000    0.000000    0.000000    80     0.2000
  2. axis:    yes    0.000000   16.000000    0.000000    80     0.2000
  3. axis:    yes    0.000000    0.000000   10.000000    48     0.2083

Effective grid spacing dv^(1/3) = 0.2027

                     log10-error:    total        iterations:
           time      wfs    density  energy       fermi  poisson
iter:   1  09:53:54          +inf  -176.698191    3      5
iter:   2  09:53:54         -2.83  -176.698228    2      1
iter:   3  09:53:55         -3.00  -176.698428    2      1
iter:   4  09:53:55         -3.13  -176.698647    2      1
iter:   5  09:53:56         -3.29  -176.698706    2      1
iter:   6  09:53:56         -3.39  -176.698111    2      1
iter:   7  09:53:57         -3.42  -176.698231    2      1
iter:   8  09:53:57         -3.75  -176.698108    2      1
iter:   9  09:53:58         -3.85  -176.698014    2      1
iter:  10  09:53:59         -3.95  -176.698148    2      1
iter:  11  09:53:59         -3.97  -176.697898    2      1
iter:  12  09:54:00         -4.30  -176.697878    2      1

Converged after 12 iterations.

Dipole moment: (-0.465060, 15.691923, -0.203566) |e|*Ang

Energy contributions relative to reference atoms: (reference = -24663.074771)

Kinetic:       +104.646821
Potential:     -112.622125
External:        +0.000000
XC:            -171.526565
Entropy (-ST):   -0.329132
Local:           +2.968558
Free energy:   -176.862444
Extrapolated:  -176.697878

Fermi level: -4.43297

 Band  Eigenvalues  Occupancy
    0    -23.80529    2.00000
    1    -23.37455    2.00000
    2    -23.05869    2.00000
    3    -20.64429    2.00000
    4    -20.47191    2.00000
    5    -20.11883    2.00000
    6    -19.80734    2.00000
    7    -19.31803    2.00000
    8    -18.87639    2.00000
    9    -18.56880    2.00000
   10    -17.73428    2.00000
   11    -17.53213    2.00000
   12    -16.65438    2.00000
   13    -16.18123    2.00000
   14    -15.37736    2.00000
   15    -14.97163    2.00000
   16    -14.92043    2.00000
   17    -14.21898    2.00000
   18    -13.78936    2.00000
   19    -13.69171    2.00000
   20    -13.14922    2.00000
   21    -12.06683    2.00000
   22    -11.42528    2.00000
   23    -11.28501    2.00000
   24    -10.85019    2.00000
   25    -10.49210    2.00000
   26    -10.31748    2.00000
   27    -10.28917    2.00000
   28     -9.96433    2.00000
   29     -9.68208    2.00000
   30     -9.26033    2.00000
   31     -9.19513    2.00000
   32     -8.78935    2.00000
   33     -8.34186    2.00000
   34     -8.06982    2.00000
   35     -7.97035    2.00000
   36     -7.62054    2.00000
   37     -7.27794    2.00000
   38     -7.05558    2.00000
   39     -6.66921    2.00000
   40     -6.59054    2.00000
   41     -6.27800    2.00000
   42     -6.08095    2.00000
   43     -5.74306    2.00000
   44     -5.40712    1.99988
   45     -5.06992    1.99658
   46     -4.89206    1.97992
   47     -4.48700    1.26374
   48     -4.33920    0.56273
   49     -4.21133    0.19657
   50     -3.61610    0.00057
   51     -3.26846    0.00002
   52     -2.58990    0.00000
   53     -2.35483    0.00000
   54     -1.60854    0.00000
   55     -1.49015    0.00000
   56     -1.14665    0.00000
   57     -0.98089    0.00000
   58     -0.41258    0.00000
   59      0.04725    0.00000
[...]
   83      8.25499    0.00000
   84      8.39241    0.00000
   85      8.66285    0.00000
   86      8.77442    0.00000
   87      8.84787    0.00000
   88      8.93104    0.00000
   89      9.08657    0.00000
   90      9.27017    0.00000
   91      9.35702    0.00000
   92      9.51719    0.00000
   93      9.59775    0.00000
   94      9.66116    0.00000
   95      9.90737    0.00000
   96     10.01833    0.00000
   97     10.06625    0.00000

Forces in eV/Ang:
  0 C    -0.04271   -0.02448    0.00347
  1 C     0.05596    0.01425    0.01948
  2 C    -0.05513    0.00399    0.01592
  3 C     0.00001    0.00255    0.02286
  4 C     0.02275    0.02303   -0.01382
  5 C    -0.01369    0.03212    0.01825
  6 C     0.03795   -0.02667    0.03410
  7 C     0.06893   -0.06757   -0.02504
  8 C     0.01485    0.03013   -0.00837
  9 C    -0.01555   -0.00650   -0.00704
 10 C    -0.02664   -0.01863   -0.03971
 11 C     0.01806   -0.06601   -0.01866
 12 C     0.02846   -0.06248    0.02108
 13 C    -0.03385   -0.00789   -0.03652
 14 C     0.02852    0.01882   -0.01530
 15 C     0.05012   -0.01238   -0.03004
 16 C    -0.00219    0.04173   -0.01241
 17 C    -0.00441    0.02903    0.01202
 18 C     0.03754   -0.03032   -0.01758
 19 C    -0.00012   -0.02062    0.04936
 20 C    -0.05552    0.07509    0.00514
 21 C     0.01643    0.05220    0.01453
 22 C    -0.01429   -0.02158    0.02614
 23 C     0.04198    0.03956   -0.01311