User:   esb@s65n23.grendel.cscaa.dk
Date:   Wed Nov  8 17:12:58 2017
Arch:   x86_64
Pid:    52600
Python: 2.7.13
gpaw:   /home/esb/DFT/gpaw_git/gpaw
_gpaw:  /home/esb/DFT/gpaw_git/build/bin.linux-x86_64-2.7/gpaw-python
ase:    /home/esb/DFT/ase_git/ase (version 3.15.0b1)
numpy:  /comm/swstack/core/python/2.7.13/lib/python2.7/site-packages/numpy (version 1.13.3)
scipy:  /comm/swstack/core/python/2.7.13/lib/python2.7/site-packages/scipy (version 0.19.1)
units:  Angstrom and eV
cores:  16
Extra parameters: {'blacs': True}

Input parameters:
  basis: dzp
  gpts: [80 80 48]
  kpts: [1 1 1]
  maxiter: 99
  mixer: {backend: pulay,
          beta: 0.05,
          method: separate,
          nmaxold: 5,
          weight: 75}
  mode: lcao
  nbands: -50
  occupations: {name: fermi-dirac,
                width: 0.1}
  poissonsolver: {eps: 1e-07,
                  name: fd,
                  nn: 3,
                  relax: GS}
  xc: PBE

System changes: positions, numbers, cell, pbc, initial_charges, initial_magmoms

Initialize ...

C-setup:
  name: Carbon
  id: 4aa54d4b901d75f77cc0ea3eec22967b
  Z: 6
  valence: 4
  core: 2
  charge: 0.0
  file: /home/esb/DFT/gpaw-setups-0.8.7929/C.PBE.gz
  cutoffs: 0.64(comp), 1.14(filt), 1.14(core), lmax=2
  valence states:
                energy  radius
    2s(2.00)   -13.751   0.635
    2p(2.00)    -5.284   0.635
    *s          13.461   0.635
    *p          21.927   0.635
    *d           0.000   0.635

  LCAO basis set for C:
    Name: dzp
    File: /home/esb/DFT/gpaw-setups-0.8.7929/C.dzp.basis.gz
    Number of radial functions: 5
    Number of spherical harmonics: 13
      l=0, rc=5.5469 Bohr: 2s-sz confined orbital
      l=1, rc=6.6719 Bohr: 2p-sz confined orbital
      l=0, rc=3.0312 Bohr: 2s-dz split-valence wave
      l=1, rc=3.7500 Bohr: 2p-dz split-valence wave
      l=2, rc=6.6719 Bohr: d-type Gaussian polarization

Reference energy: -24663.074771

Spin-paired calculation

Occupation numbers:
  Fermi-Dirac: width=0.1000 eV

Convergence criteria:
  Maximum total energy change: 0.0005 eV / electron
  Maximum integral of absolute density change: 0.0001 electrons
  Maximum integral of absolute eigenstate change: 4e-08 eV^2
  Maximum number of iterations: 99

Symmetries present (total): 1

  ( 1  0  0)
  ( 0  1  0)
  ( 0  0  1)

1 k-point (Gamma)
1 k-point in the irreducible part of the Brillouin zone
       k-points in crystal coordinates                weights
   0:     0.00000000    0.00000000    0.00000000          1/1

Wave functions: LCAO
  Diagonalizer: Serial LAPACK
  Atomic Correction: dense with blas
  Datatype: float
  Eigensolver: None

LCAO using direct dense diagonalizer

Densities:
  Coarse grid: 80*80*48 grid
  Fine grid: 160*160*96 grid
  Total Charge: 0.000000

Density mixing:
  Method: separate
  Backend: pulay
  Linear mixing parameter: 0.05
  Mixing with 5 old densities
  Damping of long wave oscillations: 75

Hamiltonian:
  XC and Coulomb potentials evaluated on a 160*160*96 grid
  Using the PBE Exchange-Correlation functional
  Interpolation: tri-quintic (5. degree polynomial)
  Poisson solver: Gauss-Seidel solver with 6 multi-grid levels
    Coarsest grid: 5 x 5 x 3 points
    Stencil: 6*3+1=19 point O(h^6) finite-difference Laplacian
    Max iterations: 1000
    Tolerance: 1.000000e-07

Total number of cores used: 16
Domain decomposition: 2 x 4 x 2

Number of atoms: 24
Number of atomic orbitals: 312
Number of bands in calculation: 98
Bands to converge: occupied states only
Number of valence electrons: 96

... initialized

Initializing position-dependent things.

Density initialized from atomic densities
  /        |        C  C     C  C                 |
 *         |  C  C        C      C                |
 |         | C       C   CC C CC C                |
 |         .-C-C--C-----C--C--C-------------------.

Positions:
   0 C      6.301023   10.443037    5.223881
   1 C      5.126119   10.011067    5.330030
   2 C      8.751582   11.266791    5.208853
   3 C      4.020475    9.233331    5.424068
   4 C      7.695759   10.379813    4.989030
   5 C      9.989359   10.902145    5.060117
   6 C      3.321391    8.181232    5.451071
   7 C      8.154275    8.995749    4.521513
   8 C     10.596033    9.708192    4.865049
   9 C      3.130963    6.847976    5.319013
  10 C      7.277075    7.948014    4.297466
  11 C      9.530624    8.761304    4.477195
  12 C      8.486602    4.705525    6.438091
  13 C      7.307293    4.285120    6.541792
  14 C     10.868939    5.708376    6.385161
  15 C      5.960608    4.140158    6.501919
  16 C      9.532506    5.558045    6.009444
  17 C     11.591505    6.696245    5.950197
  18 C      4.754739    4.418452    6.247375
  19 C      9.056360    6.627626    5.022671
  20 C     11.312187    7.828168    5.262912
  21 C      3.775002    5.157267    5.676812
  22 C      7.752628    6.699607    4.561662
  23 C      9.952916    7.652717    4.711801

Unit cell:
           periodic     x           y           z      points  spacing
  1. axis:    yes   16.000000    0.000000    0.000000    80     0.2000
  2. axis:    yes    0.000000   16.000000    0.000000    80     0.2000
  3. axis:    yes    0.000000    0.000000   10.000000    48     0.2083

Effective grid spacing dv^(1/3) = 0.2027

                     log10-error:    total        iterations:
           time      wfs    density  energy       fermi  poisson
iter:   1  17:12:59          +inf  -178.975511    3      6
iter:   2  17:13:00         -0.92  -178.012415    3      3
iter:   3  17:13:01         -0.95  -175.491743    32     3
iter:   4  17:13:01         -1.10  -174.723574    33     3
iter:   5  17:13:02         -1.27  -174.696956    35     3
iter:   6  17:13:02         -1.47  -174.602568    3      3
iter:   7  17:13:03         -1.70  -174.588193    3      3
iter:   8  17:13:03         -1.82  -174.530276    3      2
iter:   9  17:13:04         -2.02  -174.509131    3      2
iter:  10  17:13:04         -2.12  -174.489001    3      2
iter:  11  17:13:05         -2.47  -174.494331    3      2
iter:  12  17:13:05         -2.74  -174.504700    2      1
iter:  13  17:13:06         -2.79  -174.485470    2      2
iter:  14  17:13:06         -3.14  -174.480725    2      1
iter:  15  17:13:07         -3.20  -174.488627    2      1
iter:  16  17:13:07         -3.31  -174.485133    2      1
iter:  17  17:13:08         -3.45  -174.482090    2      1
iter:  18  17:13:08         -3.58  -174.492227    2      1
iter:  19  17:13:09         -3.81  -174.484257    2      1
iter:  20  17:13:09         -3.91  -174.484431    2      1
iter:  21  17:13:10         -4.11  -174.487363    2      1

Converged after 21 iterations.

Dipole moment: (0.305228, 0.118546, 0.058361) |e|*Ang

Energy contributions relative to reference atoms: (reference = -24663.074771)

Kinetic:       +102.545441
Potential:     -108.902463
External:        +0.000000
XC:            -171.024110
Entropy (-ST):   -0.303887
Local:           +3.045713
Free energy:   -174.639306
Extrapolated:  -174.487363

Fermi level: -4.24057

 Band  Eigenvalues  Occupancy
    0    -23.32093    2.00000
    1    -21.48244    2.00000
    2    -20.61245    2.00000
    3    -20.55196    2.00000
    4    -20.11463    2.00000
    5    -20.00124    2.00000
    6    -19.35104    2.00000
    7    -18.93443    2.00000
    8    -18.30715    2.00000
    9    -17.84780    2.00000
   10    -17.77006    2.00000
   11    -16.94561    2.00000
   12    -16.48304    2.00000
   13    -15.98016    2.00000
   14    -15.28547    2.00000
   15    -15.18228    2.00000
   16    -14.42181    2.00000
   17    -14.37335    2.00000
   18    -13.73543    2.00000
   19    -12.75937    2.00000
   20    -12.57221    2.00000
   21    -11.71019    2.00000
   22    -11.21041    2.00000
   23    -11.10025    2.00000
   24    -11.01549    2.00000
   25    -10.71300    2.00000
   26     -9.79650    2.00000
   27     -9.79263    2.00000
   28     -9.29553    2.00000
   29     -8.90693    2.00000
   30     -8.70819    2.00000
   31     -8.65087    2.00000
   32     -8.57070    2.00000
   33     -8.52111    2.00000
   34     -8.14178    2.00000
   35     -8.05071    2.00000
   36     -7.29595    2.00000
   37     -6.96506    2.00000
   38     -6.88714    2.00000
   39     -6.85755    2.00000
   40     -6.53202    2.00000
   41     -6.51026    2.00000
   42     -6.10188    2.00000
   43     -5.69852    2.00000
   44     -5.44093    1.99999
   45     -5.26026    1.99993
   46     -4.47723    1.82850
   47     -4.38512    1.61861
   48     -4.11723    0.45118
   49     -3.94661    0.10046
   50     -3.46679    0.00087
   51     -3.40181    0.00046
   52     -3.00987    0.00001
   53     -2.76377    0.00000
   54     -2.53277    0.00000
   55     -2.49606    0.00000
   56     -1.42672    0.00000
   57     -1.11867    0.00000
   58     -1.00593    0.00000
   59     -0.12978    0.00000
[...]
   83      8.95830    0.00000
   84      9.05989    0.00000
   85      9.18600    0.00000
   86      9.35602    0.00000
   87      9.50227    0.00000
   88      9.53688    0.00000
   89      9.62526    0.00000
   90      9.73256    0.00000
   91      9.89539    0.00000
   92      9.93544    0.00000
   93      9.96191    0.00000
   94     10.07553    0.00000
   95     10.20250    0.00000
   96     10.26286    0.00000
   97     10.37534    0.00000

Forces in eV/Ang:
  0 C     1.17458    0.55816   -0.04986
  1 C    -1.66836   -1.10102    0.13601
  2 C     0.36620   -0.18218   -0.56317
  3 C     1.97748    2.70858   -0.23714
  4 C    -0.93104   -0.47819   -0.21427
  5 C     0.39431    0.20560    0.99903
  6 C    -0.53452   -4.57407   -0.08730
  7 C    -2.25171    4.08685   -0.57237
  8 C    -0.09590   -0.97717   -0.29313
  9 C     2.50254   -5.04133    1.83645
 10 C     1.61214   -4.90074    1.03222
 11 C    -3.71093   12.79920   -2.63015
 12 C     1.30248    0.37731    0.01541
 13 C    -1.97165   -0.27077   -0.05282
 14 C     0.26616    0.16680   -0.63342
 15 C     3.22660   -0.67259    0.45016
 16 C    -0.99439   -0.37175   -0.26518
 17 C     0.32737    0.47765    0.94530
 18 C    -3.32690    2.73677   -1.63474
 19 C     0.97140   -4.41280    1.22983
 20 C    -0.68059    0.51343   -0.60486
 21 C    -1.59455    5.68858   -0.44588
 22 C    -2.05601    4.74939   -1.01017
 23 C     5.73661  -12.03712    2.63995

System changes: positions

[...]

Density initialized from wave functions
  /        |        C  C     C  C                 |
 *         |  C  C        C      C                |
 |         | C       C   CC C CC C                |
 |         .-C-C--C-----C--C--C-------------------.

[...]

Density initialized from wave functions
  /        |        C  C     C  C                 |
 *         |  C  C        C      C                |
 |         | C       C   CC C CC C                |
 |         .-C-C--C-----C--C--C-------------------.

[...]

Density initialized from wave functions
  /        |        C  C     C  C                 |
 *         |  C C         C      C                |
 |         | C       C   CC C CC C                |
 |         .--CC--C-----C--C--C-------------------.

[...]

Density initialized from wave functions
  /        |        C  C     C  C                 |
 *         |  C C         C      C                |
 |         | C       C   CC C CC C                |
 |         .--CC--C-----C--C--C-------------------.

[...]

Density initialized from wave functions
  /        |        C  C     C  C                 |
 *         |    C         C      C                |
 |         | CC      C   CC C CC C                |
 |         .--CC--C-----C--C--C-------------------.

[...]

Density initialized from wave functions
  /        |        C  C     C  C                 |
 *         |    C         C      C                |
 |         | CC      C  C C C CC C                |
 |         .--CC--C-----C--C--C-------------------.

[...]

Density initialized from wave functions
  /        |        C  C     C  C                 |
 *         |     C        C      C                |
 |         | CC      C  C C C CC C                |
 |         .--CC--C-----C--C--C-------------------.

[...]

Density initialized from wave functions
  /        |        C  C     C  C                 |
 *         |     C        C      C                |
 |         | CC      C   CC C CC C                |
 |         .--CC--C-----C--C--C-------------------.

[...]

Density initialized from wave functions
  /        |        C  C     C  C                 |
 *         |     C        C      C                |
 |         | CC      C   CC C CC C                |
 |         .--C-C-C-----C--C--C-------------------.

[...]

Density initialized from wave functions
  /        |        C  C     C  C                 |
 *         |     C        C      C                |
 |         | C C     C   CC CC C C                |
 |         .--C-C-C-----C--C--C-------------------.

[...]

Density initialized from wave functions
  /        |        C  C      C C                 |
 *         |     C        C      C                |
 |         | C C     C   CC CC C C                |
 |         .--C-C-C-----C--C--C-------------------.

[...]

Density initialized from wave functions
  /        |        C  C      C C                 |
 *         |     C        C      C                |
 |         | C C         CC CC C C                |
 |         .--C-C-C---C-C--C--C-------------------.

[...]

Density initialized from wave functions
  /        |        C  C      C C                 |
 *         |     C        C     CC                |
 |         | C C         CC CC C C                |
 |         .--C-C-C---C-C--C--C-------------------.

[...]

Density initialized from wave functions
  /        |        C  C      C C                 |
 *         |     C        C     CC                |
 |         | C C         CC CC C C                |
 |         .--C-C-C---C-C--C--C-------------------.

[...]

Density initialized from wave functions
  /        |        C  C      C C                 |
 *         |   C C        C     CC                |
 |         | C           CC CC C C                |
 |         .--C-C-C---C-C--C--C-------------------.

[...]

Density initialized from wave functions
  /        |        C  C     C  C                 |
 *         |   C C        C     CC                |
 |         | C           CC CC C C                |
 |         .--C-C-C---C-C--C--C-------------------.

[...]

Density initialized from wave functions
  /        |        C  C     C  C                 |
 *         |   C C        C     CC                |
 |         |  C          CC CC C C                |
 |         .----C-C---C-C--C--C-------------------.

[...]

Density initialized from wave functions
  /        |        C  C     C  C                 |
 *         |   C C        C     CC                |
 |         |  C          CC CC C C                |
 |         .----C-C---C-C--C--C-------------------.
 |        /             C                        /

[...]

Density initialized from wave functions
  /        |        C  C     C  C                 |
 *         |   C C        C     CC                |
 |         |  C          CC CC C C                |
 |         .----C-C---C-C--C--C-------------------.
 |        /             C                        /

[...]

Density initialized from wave functions
  /        |        C  C     C  C                 |
 *         |   C C        C     CC                |
 |         |  C          CC CC C C                |
 |         .----C-C---C-C--C--C-------------------.

[...]

Density initialized from wave functions
  /        |           C     C  C                 |
 *         |   C C  C     C     CC                |
 |         |  C           C CC C C                |
 |         .----C-C---C-CC-C--C-------------------.
 |        /             C                        /

[...]

Density initialized from wave functions
  /        |           C     C  C                 |
 *         |   C C  C     C     CC                |
 |         |  C           C  C C C                |
 |         .----C-C---C-CC-CC-C-------------------.
 |        /             C                        /

[...]

Density initialized from wave functions
  /        |           C     C  C                 |
 *         |   C C  C     C     CC                |
 |         |  C           C  C C                  |
 |         .----C-C--C--CC-CC-C-------------------.
 |        /             C                        /

[...]

Density initialized from wave functions
  /        |           C     C  C                 |
 *         |   C C  C     C     CC                |
 |         |  C           C  C C                  |
 |         .----C-C--C--CC-CC-C-------------------.
 |        /             C                        /

[...]

Density initialized from wave functions
  /        |           C     C  C                 |
 *         |   C C  C     C     CC                |
 |         |  C           C   CC                  |
 |         .----C-C--C--CC-CC-C-------------------.
 |        /             C                        /

[...]

Density initialized from wave functions
  /        |           C     C  C                 |
 *         |   C C  C     C     CC                |
 |         |  C C         C   CC                  |
 |         .------C--C--CC-CC-C-------------------.
 |        /             C                        /

[...]

System changes: positions

Initializing position-dependent things.

Density initialized from wave functions
  /        |           C     C  C                 |
 *         |   C C  C     C     CC                |
 |         |  C C         C   CC                  |
 |         .------C--C--CC-CC-C-------------------.
 |        /             C                        /

Positions:
   0 C      6.234102   10.583463    4.956606
   1 C      5.089952   10.068947    5.095744
   2 C      8.730410   11.105824    5.328144
   3 C      4.075351    9.228465    5.358003
   4 C      7.617843   10.435069    4.775765
   5 C      9.898563   10.644923    5.599173
   6 C      3.567884    8.089061    5.595037
   7 C      8.076811    9.132592    4.189437
   8 C     10.434076    9.421653    5.216394
   9 C      3.509808    6.783443    5.873978
  10 C      7.401878    7.872845    4.010417
  11 C      9.447729    8.806943    4.304330
  12 C      8.562908    4.459614    6.259982
  13 C      7.353857    4.115191    6.367381
  14 C     10.731988    5.840759    6.458928
  15 C      6.013438    4.129071    6.449256
  16 C      9.540594    5.382812    5.854151
  17 C     11.284718    6.998066    6.380354
  18 C      4.869990    4.668988    6.329971
  19 C      9.136253    6.350992    4.784174
  20 C     10.963267    8.034841    5.513893
  21 C      3.951991    5.618181    6.124947
  22 C      7.846957    6.713280    4.256454
  23 C      9.949949    7.491084    4.585505

Unit cell:
           periodic     x           y           z      points  spacing
  1. axis:    yes   16.000000    0.000000    0.000000    80     0.2000
  2. axis:    yes    0.000000   16.000000    0.000000    80     0.2000
  3. axis:    yes    0.000000    0.000000   10.000000    48     0.2083

Effective grid spacing dv^(1/3) = 0.2027

                     log10-error:    total        iterations:
           time      wfs    density  energy       fermi  poisson
iter:   1  17:18:40          +inf  -183.265689    2      4
iter:   2  17:18:40         -3.46  -183.265458    1      1
iter:   3  17:18:41         -3.52  -183.266169    1      1
iter:   4  17:18:41         -3.73  -183.266411    1      1
iter:   5  17:18:42         -3.98  -183.266113    1      1
iter:   6  17:18:42         -4.21  -183.265288    1      1

Converged after 6 iterations.

Dipole moment: (0.079526, 0.018274, -0.034638) |e|*Ang

Energy contributions relative to reference atoms: (reference = -24663.074771)

Kinetic:       +105.121930
Potential:     -114.362515
External:        +0.000000
XC:            -177.094037
Entropy (-ST):   -0.001969
Local:           +3.070318
Free energy:   -183.266272
Extrapolated:  -183.265288

Fermi level: -3.99591

 Band  Eigenvalues  Occupancy
    0    -23.10955    2.00000
    1    -21.37238    2.00000
    2    -20.75760    2.00000
    3    -20.34530    2.00000
    4    -20.14225    2.00000
    5    -19.98615    2.00000
    6    -19.25469    2.00000
    7    -19.15699    2.00000
    8    -18.32025    2.00000
    9    -18.16109    2.00000
   10    -17.59738    2.00000
   11    -17.30948    2.00000
   12    -16.30815    2.00000
   13    -16.18846    2.00000
   14    -15.02211    2.00000
   15    -15.01904    2.00000
   16    -14.88234    2.00000
   17    -14.14530    2.00000
   18    -13.44621    2.00000
   19    -13.23819    2.00000
   20    -12.50397    2.00000
   21    -12.41548    2.00000
   22    -11.76183    2.00000
   23    -11.74803    2.00000
   24    -11.53294    2.00000
   25    -10.44567    2.00000
   26    -10.00445    2.00000
   27     -9.44766    2.00000
   28     -9.24559    2.00000
   29     -9.23264    2.00000
   30     -9.11134    2.00000
   31     -9.03288    2.00000
   32     -8.42693    2.00000
   33     -8.36317    2.00000
   34     -8.35727    2.00000
   35     -8.05943    2.00000
   36     -7.49008    2.00000
   37     -7.08696    2.00000
   38     -6.95863    2.00000
   39     -6.55705    2.00000
   40     -6.40082    2.00000
   41     -6.27685    2.00000
   42     -6.11242    2.00000
   43     -5.80551    2.00000
   44     -5.61002    2.00000
   45     -5.02240    1.99993
   46     -4.91697    1.99980
   47     -4.77927    1.99921
   48     -3.21730    0.00083
   49     -3.03509    0.00013
   50     -2.96587    0.00007
   51     -2.85241    0.00002
   52     -2.75246    0.00001
   53     -2.22079    0.00000
   54     -1.38335    0.00000
   55     -1.20537    0.00000
   56     -1.18349    0.00000
   57     -0.57065    0.00000
   58     -0.19099    0.00000
   59      0.19050    0.00000
[...]
   83      9.24614    0.00000
   84      9.29963    0.00000
   85      9.39459    0.00000
   86      9.43995    0.00000
   87      9.57158    0.00000
   88      9.64709    0.00000
   89      9.70417    0.00000
   90      9.73030    0.00000
   91      9.91148    0.00000
   92      9.91870    0.00000
   93     10.09689    0.00000
   94     10.13702    0.00000
   95     10.39481    0.00000
   96     10.40808    0.00000
   97     10.46917    0.00000

Forces in eV/Ang:
  0 C     0.00688   -0.01981   -0.00601
  1 C    -0.01042   -0.02042   -0.00762
  2 C     0.02549   -0.04020    0.01897
  3 C     0.01949    0.03189   -0.00362
  4 C     0.01557   -0.03048    0.00258
  5 C    -0.01963    0.01039    0.00626
  6 C    -0.02198    0.00108    0.00912
  7 C    -0.00306    0.02261   -0.01840
  8 C    -0.00452    0.01988   -0.02609
  9 C    -0.06047    0.04097    0.03172
 10 C     0.07295    0.02406    0.01215
 11 C    -0.00042    0.04149   -0.02245
 12 C    -0.00156    0.02163   -0.00192
 13 C    -0.01944    0.01924   -0.00966
 14 C    -0.00314    0.05035   -0.01602
 15 C     0.01518    0.02417   -0.02363
 16 C    -0.01883    0.01688    0.01373
 17 C     0.00033   -0.03628    0.02404
 18 C     0.01043   -0.02254   -0.00512
 19 C     0.01226   -0.00799   -0.01195
 20 C    -0.01102   -0.02983   -0.01359
 21 C    -0.00979   -0.01493    0.05181
 22 C     0.04294    0.04801    0.01595
 23 C     0.02811   -0.02254   -0.01167