User:   esb@s65n32.grendel.cscaa.dk
Date:   Thu Nov  9 09:42:26 2017
Arch:   x86_64
Pid:    21863
Python: 2.7.13
gpaw:   /home/esb/DFT/gpaw_git/gpaw
_gpaw:  /home/esb/DFT/gpaw_git/build/bin.linux-x86_64-2.7/gpaw-python
ase:    /home/esb/DFT/ase_git/ase (version 3.15.0b1)
numpy:  /comm/swstack/core/python/2.7.13/lib/python2.7/site-packages/numpy (version 1.13.3)
scipy:  /comm/swstack/core/python/2.7.13/lib/python2.7/site-packages/scipy (version 0.19.1)
units:  Angstrom and eV
cores:  16
Extra parameters: {'blacs': True}

Input parameters:
  basis: dzp
  gpts: [80 80 48]
  kpts: [1 1 1]
  maxiter: 99
  mixer: {backend: pulay,
          beta: 0.05,
          method: separate,
          nmaxold: 5,
          weight: 75}
  mode: lcao
  nbands: -50
  occupations: {name: fermi-dirac,
                width: 0.1}
  poissonsolver: {eps: 1e-07,
                  name: fd,
                  nn: 3,
                  relax: GS}
  xc: PBE

System changes: positions, numbers, cell, pbc, initial_charges, initial_magmoms

Initialize ...

C-setup:
  name: Carbon
  id: 4aa54d4b901d75f77cc0ea3eec22967b
  Z: 6
  valence: 4
  core: 2
  charge: 0.0
  file: /home/esb/DFT/gpaw-setups-0.8.7929/C.PBE.gz
  cutoffs: 0.64(comp), 1.14(filt), 1.14(core), lmax=2
  valence states:
                energy  radius
    2s(2.00)   -13.751   0.635
    2p(2.00)    -5.284   0.635
    *s          13.461   0.635
    *p          21.927   0.635
    *d           0.000   0.635

  LCAO basis set for C:
    Name: dzp
    File: /home/esb/DFT/gpaw-setups-0.8.7929/C.dzp.basis.gz
    Number of radial functions: 5
    Number of spherical harmonics: 13
      l=0, rc=5.5469 Bohr: 2s-sz confined orbital
      l=1, rc=6.6719 Bohr: 2p-sz confined orbital
      l=0, rc=3.0312 Bohr: 2s-dz split-valence wave
      l=1, rc=3.7500 Bohr: 2p-dz split-valence wave
      l=2, rc=6.6719 Bohr: d-type Gaussian polarization

Reference energy: -24663.074771

Spin-paired calculation

Occupation numbers:
  Fermi-Dirac: width=0.1000 eV

Convergence criteria:
  Maximum total energy change: 0.0005 eV / electron
  Maximum integral of absolute density change: 0.0001 electrons
  Maximum integral of absolute eigenstate change: 4e-08 eV^2
  Maximum number of iterations: 99

Symmetries present (total): 1

  ( 1  0  0)
  ( 0  1  0)
  ( 0  0  1)

1 k-point (Gamma)
1 k-point in the irreducible part of the Brillouin zone
       k-points in crystal coordinates                weights
   0:     0.00000000    0.00000000    0.00000000          1/1

Wave functions: LCAO
  Diagonalizer: Serial LAPACK
  Atomic Correction: dense with blas
  Datatype: float
  Eigensolver: None

LCAO using direct dense diagonalizer

Densities:
  Coarse grid: 80*80*48 grid
  Fine grid: 160*160*96 grid
  Total Charge: 0.000000

Density mixing:
  Method: separate
  Backend: pulay
  Linear mixing parameter: 0.05
  Mixing with 5 old densities
  Damping of long wave oscillations: 75

Hamiltonian:
  XC and Coulomb potentials evaluated on a 160*160*96 grid
  Using the PBE Exchange-Correlation functional
  Interpolation: tri-quintic (5. degree polynomial)
  Poisson solver: Gauss-Seidel solver with 6 multi-grid levels
    Coarsest grid: 5 x 5 x 3 points
    Stencil: 6*3+1=19 point O(h^6) finite-difference Laplacian
    Max iterations: 1000
    Tolerance: 1.000000e-07

Total number of cores used: 16
Domain decomposition: 2 x 4 x 2

Number of atoms: 24
Number of atomic orbitals: 312
Number of bands in calculation: 98
Bands to converge: occupied states only
Number of valence electrons: 96

... initialized

Initializing position-dependent things.

Density initialized from atomic densities
   /       |                C C                   |
  /        |             C  C  CC                 |
 *         |       CC  CCC     C   C              |
 |         |      C        C   C  C               |
 |         .------C--CC-C--C----------------------.
 |        /      C                               /
 |       /         C                            /

Positions:
   0 C      9.250780    6.255832    5.372242
   1 C      4.878322    7.627918    5.224645
   2 C     11.877009    8.195047    5.764711
   3 C      9.041725   11.778453    5.387672
   4 C     10.672979    6.227493    5.601601
   5 C      7.673991    4.434210    5.674929
   6 C      6.301740   10.752036    4.783200
   7 C      6.310243    7.499682    4.824957
   8 C      8.825929    7.663093    5.295121
   9 C      8.618784   10.364209    5.406035
  10 C      7.508545    7.909508    5.719445
  11 C      5.287113    6.447587    4.609432
  12 C      7.935361   12.511924    5.010073
  13 C      9.938603    9.843161    5.548405
  14 C     10.070118    8.461115    5.499478
  15 C     12.080157    6.457487    5.861338
  16 C      9.807048   11.717466    4.533752
  17 C      7.416248    9.756505    5.013305
  18 C      6.746221   12.087455    4.794291
  19 C      5.155535    5.064773    4.557319
  20 C      5.012474   10.191093    4.626670
  21 C      7.806966    5.618769    5.682477
  22 C      4.957312    8.781183    5.170218
  23 C      6.144907    5.101390    4.089637

Unit cell:
           periodic     x           y           z      points  spacing
  1. axis:    yes   16.000000    0.000000    0.000000    80     0.2000
  2. axis:    yes    0.000000   16.000000    0.000000    80     0.2000
  3. axis:    yes    0.000000    0.000000   10.000000    48     0.2083

Effective grid spacing dv^(1/3) = 0.2027

                     log10-error:    total        iterations:
           time      wfs    density  energy       fermi  poisson
iter:   1  09:42:28          +inf  -161.533549    2      6
iter:   2  09:42:28         -0.86  -159.824167    3      3
iter:   3  09:42:29         -0.90  -157.360809    5      3
iter:   4  09:42:29         -1.06  -156.532612    4      3
iter:   5  09:42:30         -1.11  -157.094731    32     4
iter:   6  09:42:30         -1.24  -156.517524    3      2
iter:   7  09:42:31         -1.28  -155.548318    3      3
iter:   8  09:42:31         -1.48  -155.511610    4      3
iter:   9  09:42:32         -1.62  -155.394313    3      3
iter:  10  09:42:32         -1.85  -155.381897    3      2
iter:  11  09:42:33         -1.96  -155.363163    3      2
iter:  12  09:42:33         -2.07  -155.358763    3      2
iter:  13  09:42:34         -2.30  -155.352515    3      2
iter:  14  09:42:34         -2.47  -155.350216    3      2
iter:  15  09:42:35         -2.67  -155.346525    2      2
iter:  16  09:42:35         -2.75  -155.345087    2      2
iter:  17  09:42:36         -3.00  -155.335699    2      1
iter:  18  09:42:36         -3.23  -155.343048    2      1
iter:  19  09:42:37         -3.29  -155.351326    2      1
iter:  20  09:42:37         -3.47  -155.342772    2      1
iter:  21  09:42:38         -3.73  -155.347494    2      1
iter:  22  09:42:38         -3.85  -155.348038    2      1
iter:  23  09:42:39         -3.91  -155.344842    2      1
iter:  24  09:42:39         -4.06  -155.345938    2      1

Converged after 24 iterations.

Dipole moment: (-0.702042, 0.669489, 0.096344) |e|*Ang

Energy contributions relative to reference atoms: (reference = -24663.074771)

Kinetic:       +164.351457
Potential:     -151.887835
External:        +0.000000
XC:            -170.578997
Entropy (-ST):   -0.261858
Local:           +2.900365
Free energy:   -155.476867
Extrapolated:  -155.345938

Fermi level: -4.98320

 Band  Eigenvalues  Occupancy
    0    -25.43671    2.00000
    1    -24.19191    2.00000
    2    -23.28092    2.00000
    3    -22.08370    2.00000
    4    -21.31219    2.00000
    5    -20.30295    2.00000
    6    -19.62148    2.00000
    7    -19.42805    2.00000
    8    -19.07904    2.00000
    9    -18.51137    2.00000
   10    -17.93980    2.00000
   11    -17.42449    2.00000
   12    -16.20584    2.00000
   13    -15.71695    2.00000
   14    -15.32806    2.00000
   15    -14.23039    2.00000
   16    -13.99041    2.00000
   17    -13.61260    2.00000
   18    -13.25502    2.00000
   19    -12.66719    2.00000
   20    -12.38772    2.00000
   21    -12.14166    2.00000
   22    -11.91236    2.00000
   23    -11.42647    2.00000
   24    -11.12469    2.00000
   25    -10.99935    2.00000
   26    -10.47766    2.00000
   27    -10.02393    2.00000
   28     -9.86323    2.00000
   29     -9.41929    2.00000
   30     -8.88137    2.00000
   31     -8.68188    2.00000
   32     -8.55105    2.00000
   33     -8.14451    2.00000
   34     -8.04199    2.00000
   35     -7.82050    2.00000
   36     -7.40283    2.00000
   37     -7.01779    2.00000
   38     -6.93057    2.00000
   39     -6.78841    2.00000
   40     -6.55369    2.00000
   41     -6.50440    2.00000
   42     -6.30620    2.00000
   43     -6.07113    1.99996
   44     -5.68366    1.99819
   45     -5.51294    1.99004
   46     -5.34352    1.94697
   47     -5.13388    1.63717
   48     -4.79639    0.26752
   49     -4.73866    0.15955
   50     -4.17283    0.00060
   51     -3.63949    0.00000
   52     -3.32149    0.00000
   53     -2.95157    0.00000
   54     -2.59010    0.00000
   55     -2.37379    0.00000
   56     -2.32117    0.00000
   57     -1.82259    0.00000
   58     -1.32908    0.00000
   59     -1.14945    0.00000
[...]
   83      7.91174    0.00000
   84      8.15337    0.00000
   85      8.23806    0.00000
   86      8.37020    0.00000
   87      8.55737    0.00000
   88      8.68216    0.00000
   89      8.74004    0.00000
   90      8.85382    0.00000
   91      9.18673    0.00000
   92      9.35889    0.00000
   93      9.41365    0.00000
   94      9.44425    0.00000
   95      9.60299    0.00000
   96      9.72272    0.00000
   97      9.80900    0.00000

Forces in eV/Ang:
  0 C    -2.24139    1.19202    1.41954
  1 C    -4.13209  -13.33409    0.43873
  2 C    -3.82994   -3.77125   -0.79486
  3 C   -14.21428    2.64641   14.11418
  4 C     3.36345    0.02699    0.55354
  5 C    -2.81766  -10.60702   -0.61422
  6 C    -0.35435   -2.32572   -0.24904
  7 C     2.87315   -1.33800    1.98515
  8 C     4.19965   -1.71556    1.79066
  9 C     1.56355   -1.01501    0.22300
 10 C    -3.14961    3.72729   -5.32801
 11 C     0.82749    1.75106    1.30253
 12 C    -4.05894    1.96739   -0.15969
 13 C    -0.66362   -2.13384   -0.90521
 14 C     2.93987    2.44754   -0.00041
 15 C    -5.19647    1.48927   -0.94125
 16 C    16.12659   -2.72792  -14.04282
 17 C     0.33145    0.88675    2.47249
 18 C     1.18811    0.65642    0.03052
 19 C   -24.57114   -1.10888   10.92073
 20 C    -0.99670   -4.14126    2.89696
 21 C     6.53631    9.15014   -0.50903
 22 C     0.42442   20.36839   -2.96742
 23 C    25.82979   -2.07139  -11.52057

System changes: positions

[...]

Density initialized from wave functions
   /       |                C C                   |
  /        |             C  C  CC                 |
 *         |       CC  CCC     C   C              |
 |         |      C        C   C  C               |
 |         .------C--CC-C--C----------------------.
 |        /      C                               /
 |       /         C                            /

[...]

Density initialized from wave functions
   /       |                C C                   |
[...]
 |       /          C                           /

[...]

Density initialized from wave functions
   /       |                C C                   |
  /        |             C   C  CC                |
 *         |      C C  CCC     C  C               |
 |         |      C  C     CC  C  C               |
 |         .------C-----C-------------------------.
 |        /      C    C                          /
 |       /          C                           /

[...]

Density initialized from wave functions
   /       |                C C                   |
  /        |             C   C  CC                |
 *         |      C C  CCC     C  C               |
 |         |      C  C     CC  C  C               |
 |         .------C-----C-------------------------.
 |        /      C    C                          /
 |       /          C                           /

[...]

Density initialized from wave functions
   /       |                C C                   |
  /        |             C   C  CC                |
 *         |      C C  C C     C  C               |
 |         |      C  C  C  CC  C  C               |
 |         .------C-----C-------------------------.
 |        /      C    C                          /
 |       /          C                           /

[...]

Density initialized from wave functions
   /       |                C C                   |
  /        |             C   C  CC                |
 *         |      C C  C C     C  C               |
 |         |      C  C   C CC  C  C               |
 |         .------C-----C-------------------------.
 |        /      C    C                          /
 |       /          C                           /

[...]

Density initialized from wave functions
   /       |                C C                   |
  /        |             C   C  CC                |
 *         |      C C  C C     C  C               |
 |         |      C  C   C  C  C  C               |
 |         .------C-----C-------------------------.
 |        /      C    C                          /
 |       /          C                           /

[...]

Density initialized from wave functions
   /       |                C C                   |
  /        |             C   C  CC                |
 *         |      C C  C C     C C                |
 |         |      C  C   C  C  C  C               |
 |         .------C-----C-------------------------.
 |        /      C    C                          /
 |       /          C                           /

[...]

Density initialized from wave functions
   /       |                C C                   |
  /        |             C   C  CC                |
 *         |      C C  C C     C C                |
 |         |      C  C   C  C  C  C               |
 |         .------C------C------------------------.
 |        /      C    C                          /
 |       /          C                           /

[...]

Density initialized from wave functions
   /       |                C C                   |
  /        |           C C   C  CC                |
 *         |      C C    C     C C                |
 |         |      C  C   C  C  C  C               |
 |         .------C------C------------------------.
 |        /      C    C                          /
 |       /          C                           /

[...]

Density initialized from wave functions
   /       |                C C                   |
  /        |           C C   C  CC                |
 *         |      C C    C     C C                |
 |         |      C  C   C  C  C  C               |
 |         .------C------C------------------------.
 |        /      C    C                          /
 |       /          C                           /

[...]

Density initialized from wave functions
   /       |                C C                   |
  /        |           C C   C  CC                |
 *         |      C C    C     C                  |
 |         |      C  C   C CC  C CC               |
 |         .------C------C------------------------.
 |        /      C    C                          /
 |       /         C                            /

[...]

Density initialized from wave functions
   /       |                C C                   |
  /        |           C C   C  CC                |
 *         |      C C    C     C                  |
 |         |      C  C   C CC  C C C              |
 |         .------C------C------------------------.
 |        /      C    C                          /
 |       /         C                            /

[...]

Density initialized from wave functions
   /       |                C C                   |
  /        |           C C   C  CC                |
 *         |     C  C    C     C                  |
 |         |      C  C   C C   C C C              |
 |         .------C------C------------------------.
 |        /      C    C                          /
 |       /         C                            /

[...]

Density initialized from wave functions
   /       |                C C                   |
  /        |           C C   C  CC                |
 *         |     C  C    C     C                  |
 |         |      C  C   C C   C C C              |
 |         .------C------C------------------------.
 |        /      C    C                          /
 |       /         C                            /

[...]

Density initialized from wave functions
   /       |                C C                   |
  /        |           C C   C  CC                |
 *         |     C C     C     C                  |
 |         |      C  C     C   C C C              |
 |         .------C------C------------------------.
 |        /      C    C                          /
 |       /         C                            /

[...]

Density initialized from wave functions
   /       |                C C                   |
  /        |           C C   C  CC                |
 *         |     C  C   CC     C                  |
 |         |      C  C     C   C C C              |
 |         .------C------C------------------------.
 |        /      C    C                          /
 |       /         C                            /

[...]

Density initialized from wave functions
   /       |                C C                   |
  /        |           C C   C  CC                |
 *         |     C  C   CC     C                  |
 |         |      C  C     C   C C C              |
 |         .------C------C------------------------.
 |        /      C    C                          /
 |       /         C                            /

[...]

Density initialized from wave functions
   /       |             C  C C                   |
  /        |           C     C  CC                |
 *         |     C  C   CC     C                  |
 |         |      C  C     C   C C C              |
 |         .------C------C------------------------.
 |        /      C    C                          /
 |       /         C                            /

[...]

Density initialized from wave functions
   /       |             C  C C                   |
  /        |           C     C  CC                |
 *         |     C  C   CC     C                  |
 |         |      C  C     CC  C C C              |
 |         .------C------C------------------------.
 |        /      C    C                          /
 |       /         C                            /

[...]

Density initialized from wave functions
   /       |             C  C C                   |
  /        |           C     C  CC                |
 *         |     C  C   CC     C C                |
 |         |      C  C     CC  C   C              |
 |         .------C------C------------------------.
 |        /      C    C                          /
 |       /         C                            /

[...]

Density initialized from wave functions
   /       |             C  C C                   |
  /        |           C     C C C                |
 *         |     C  C   CC     C C                |
 |         |      C  C     CC  C   C              |
 |         .------C------C------------------------.
 |        /      C    C                          /
 |       /         C                            /

[...]

Density initialized from wave functions
   /       |             C  C C                   |
  /        |           C     C C C                |
 *         |     C C    CC     C C                |
 |         |      C  C     CC  C   C              |
 |         .------C------C------------------------.
 |        /      C    C                          /
 |       /         C                            /

[...]

Density initialized from wave functions
   /       |             C  C C                   |
  /        |           C     C C C                |
 *         |     C C     C     C C                |
 |         |      C  C  C  CC  C   C              |
 |         .------C------C------------------------.
 |        /      C C  C                          /

[...]

Density initialized from wave functions
   /       |             C  C C                   |
  /        |           C     C C C                |
 *         |     C C     C     C C                |
 |         |      C  C   C CC  C   C              |
 |         .------C------C------------------------.
 |        /      C C  C                          /

[...]

Density initialized from wave functions
   /       |             C  C C                   |
  /        |           C     C C C                |
 *         |     C C     C     C C                |
 |         |      C  C   C C   C   C              |
 |         .------C------C--C---------------------.
 |        /      C C  C                          /

[...]

Density initialized from wave functions
   /       |             C  C C                   |
  /        |           C     C C C                |
 *         |     C C     C     C C                |
 |         |      C  C   C C   C   C              |
 |         .------C------C--C---------------------.
 |        /      C C  C                          /

[...]

Density initialized from wave functions
   /       |                C C                   |
  /        |           C C   C C C                |
 *         |     C C     C     C C                |
 |         |      C  C   C C   C   C              |
 |         .------C------C--C---------------------.
 |        /      C C  C                          /

[...]

System changes: positions

Initializing position-dependent things.

Density initialized from wave functions
   /       |                C C                   |
  /        |           C C   C C C                |
 *         |     C C     C     C C                |
 |         |      C  C   C C   C   C              |
 |         .------C------C--C---------------------.
 |        /      C C  C                          /

Positions:
   0 C      9.318023    6.361679    5.394639
   1 C      4.939838    7.797365    4.897376
   2 C     11.232928    7.696663    5.598574
   3 C      9.000757   11.880717    5.284106
   4 C     10.748845    6.357526    5.557887
   5 C      7.629858    4.360876    5.044070
   6 C      6.240139   10.781822    4.976238
   7 C      6.325564    7.530480    5.025642
   8 C      8.862264    7.760726    5.357395
   9 C      8.609007   10.462448    5.415787
  10 C      7.514927    8.319346    5.184797
  11 C      5.318346    6.456072    4.834861
  12 C      7.849039   12.578726    4.978330
  13 C      9.947137    9.966398    5.466349
  14 C     10.101972    8.583972    5.477056
  15 C     12.161468    6.611104    5.757277
  16 C     10.298393   11.314401    4.903545
  17 C      7.389908    9.816612    5.145811
  18 C      6.654012   12.125626    4.889679
  19 C      5.218245    5.072831    4.727166
  20 C      4.960294   10.181007    4.949319
  21 C      8.520388    5.240650    5.248992
  22 C      4.361818    9.079103    4.953211
  23 C      6.308241    4.409276    4.858527

Unit cell:
           periodic     x           y           z      points  spacing
  1. axis:    yes   16.000000    0.000000    0.000000    80     0.2000
  2. axis:    yes    0.000000   16.000000    0.000000    80     0.2000
  3. axis:    yes    0.000000    0.000000   10.000000    48     0.2083

Effective grid spacing dv^(1/3) = 0.2027

                     log10-error:    total        iterations:
           time      wfs    density  energy       fermi  poisson
iter:   1  09:50:21          +inf  -182.296129    2      5
iter:   2  09:50:21         -2.65  -182.300973    2      1
iter:   3  09:50:22         -2.90  -182.304634    2      1
iter:   4  09:50:22         -3.06  -182.302334    2      1
iter:   5  09:50:23         -3.26  -182.304166    2      1
iter:   6  09:50:23         -3.34  -182.305156    1      1
iter:   7  09:50:24         -3.57  -182.301492    2      1
iter:   8  09:50:24         -3.27  -182.304761    2      1
iter:   9  09:50:25         -3.86  -182.305126    2      1
iter:  10  09:50:25         -3.99  -182.303697    2      1
iter:  11  09:50:26         -3.72  -182.304648    2      1
iter:  12  09:50:26         -4.37  -182.304932    1      1

Converged after 12 iterations.

Dipole moment: (-0.809532, 0.259980, 0.059139) |e|*Ang

Energy contributions relative to reference atoms: (reference = -24663.074771)

Kinetic:       +110.188068
Potential:     -116.685218
External:        +0.000000
XC:            -178.717825
Entropy (-ST):   -0.143408
Local:           +2.981747
Free energy:   -182.376636
Extrapolated:  -182.304932

Fermi level: -4.10307

 Band  Eigenvalues  Occupancy
    0    -23.41812    2.00000
    1    -23.14400    2.00000
    2    -22.81090    2.00000
    3    -21.25556    2.00000
    4    -20.79647    2.00000
    5    -20.60338    2.00000
    6    -19.80149    2.00000
    7    -19.53244    2.00000
    8    -19.01174    2.00000
    9    -18.19351    2.00000
   10    -18.03113    2.00000
   11    -17.18836    2.00000
   12    -16.27441    2.00000
   13    -15.73320    2.00000
   14    -15.32942    2.00000
   15    -14.83665    2.00000
   16    -14.28487    2.00000
   17    -13.77948    2.00000
   18    -13.36245    2.00000
   19    -12.99378    2.00000
   20    -12.55579    2.00000
   21    -12.50870    2.00000
   22    -11.38942    2.00000
   23    -11.05339    2.00000
   24    -10.85857    2.00000
   25    -10.75683    2.00000
   26    -10.22592    2.00000
   27    -10.13650    2.00000
   28     -9.88760    2.00000
   29     -9.65442    2.00000
   30     -9.59469    2.00000
   31     -9.15768    2.00000
   32     -8.80607    2.00000
   33     -8.69816    2.00000
   34     -8.59359    2.00000
   35     -8.28879    2.00000
   36     -8.09411    2.00000
   37     -7.81293    2.00000
   38     -7.47000    2.00000
   39     -7.17456    2.00000
   40     -6.60251    2.00000
   41     -6.45401    2.00000
   42     -6.27632    2.00000
   43     -5.74020    2.00000
   44     -5.32928    1.99999
   45     -5.26138    1.99998
   46     -4.97812    1.99968
   47     -4.30718    1.77011
   48     -3.89894    0.22988
   49     -3.21343    0.00027
   50     -3.09936    0.00009
   51     -2.76188    0.00000
   52     -2.52474    0.00000
   53     -2.34926    0.00000
   54     -1.86874    0.00000
   55     -1.58372    0.00000
   56     -1.50625    0.00000
   57     -0.41360    0.00000
   58     -0.13906    0.00000
   59      0.50787    0.00000
[...]
   83      8.68966    0.00000
   84      8.74417    0.00000
   85      9.03202    0.00000
   86      9.15221    0.00000
   87      9.35411    0.00000
   88      9.39167    0.00000
   89      9.50495    0.00000
   90      9.59003    0.00000
   91      9.78647    0.00000
   92      9.88954    0.00000
   93     10.08524    0.00000
   94     10.13842    0.00000
   95     10.19656    0.00000
   96     10.37743    0.00000
   97     10.49048    0.00000

Forces in eV/Ang:
  0 C    -0.05095    0.03872    0.02663
  1 C     0.01835   -0.01279   -0.01989
  2 C    -0.01914    0.02739   -0.05542
  3 C    -0.03077   -0.04866    0.04752
  4 C    -0.05651    0.04365    0.01991
  5 C     0.05941   -0.03438    0.04390
  6 C     0.01614   -0.02309   -0.04426
  7 C    -0.00492    0.01184    0.01033
  8 C    -0.02305   -0.03264   -0.02941
  9 C    -0.01747   -0.03605   -0.05839
 10 C     0.02217    0.00108   -0.00658
 11 C    -0.02821    0.02176    0.04325
 12 C     0.07069    0.01000    0.03307
 13 C    -0.01942   -0.05168   -0.00067
 14 C    -0.01343    0.00658    0.04365
 15 C     0.00544    0.01200   -0.03550
 16 C     0.01072   -0.00802    0.02429
 17 C     0.01684   -0.01082   -0.00537
 18 C    -0.00353   -0.00978   -0.01369
 19 C     0.01081    0.04266    0.03525
 20 C    -0.04741   -0.01839   -0.03088
 21 C     0.05019    0.03561   -0.04944
 22 C     0.06162    0.01844   -0.01039
 23 C    -0.05769    0.01421   -0.03075