User:   esb@s65n12.grendel.cscaa.dk
Date:   Thu Nov  9 10:52:52 2017
Arch:   x86_64
Pid:    20232
Python: 2.7.13
gpaw:   /home/esb/DFT/gpaw_git/gpaw
_gpaw:  /home/esb/DFT/gpaw_git/build/bin.linux-x86_64-2.7/gpaw-python
ase:    /home/esb/DFT/ase_git/ase (version 3.15.0b1)
numpy:  /comm/swstack/core/python/2.7.13/lib/python2.7/site-packages/numpy (version 1.13.3)
scipy:  /comm/swstack/core/python/2.7.13/lib/python2.7/site-packages/scipy (version 0.19.1)
units:  Angstrom and eV
cores:  16
Extra parameters: {'blacs': True}

Input parameters:
  basis: dzp
  gpts: [80 80 48]
  kpts: [1 1 1]
  maxiter: 99
  mixer: {backend: pulay,
          beta: 0.05,
          method: separate,
          nmaxold: 5,
          weight: 75}
  mode: lcao
  nbands: -50
  occupations: {name: fermi-dirac,
                width: 0.1}
  poissonsolver: {eps: 1e-07,
                  name: fd,
                  nn: 3,
                  relax: GS}
  xc: PBE

System changes: positions, numbers, cell, pbc, initial_charges, initial_magmoms

Initialize ...

C-setup:
  name: Carbon
  id: 4aa54d4b901d75f77cc0ea3eec22967b
  Z: 6
  valence: 4
  core: 2
  charge: 0.0
  file: /home/esb/DFT/gpaw-setups-0.8.7929/C.PBE.gz
  cutoffs: 0.64(comp), 1.14(filt), 1.14(core), lmax=2
  valence states:
                energy  radius
    2s(2.00)   -13.751   0.635
    2p(2.00)    -5.284   0.635
    *s          13.461   0.635
    *p          21.927   0.635
    *d           0.000   0.635

  LCAO basis set for C:
    Name: dzp
    File: /home/esb/DFT/gpaw-setups-0.8.7929/C.dzp.basis.gz
    Number of radial functions: 5
    Number of spherical harmonics: 13
      l=0, rc=5.5469 Bohr: 2s-sz confined orbital
      l=1, rc=6.6719 Bohr: 2p-sz confined orbital
      l=0, rc=3.0312 Bohr: 2s-dz split-valence wave
      l=1, rc=3.7500 Bohr: 2p-dz split-valence wave
      l=2, rc=6.6719 Bohr: d-type Gaussian polarization

Reference energy: -24663.074771

Spin-paired calculation

Occupation numbers:
  Fermi-Dirac: width=0.1000 eV

Convergence criteria:
  Maximum total energy change: 0.0005 eV / electron
  Maximum integral of absolute density change: 0.0001 electrons
  Maximum integral of absolute eigenstate change: 4e-08 eV^2
  Maximum number of iterations: 99

Symmetries present (total): 1

  ( 1  0  0)
  ( 0  1  0)
  ( 0  0  1)

1 k-point (Gamma)
1 k-point in the irreducible part of the Brillouin zone
       k-points in crystal coordinates                weights
   0:     0.00000000    0.00000000    0.00000000          1/1

Wave functions: LCAO
  Diagonalizer: Serial LAPACK
  Atomic Correction: dense with blas
  Datatype: float
  Eigensolver: None

LCAO using direct dense diagonalizer

Densities:
  Coarse grid: 80*80*48 grid
  Fine grid: 160*160*96 grid
  Total Charge: 0.000000

Density mixing:
  Method: separate
  Backend: pulay
  Linear mixing parameter: 0.05
  Mixing with 5 old densities
  Damping of long wave oscillations: 75

Hamiltonian:
  XC and Coulomb potentials evaluated on a 160*160*96 grid
  Using the PBE Exchange-Correlation functional
  Interpolation: tri-quintic (5. degree polynomial)
  Poisson solver: Gauss-Seidel solver with 6 multi-grid levels
    Coarsest grid: 5 x 5 x 3 points
    Stencil: 6*3+1=19 point O(h^6) finite-difference Laplacian
    Max iterations: 1000
    Tolerance: 1.000000e-07

Total number of cores used: 16
Domain decomposition: 2 x 4 x 2

Number of atoms: 24
Number of atomic orbitals: 312
Number of bands in calculation: 98
Bands to converge: occupied states only
Number of valence electrons: 96

... initialized

Initializing position-dependent things.

Density initialized from atomic densities
   /       |       C             C                |
  /        | CC      C            C               |
 *         |C            C C C    C               |
 |         |  C     C   C     C  C                |
 |         .----C--------C------------------------.
 |        /          C      C                    /
 |       /          C  C                        /
 |      /                C                     /

Positions:
   0 C     10.924983    9.583195    5.566326
   1 C     11.488699    8.418328    5.478877
   2 C     10.033563    6.807713    5.705122
   3 C     11.347805    7.106017    5.310168
   4 C     10.245334   10.834145    5.647999
   5 C      8.999319    3.522620    4.191600
   6 C      9.542181    5.276789    5.013189
   7 C      9.248066    9.509327    4.722975
   8 C      7.119319    9.875273    4.753873
   9 C      5.813460   10.054829    5.687124
  10 C      8.085363    3.596956    4.939934
  11 C      7.437776    7.709797    5.343433
  12 C      8.314814    6.101170    5.038309
  13 C      6.030449    7.463140    5.307907
  14 C      6.837665    4.055964    4.964471
  15 C      8.306078    8.918050    5.313529
  16 C      6.966450    5.457200    5.021648
  17 C      2.606930   10.580814    5.427454
  18 C      2.430586    9.157365    5.895387
  19 C      4.590607   10.414242    5.890251
  20 C      2.543378    7.878158    5.721057
  21 C      3.492019    7.086450    5.479086
  22 C      4.522968    6.459664    5.215783
  23 C      6.555734    6.391367    4.447201

Unit cell:
           periodic     x           y           z      points  spacing
  1. axis:    yes   16.000000    0.000000    0.000000    80     0.2000
  2. axis:    yes    0.000000   16.000000    0.000000    80     0.2000
  3. axis:    yes    0.000000    0.000000   10.000000    48     0.2083

Effective grid spacing dv^(1/3) = 0.2027

                     log10-error:    total        iterations:
           time      wfs    density  energy       fermi  poisson
iter:   1  10:52:54          +inf  -157.453077    2      6
iter:   2  10:52:54         -0.89  -155.988813    3      3
iter:   3  10:52:55         -0.92  -153.906935    4      3
iter:   4  10:52:55         -1.03  -152.873299    4      3
iter:   5  10:52:56         -1.18  -152.394237    32     3
iter:   6  10:52:56         -1.40  -152.310009    4      3
iter:   7  10:52:57         -1.59  -152.249749    3      3
iter:   8  10:52:57         -1.70  -152.204363    3      3
iter:   9  10:52:58         -1.86  -152.191452    3      2
iter:  10  10:52:58         -1.97  -152.180964    3      2
iter:  11  10:52:59         -2.09  -152.172063    3      2
iter:  12  10:52:59         -2.18  -152.163543    3      2
iter:  13  10:53:00         -2.35  -152.160301    3      2
iter:  14  10:53:00         -2.57  -152.160076    3      2
iter:  15  10:53:01         -2.88  -152.165434    2      1
iter:  16  10:53:01         -2.93  -152.163690    3      2
iter:  17  10:53:02         -3.35  -152.161406    2      1
iter:  18  10:53:02         -3.42  -152.165713    2      1
iter:  19  10:53:03         -3.61  -152.163245    2      1
iter:  20  10:53:03         -3.67  -152.160891    2      1
iter:  21  10:53:04         -3.95  -152.162922    2      1
iter:  22  10:53:04         -4.07  -152.162077    2      1

Converged after 22 iterations.

Dipole moment: (-0.197412, -0.188304, 0.371849) |e|*Ang

Energy contributions relative to reference atoms: (reference = -24663.074771)

Kinetic:       +120.734424
Potential:     -119.545813
External:        +0.000000
XC:            -155.973211
Entropy (-ST):   -0.412859
Local:           +2.828952
Free energy:   -152.368507
Extrapolated:  -152.162077

Fermi level: -4.75162

 Band  Eigenvalues  Occupancy
    0    -24.69488    2.00000
    1    -21.99201    2.00000
    2    -21.62725    2.00000
    3    -21.30187    2.00000
    4    -20.91265    2.00000
    5    -19.80628    2.00000
    6    -19.61981    2.00000
    7    -19.15225    2.00000
    8    -18.63520    2.00000
    9    -18.28269    2.00000
   10    -17.40728    2.00000
   11    -17.26696    2.00000
   12    -16.74455    2.00000
   13    -15.80486    2.00000
   14    -15.61491    2.00000
   15    -14.74510    2.00000
   16    -14.50101    2.00000
   17    -13.66488    2.00000
   18    -12.71844    2.00000
   19    -11.96430    2.00000
   20    -11.68275    2.00000
   21    -11.37051    2.00000
   22    -11.13997    2.00000
   23    -10.46937    2.00000
   24    -10.15201    2.00000
   25     -9.77378    2.00000
   26     -9.62247    2.00000
   27     -9.56788    2.00000
   28     -9.08214    2.00000
   29     -8.98461    2.00000
   30     -8.80763    2.00000
   31     -8.48083    2.00000
   32     -8.33590    2.00000
   33     -8.02040    2.00000
   34     -7.70147    2.00000
   35     -7.56120    2.00000
   36     -7.44738    2.00000
   37     -7.19990    2.00000
   38     -7.07581    2.00000
   39     -6.83135    2.00000
   40     -6.68671    2.00000
   41     -6.38051    2.00000
   42     -6.10452    2.00000
   43     -5.78928    1.99994
   44     -5.63142    1.99970
   45     -5.22425    1.98244
   46     -5.02980    1.88336
   47     -4.78795    1.17967
   48     -4.66726    0.60156
   49     -4.59236    0.33804
   50     -4.25742    0.01418
   51     -3.99642    0.00105
   52     -3.70609    0.00006
   53     -3.51418    0.00001
   54     -3.12644    0.00000
   55     -2.92334    0.00000
   56     -2.67055    0.00000
   57     -2.65470    0.00000
   58     -1.66617    0.00000
   59     -1.30929    0.00000
[...]
   83      7.50826    0.00000
   84      8.00210    0.00000
   85      8.22214    0.00000
   86      8.38782    0.00000
   87      8.61905    0.00000
   88      8.74755    0.00000
   89      8.83212    0.00000
   90      9.01864    0.00000
   91      9.06552    0.00000
   92      9.14611    0.00000
   93      9.28388    0.00000
   94      9.47432    0.00000
   95      9.56890    0.00000
   96      9.65091    0.00000
   97      9.81409    0.00000

Forces in eV/Ang:
  0 C    -1.36865    3.21476   -0.76169
  1 C     0.88183   -0.19721    0.02632
  2 C     2.58429   -4.60644   -2.24599
  3 C    -1.03201    0.78235    1.42262
  4 C    -0.20576   -3.68192   -1.52012
  5 C    11.13541    0.51276   -6.41798
  6 C    -2.99533    3.12072    0.18715
  7 C     7.53935    5.78060   -0.35310
  8 C    -3.17328    0.23169    2.22219
  9 C     2.19845    0.06070   -2.19236
 10 C    -9.05191   -1.01971    7.08332
 11 C     3.10733    0.84940    1.92082
 12 C    -0.32508    0.35685    1.53833
 13 C    -0.52104   -1.30893   -2.64810
 14 C    -0.48836    0.15949    0.50112
 15 C    -8.81250   -3.47465    2.12056
 16 C     6.12880  -15.59509    5.01562
 17 C     2.51300   -3.56822    2.16573
 18 C     0.80645    3.94019   -1.15110
 19 C    -2.11917   -0.26036   -0.97752
 20 C    -3.43683    3.05245    0.48466
 21 C    -1.08486    0.11693    0.44077
 22 C     6.75872   -1.11047   -0.12475
 23 C    -9.02343   12.59471   -6.79773

System changes: positions

[...]

Density initialized from wave functions
   /       |       C             C                |
  /        | CC      C            C               |
 *         |C            C C  C   C               |
 |         |  C     C   C     C  C                |
 |         .----C--------C------------------------.
 |        /          C      C                    /
 |       /          C  C                        /
 |      /                C                     /

[...]

Density initialized from wave functions
   /       |       C             C                |
[...]

[...]

Density initialized from wave functions
  /        | C C  C  C          C C               |
 *         |C           C C   C   C               |
 |         |  C      C  C        C                |
 |         .-----C-------C----C-------------------.
 |        /        C C     C                     /
 |       /          C  C                        /
 |      /                 C                    /

[...]

Density initialized from wave functions
  /        | C C  C  C          C C               |
 *         |C           C C   C   C               |
 |         |  C      C  C        C                |
 |         .-----C-------C----C-------------------.
 |        /        C C     C                     /
 |       /          C  C                        /
 |      /                 C                    /

[...]

Density initialized from wave functions
  /        | C C  C  C          CC                |
 *         |C           C C   C   C               |
 |         |  C      C  C        C                |
 |         .-----C-------C----C-------------------.
 |        /        C C     C                     /
 |       /          C  C  C                     /

[...]

Density initialized from wave functions
  /        | C C  C  C          CC                |
 *         |C           C C   C   C               |
 |         |  C      C  C        C                |
 |         .-----C-------C----C-------------------.
 |        /        C C     C                     /
 |       /          C  C  C                     /

[...]

Density initialized from wave functions
  /        | C C  C  C          C                 |
 *         |C           C C   C  CC               |
 |         |  C      C  C        C                |
 |         .-----C-------C----C-------------------.
 |        /        C C     C                     /
 |       /          C  C  C                     /

[...]

Density initialized from wave functions
  /        | C C  C  C          C                 |
 *         |C           C C   C  CC               |
 |         |  C  C   C  C        C                |
 |         .-------------C----C-------------------.
 |        /        C C     C                     /
 |       /          C  C  C                     /

[...]

Density initialized from wave functions
  /        | C C  C   C         C                 |
 *         |C           C C   C  CC               |
 |         |  C  C   C  C        C                |
 |         .------------C-----C-------------------.
 |        /        C C     C                     /
 |       /          C  C  C                     /

[...]

Density initialized from wave functions
  /        | C C   C  C         C                 |
 *         |C           C C   C  CC               |
 |         |  C  C   C  C        C                |
 |         .------------C-----C-------------------.
 |        /        C C     C                     /
 |       /          C  C  C                     /

[...]

Density initialized from wave functions
  /        | C C   C  C         C                 |
 *         |C           C C   C  CC               |
 |         |  C  C   C  C        C                |
 |         .------------C------C------------------.
 |        /        C C     C                     /
 |       /          C  C  C                     /

[...]

Density initialized from wave functions
  /        | C  C  C  C         C                 |
 *         |C           C C   C  CC               |
 |         |  C  C   C  C        C                |
 |         .------------C------C------------------.
 |        /        C C     C                     /
 |       /          C  C   C                    /

[...]

Density initialized from wave functions
  /        |C   C  C  C         C                 |
 *         |C           C C   C  CC               |
 |         |  C  C   C  C        C                |
 |         .------------C------C------------------.
 |        /        C C     C                     /
 |       /          C  C   C                    /

[...]

Density initialized from wave functions
  /        |C   C  C  C      C  C                 |
 *         |C           C C      CC               |
 |         |  C  C   C  C        C                |
 |         .------------C------C------------------.
 |        /        C C     C                     /
 |       /          C  C   C                    /

[...]

Density initialized from wave functions
  /        |C   C  C  C      C  C                 |
 *         |C           C C      CC               |
 |         |  C  C   C  C        C                |
 |         .------------C-----C-------------------.
 |        /        C C     C                     /
 |       /          C  C   C                    /

[...]

Density initialized from wave functions
  /        |C   C  C  C      C  C                 |
 *         |C           C C      CC               |
 |         |  C  C   C  C        C                |
 |         .------------C-----C-------------------.
 |        /        C C     C                     /
 |       /          C  C   C                    /

[...]

Density initialized from wave functions
  /        |C   C  C  C      C  C                 |
 *         | C          C C      CC               |
 |         |  C      C  C        C                |
 |         .-----C------C-----C-------------------.
 |        /        C C     C                     /
 |       /          C  C   C                    /

[...]

Density initialized from wave functions
  /        |C   C  C  C C    C  C                 |
 *         | C            C      CC               |
 |         |  C      C  C        C                |
 |         .-----C------C-----C-------------------.
 |        /        C C     C                     /
 |       /          C  C   C                    /

[...]

Density initialized from wave functions
  /        |C   C  C  C C       C                 |
 *         | C            C  C   CC               |
 |         |  C      C  C        C                |
 |         .-----C------C-----C-------------------.
 |        /        C C     C                     /
 |       /          C  C   C                    /

[...]

Density initialized from wave functions
  /        | C  C  C  C C       C                 |
 *         | C            C  C   CC               |
 |         |  C  C  C   C        C                |
 |         .------------C-----C-------------------.
 |        /        C C     C                     /
 |       /          C  C   C                    /

[...]

Density initialized from wave functions
  /        | C  C  C  C C       C                 |
 *         | C            C  C   CC               |
 |         |  C  C  C   C        C                |
 |         .------------C-----C-------------------.
 |        /        C C     C                     /
 |       /          C  C   C                    /

[...]

Density initialized from wave functions
  /        | C  C  C  C C       C                 |
 *         | C            C  C   CC               |
 |         |  C     C   C        C                |
 |         .-----C------C-----C-------------------.
 |        /        C C     C                     /
 |       /          C  C   C                    /

[...]

Density initialized from wave functions
  /        | C  C  C  C C       C                 |
 *         | C            C  C   CC               |
 |         |  C     C   C        C                |
 |         .-----C------C-----C-------------------.
 |        /        C C     C                     /
 |       /          C  C   C                    /

[...]

Density initialized from wave functions
   /       |       C                              |
  /        | C  C     C C       C                 |
 *         | C            C  C   CC               |
 |         |  C     C   C        C                |
 |         .-----C-C----C-----C-------------------.
 |        /          C     C                     /
 |       /          C  C   C                    /

[...]

Density initialized from wave functions
   /       |       C                              |
  /        | C  C     C C       C                 |
 *         | C            C  C   CC               |
 |         |  C     C   C        C                |
 |         .-----C-C----C-----C-------------------.
 |        /          C     C                     /
 |       /          C  C   C                    /

[...]

Density initialized from wave functions
   /       |       C                              |
  /        | C  C     C         C                 |
 *         | C          C C  C   CC               |
 |         |  C  C  C   C        C                |
 |         .-------C----C-----C-------------------.
 |        /          C     C                     /
 |       /          C  C   C                    /

[...]

Density initialized from wave functions
   /       |       C                              |
  /        | C  C     C         C                 |
 *         | C          C C  C   CC               |
 |         |  C  C  C   C        C                |
 |         .-------C----C-----C-------------------.
 |        /          C     C                     /
 |       /          C  C   C                    /

[...]

Density initialized from wave functions
   /       |       C                              |
  /        | C  C     C         C                 |
 *         | C          C C  C   CC               |
 |         |  C  C  C   C        C                |
 |         .------C-----C-----C-------------------.
 |        /          C     C                     /
 |       /          C  C   C                    /

[...]

Density initialized from wave functions
   /       |       C                              |
  /        | C  C     C         C                 |
 *         | C          C C  C   CC               |
 |         |  C  C  C   C        C                |
 |         .------C-----C-----C-------------------.
 |        /          C     C                     /
 |       /          C  C   C                    /

[...]

Density initialized from wave functions
   /       |       C                              |
  /        | C  C     C         C                 |
 *         | C          C C  C   CC               |
 |         |  C     C   C        C                |
 |         .-----CC-----C-----C-------------------.
 |        /          C     C                     /
 |       /          C  C   C                    /

[...]

System changes: positions

Initializing position-dependent things.

Density initialized from wave functions
   /       |       C                              |
  /        | C  C     C         C                 |
 *         | C          C C  C   CC               |
 |         |  C     C   C        C                |
 |         .-----CC-----C-----C-------------------.
 |        /          C     C                     /
 |       /          C  C   C                    /

Positions:
   0 C     10.635902    9.554362    5.400742
   1 C     11.384849    8.490282    5.451839
   2 C     10.464931    6.187969    5.260360
   3 C     11.252736    7.163231    5.396555
   4 C      9.833466   10.731526    5.334915
   5 C      9.526820    3.924525    4.912208
   6 C      9.357842    5.375648    5.074433
   7 C      9.090729    9.572608    5.287874
   8 C      6.850524    9.729739    5.304103
   9 C      5.846987   10.487777    5.438898
  10 C      8.322716    3.440801    4.780804
  11 C      7.494419    7.367249    5.145177
  12 C      8.014609    5.979951    5.026403
  13 C      6.058950    7.196625    5.128456
  14 C      7.013734    3.626579    4.701925
  15 C      7.897010    8.791495    5.231168
  16 C      6.856605    5.032110    4.870064
  17 C      3.525951   10.460113    5.720524
  18 C      2.479100    9.652512    5.801648
  19 C      4.663325   11.109499    5.637788
  20 C      2.886531    8.367527    5.605443
  21 C      3.367934    7.199527    5.412640
  22 C      4.701061    6.806089    5.188386
  23 C      5.673121    5.817144    4.958096

Unit cell:
           periodic     x           y           z      points  spacing
  1. axis:    yes   16.000000    0.000000    0.000000    80     0.2000
  2. axis:    yes    0.000000   16.000000    0.000000    80     0.2000
  3. axis:    yes    0.000000    0.000000   10.000000    48     0.2083

Effective grid spacing dv^(1/3) = 0.2027

                     log10-error:    total        iterations:
           time      wfs    density  energy       fermi  poisson
iter:   1  11:02:36          +inf  -180.697335    3      5
iter:   2  11:02:36         -2.30  -180.701486    3      2
iter:   3  11:02:37         -2.84  -180.705117    2      1
iter:   4  11:02:37         -3.09  -180.709606    2      1
iter:   5  11:02:38         -3.12  -180.704844    2      1
iter:   6  11:02:38         -3.28  -180.704751    2      1
iter:   7  11:02:39         -3.42  -180.706426    2      1
iter:   8  11:02:39         -3.79  -180.706193    2      1
iter:   9  11:02:40         -3.98  -180.706279    2      1
iter:  10  11:02:40         -4.15  -180.706138    2      1

Converged after 10 iterations.

Dipole moment: (0.288346, 0.189518, 0.016185) |e|*Ang

Energy contributions relative to reference atoms: (reference = -24663.074771)

Kinetic:       +106.594473
Potential:     -114.988245
External:        +0.000000
XC:            -175.204809
Entropy (-ST):   -0.173004
Local:           +2.978945
Free energy:   -180.792640
Extrapolated:  -180.706138

Fermi level: -4.46872

 Band  Eigenvalues  Occupancy
    0    -23.76396    2.00000
    1    -23.08837    2.00000
    2    -21.70402    2.00000
    3    -21.10201    2.00000
    4    -20.94652    2.00000
    5    -20.41632    2.00000
    6    -19.73740    2.00000
    7    -19.62516    2.00000
    8    -19.22947    2.00000
    9    -18.40920    2.00000
   10    -18.04468    2.00000
   11    -17.47390    2.00000
   12    -17.05748    2.00000
   13    -16.10675    2.00000
   14    -15.48413    2.00000
   15    -15.05950    2.00000
   16    -14.31972    2.00000
   17    -14.05233    2.00000
   18    -13.59874    2.00000
   19    -13.06862    2.00000
   20    -12.69343    2.00000
   21    -12.12294    2.00000
   22    -11.26752    2.00000
   23    -10.94373    2.00000
   24    -10.82907    2.00000
   25    -10.76573    2.00000
   26    -10.29972    2.00000
   27    -10.21945    2.00000
   28     -9.93090    2.00000
   29     -9.83623    2.00000
   30     -9.50438    2.00000
   31     -9.14033    2.00000
   32     -9.02058    2.00000
   33     -8.97312    2.00000
   34     -8.17931    2.00000
   35     -8.16822    2.00000
   36     -7.69602    2.00000
   37     -7.62044    2.00000
   38     -7.24266    2.00000
   39     -7.11085    2.00000
   40     -6.73589    2.00000
   41     -6.48345    2.00000
   42     -5.85867    2.00000
   43     -5.84333    2.00000
   44     -5.63445    1.99998
   45     -5.55533    1.99996
   46     -5.00883    1.99102
   47     -4.64728    1.71277
   48     -4.29324    0.29487
   49     -3.71525    0.00107
   50     -3.59927    0.00033
   51     -2.45044    0.00000
   52     -1.90240    0.00000
   53     -1.87664    0.00000
   54     -1.57350    0.00000
   55     -1.22355    0.00000
   56     -1.13426    0.00000
   57     -0.89113    0.00000
   58     -0.28574    0.00000
   59      0.12914    0.00000
[...]
   83      8.44970    0.00000
   84      8.56742    0.00000
   85      8.73285    0.00000
   86      8.81788    0.00000
   87      8.96905    0.00000
   88      9.07323    0.00000
   89      9.28373    0.00000
   90      9.39874    0.00000
   91      9.63108    0.00000
   92      9.66971    0.00000
   93      9.95627    0.00000
   94     10.07352    0.00000
   95     10.26559    0.00000
   96     10.33882    0.00000
   97     10.43330    0.00000

Forces in eV/Ang:
  0 C    -0.01682    0.00761    0.01517
  1 C     0.00129    0.00316   -0.01403
  2 C    -0.01945   -0.01346    0.00719
  3 C    -0.03416   -0.00024    0.00049
  4 C     0.01621   -0.01172   -0.00071
  5 C     0.04592    0.01767   -0.02423
  6 C    -0.01568    0.00475   -0.05130
  7 C     0.00455   -0.00041   -0.02625
  8 C     0.00994   -0.04816    0.02624
  9 C     0.00113    0.00887    0.01132
 10 C    -0.01628   -0.00915    0.01941
 11 C    -0.00622   -0.00969    0.00547
 12 C    -0.00172    0.00022   -0.01566
 13 C     0.00870    0.00294    0.05130
 14 C    -0.03875   -0.03397    0.02815
 15 C    -0.01959   -0.02776    0.01307
 16 C    -0.00869   -0.02998   -0.01469
 17 C     0.00795   -0.01384   -0.02680
 18 C    -0.01012    0.01128   -0.01463
 19 C    -0.00665    0.03376   -0.01400
 20 C    -0.03252    0.05013   -0.01356
 21 C     0.02569    0.01090    0.00714
 22 C     0.00504   -0.02966    0.02442
 23 C     0.01567   -0.00447   -0.01376