User:   esb@s65n12.grendel.cscaa.dk
Date:   Thu Nov  9 11:53:20 2017
Arch:   x86_64
Pid:    21988
Python: 2.7.13
gpaw:   /home/esb/DFT/gpaw_git/gpaw
_gpaw:  /home/esb/DFT/gpaw_git/build/bin.linux-x86_64-2.7/gpaw-python
ase:    /home/esb/DFT/ase_git/ase (version 3.15.0b1)
numpy:  /comm/swstack/core/python/2.7.13/lib/python2.7/site-packages/numpy (version 1.13.3)
scipy:  /comm/swstack/core/python/2.7.13/lib/python2.7/site-packages/scipy (version 0.19.1)
units:  Angstrom and eV
cores:  16
Extra parameters: {'blacs': True}

Input parameters:
  basis: dzp
  gpts: [80 80 48]
  kpts: [1 1 1]
  maxiter: 99
  mixer: {backend: pulay,
          beta: 0.05,
          method: separate,
          nmaxold: 5,
          weight: 75}
  mode: lcao
  nbands: -50
  occupations: {name: fermi-dirac,
                width: 0.1}
  poissonsolver: {eps: 1e-07,
                  name: fd,
                  nn: 3,
                  relax: GS}
  xc: PBE

System changes: positions, numbers, cell, pbc, initial_charges, initial_magmoms

Initialize ...

C-setup:
  name: Carbon
  id: 4aa54d4b901d75f77cc0ea3eec22967b
  Z: 6
  valence: 4
  core: 2
  charge: 0.0
  file: /home/esb/DFT/gpaw-setups-0.8.7929/C.PBE.gz
  cutoffs: 0.64(comp), 1.14(filt), 1.14(core), lmax=2
  valence states:
                energy  radius
    2s(2.00)   -13.751   0.635
    2p(2.00)    -5.284   0.635
    *s          13.461   0.635
    *p          21.927   0.635
    *d           0.000   0.635

  LCAO basis set for C:
    Name: dzp
    File: /home/esb/DFT/gpaw-setups-0.8.7929/C.dzp.basis.gz
    Number of radial functions: 5
    Number of spherical harmonics: 13
      l=0, rc=5.5469 Bohr: 2s-sz confined orbital
      l=1, rc=6.6719 Bohr: 2p-sz confined orbital
      l=0, rc=3.0312 Bohr: 2s-dz split-valence wave
      l=1, rc=3.7500 Bohr: 2p-dz split-valence wave
      l=2, rc=6.6719 Bohr: d-type Gaussian polarization

Reference energy: -24663.074771

Spin-paired calculation

Occupation numbers:
  Fermi-Dirac: width=0.1000 eV

Convergence criteria:
  Maximum total energy change: 0.0005 eV / electron
  Maximum integral of absolute density change: 0.0001 electrons
  Maximum integral of absolute eigenstate change: 4e-08 eV^2
  Maximum number of iterations: 99

Symmetries present (total): 1

  ( 1  0  0)
  ( 0  1  0)
  ( 0  0  1)

1 k-point (Gamma)
1 k-point in the irreducible part of the Brillouin zone
       k-points in crystal coordinates                weights
   0:     0.00000000    0.00000000    0.00000000          1/1

Wave functions: LCAO
  Diagonalizer: Serial LAPACK
  Atomic Correction: dense with blas
  Datatype: float
  Eigensolver: None

LCAO using direct dense diagonalizer

Densities:
  Coarse grid: 80*80*48 grid
  Fine grid: 160*160*96 grid
  Total Charge: 0.000000

Density mixing:
  Method: separate
  Backend: pulay
  Linear mixing parameter: 0.05
  Mixing with 5 old densities
  Damping of long wave oscillations: 75

Hamiltonian:
  XC and Coulomb potentials evaluated on a 160*160*96 grid
  Using the PBE Exchange-Correlation functional
  Interpolation: tri-quintic (5. degree polynomial)
  Poisson solver: Gauss-Seidel solver with 6 multi-grid levels
    Coarsest grid: 5 x 5 x 3 points
    Stencil: 6*3+1=19 point O(h^6) finite-difference Laplacian
    Max iterations: 1000
    Tolerance: 1.000000e-07

Total number of cores used: 16
Domain decomposition: 2 x 4 x 2

Number of atoms: 24
Number of atomic orbitals: 312
Number of bands in calculation: 98
Bands to converge: occupied states only
Number of valence electrons: 96

... initialized

Initializing position-dependent things.

Density initialized from atomic densities
    /      |              C                       |
   /       |           C    C  C                  |
  /        |    C  C                              |
 *         |  C     C   C C   C                   |
 |         |                    C                 |
 |         .-C-----C--C--C--C--C------------------.
 |        /  C   C C                             /
 |       /          C  C  C                     /

Positions:
   0 C      7.455503   10.300399    7.034101
   1 C      8.733037    9.889053    6.865987
   2 C      9.840146    9.250934    6.629582
   3 C      6.761873    9.152721    6.591205
   4 C      3.951804    8.747438    6.381994
   5 C      5.344271    8.523028    6.330901
   6 C      9.839798    7.923426    6.151368
   7 C      7.331085    7.889891    6.135476
   8 C      3.500215    7.567474    5.894595
   9 C      8.544142    7.221970    5.899394
  10 C      6.038954    7.312438    5.900365
  11 C     10.867200    7.000003    5.825048
  12 C      7.044683    2.751964    5.067682
  13 C      8.361414    3.060831    5.087188
  14 C      9.533523    3.617024    5.161909
  15 C      6.483280    4.033823    5.257697
  16 C      3.735493    4.772929    5.346607
  17 C      5.144421    4.850969    5.374305
  18 C      9.680782    5.001638    5.390222
  19 C      7.189777    5.293478    5.459092
  20 C      3.419252    6.079853    5.507059
  21 C      8.470268    5.864605    5.545791
  22 C      5.969718    6.040284    5.568960
  23 C     10.805006    5.857245    5.527351

Unit cell:
           periodic     x           y           z      points  spacing
  1. axis:    yes   16.000000    0.000000    0.000000    80     0.2000
  2. axis:    yes    0.000000   16.000000    0.000000    80     0.2000
  3. axis:    yes    0.000000    0.000000   10.000000    48     0.2083

Effective grid spacing dv^(1/3) = 0.2027

                     log10-error:    total        iterations:
           time      wfs    density  energy       fermi  poisson
iter:   1  11:53:22          +inf  -185.941841    3      6
iter:   2  11:53:23         -0.87  -184.857283    3      3
iter:   3  11:53:23         -0.91  -182.365403    4      3
iter:   4  11:53:24         -1.07  -181.877668    4      2
iter:   5  11:53:25         -1.14  -181.433339    31     3
iter:   6  11:53:25         -1.41  -181.719840    33     3
iter:   7  11:53:26         -1.53  -181.211085    4      3
iter:   8  11:53:27         -1.77  -181.192251    2      2
iter:   9  11:53:27         -1.87  -181.157013    3      2
iter:  10  11:53:28         -1.93  -181.159258    3      2
iter:  11  11:53:29         -2.20  -181.132782    3      2
iter:  12  11:53:29         -2.30  -181.107258    3      2
iter:  13  11:53:30         -2.54  -181.116675    2      2
iter:  14  11:53:30         -2.75  -181.121746    2      1
iter:  15  11:53:31         -2.83  -181.115496    2      2
iter:  16  11:53:32         -2.97  -181.115523    3      2
iter:  17  11:53:32         -3.22  -181.120409    2      1
iter:  18  11:53:33         -3.40  -181.112464    2      1
iter:  19  11:53:34         -3.49  -181.108845    2      1
iter:  20  11:53:34         -3.74  -181.114669    2      1
iter:  21  11:53:35         -3.90  -181.112006    2      1
iter:  22  11:53:35         -3.99  -181.111373    2      1
iter:  23  11:53:36         -4.16  -181.113476    2      1

Converged after 23 iterations.

Dipole moment: (0.029559, 0.028011, -0.127552) |e|*Ang

Energy contributions relative to reference atoms: (reference = -24663.074771)

Kinetic:       +129.910583
Potential:     -133.815954
External:        +0.000000
XC:            -180.089291
Entropy (-ST):   -0.204873
Local:           +2.983622
Free energy:   -181.215913
Extrapolated:  -181.113476

Fermi level: -4.46953

 Band  Eigenvalues  Occupancy
    0    -23.65559    2.00000
    1    -22.55922    2.00000
    2    -22.32171    2.00000
    3    -20.92676    2.00000
    4    -20.79314    2.00000
    5    -20.63023    2.00000
    6    -19.80594    2.00000
    7    -19.64428    2.00000
    8    -19.40250    2.00000
    9    -18.65043    2.00000
   10    -17.65350    2.00000
   11    -17.25499    2.00000
   12    -16.67544    2.00000
   13    -16.23286    2.00000
   14    -15.83198    2.00000
   15    -14.66706    2.00000
   16    -14.12411    2.00000
   17    -13.94587    2.00000
   18    -13.12025    2.00000
   19    -12.74915    2.00000
   20    -12.52043    2.00000
   21    -12.31211    2.00000
   22    -11.83127    2.00000
   23    -11.42635    2.00000
   24    -11.28268    2.00000
   25    -10.84864    2.00000
   26    -10.81816    2.00000
   27    -10.10235    2.00000
   28    -10.00394    2.00000
   29     -9.93974    2.00000
   30     -9.90657    2.00000
   31     -9.17644    2.00000
   32     -8.92636    2.00000
   33     -8.59548    2.00000
   34     -8.58537    2.00000
   35     -8.42096    2.00000
   36     -7.43966    2.00000
   37     -7.40448    2.00000
   38     -7.25273    2.00000
   39     -7.05039    2.00000
   40     -7.02138    2.00000
   41     -6.81068    2.00000
   42     -6.70996    2.00000
   43     -6.26572    2.00000
   44     -6.01688    2.00000
   45     -4.86747    1.96329
   46     -4.76379    1.89983
   47     -4.71980    1.84867
   48     -4.28055    0.26255
   49     -3.98969    0.01635
   50     -3.93281    0.00929
   51     -3.33519    0.00002
   52     -2.40020    0.00000
   53     -2.38714    0.00000
   54     -1.93615    0.00000
   55     -1.43696    0.00000
   56     -1.40829    0.00000
   57     -1.29308    0.00000
   58     -0.42085    0.00000
   59     -0.38302    0.00000
[...]
   83      8.38655    0.00000
   84      8.59915    0.00000
   85      8.73040    0.00000
   86      8.92284    0.00000
   87      9.08161    0.00000
   88      9.22615    0.00000
   89      9.37050    0.00000
   90      9.57280    0.00000
   91      9.67094    0.00000
   92      9.67442    0.00000
   93      9.74290    0.00000
   94      9.98839    0.00000
   95     10.14772    0.00000
   96     10.23879    0.00000
   97     10.42625    0.00000

Forces in eV/Ang:
  0 C     0.61614    0.27519    0.08633
  1 C    -0.54381    0.33220    0.16741
  2 C     0.19591   -0.35305   -0.11377
  3 C    -1.53041   -0.42100   -0.15004
  4 C     0.39897   -1.71435   -0.82812
  5 C     0.85931    2.35255    0.75135
  6 C    -0.52665    0.66842   -0.01261
  7 C    -0.76842   -0.11073   -0.42571
  8 C    -1.61132   -6.71860   -1.42770
  9 C     1.39142    1.89898    0.83621
 10 C     0.86874    1.88557    0.64126
 11 C     0.95555    6.65304    1.80113
 12 C     0.60840   -0.34650   -0.09023
 13 C    -0.58382   -0.32593    0.01105
 14 C     0.23055    0.37527    0.04728
 15 C    -1.50740    0.59798    0.10607
 16 C     0.59098    1.84849    0.07941
 17 C     0.58812   -2.48775   -0.49008
 18 C    -0.58152   -0.52727   -0.32772
 19 C    -0.73674    0.35785   -0.30207
 20 C    -0.88920    6.68618    2.05069
 21 C     1.14480   -2.20169   -0.22468
 22 C     0.66040   -2.05842   -0.37993
 23 C     0.21623   -6.71835   -1.71707

System changes: positions

[...]

Density initialized from wave functions
    /      |              C                       |
   /       |           C    C  C                  |
  /        |    C  C                              |
 *         |  C     C   C C   C                   |
 |         |                    C                 |
 |         .-C-----C--C--C--C--C------------------.
 |        /  C   C C                             /
 |       /          C  C   C                    /

[...]

Density initialized from wave functions
    /      |              C                       |
   /       |           C    C  C                  |
  /        |    C  C                              |
 *         |  C     C   C C   C                   |
 |         |                    C                 |
 |         .-C-----C--C--C--C--C------------------.
 |        /  C   C C                             /
 |       /          C  C  C                     /

[...]

Density initialized from wave functions
    /      |              C                       |
   /       |           C    C  C                  |
  /        |    C  C                              |
 *         |  C     C   C C   C                   |
 |         | C                  C                 |
 |         .-------C--C--C--C--C------------------.
 |        /  C   C C                             /
 |       /          C  C  C                     /

[...]

Density initialized from wave functions
    /      |              C                       |
   /       |           C    C  C                  |
  /        |    C  C                              |
 *         |  C     C   C C   C                   |
 |         | C                  C                 |
 |         .-------C--C--C--C--C------------------.
 |        /  C   C C                             /
 |       /          C  C  C                     /

[...]

Density initialized from wave functions
    /      |              C                       |
   /       |           C    C  C                  |
  /        |    C  C                              |
 *         |  C     C   C C   C                   |
 |         | C                  C                 |
 |         .-C-----C--C--C--C--C------------------.
 |        /      C C                             /
 |       /          C  C  C                     /

[...]

System changes: positions

Initializing position-dependent things.

Density initialized from wave functions
    /      |              C                       |
   /       |           C    C  C                  |
  /        |    C  C                              |
 *         |  C     C   C  C  C                   |
 |         | C                  C                 |
 |         .-C-----C--C--C--C--C------------------.
 |        /      C C                             /
 |       /          C  C  C                     /

Positions:
   0 C      7.445268   10.340408    7.038411
   1 C      8.719503    9.914865    6.876363
   2 C      9.835421    9.284829    6.639914
   3 C      6.741717    9.190836    6.562634
   4 C      3.985365    8.487290    6.260122
   5 C      5.357267    8.566366    6.325225
   6 C      9.878303    7.956616    6.157580
   7 C      7.358330    7.915451    6.120719
   8 C      3.238760    7.456637    5.939899
   9 C      8.610241    7.240820    5.938367
  10 C      6.086897    7.324973    5.928689
  11 C     10.938583    7.032907    5.842831
  12 C      7.031379    2.716762    5.047141
  13 C      8.346201    3.032705    5.085053
  14 C      9.526266    3.581489    5.155114
  15 C      6.460711    4.016329    5.215065
  16 C      3.798579    5.058002    5.362865
  17 C      5.153360    4.815282    5.346212
  18 C      9.716539    4.964761    5.379697
  19 C      7.216037    5.274512    5.435445
  20 C      3.170233    6.182845    5.607945
  21 C      8.534692    5.822284    5.570375
  22 C      6.016728    6.009875    5.585827
  23 C     10.870395    5.815187    5.524011

Unit cell:
           periodic     x           y           z      points  spacing
  1. axis:    yes   16.000000    0.000000    0.000000    80     0.2000
  2. axis:    yes    0.000000   16.000000    0.000000    80     0.2000
  3. axis:    yes    0.000000    0.000000   10.000000    48     0.2083

Effective grid spacing dv^(1/3) = 0.2027

                     log10-error:    total        iterations:
           time      wfs    density  energy       fermi  poisson
iter:   1  11:55:42          +inf  -183.802716    2      4
iter:   2  11:55:43         -3.31  -183.802198    2      1
iter:   3  11:55:43         -3.42  -183.801431    2      1
iter:   4  11:55:44         -3.69  -183.801662    2      1
iter:   5  11:55:44         -3.91  -183.801736    2      1
iter:   6  11:55:45         -4.11  -183.802327    2      1

Converged after 6 iterations.

Dipole moment: (-0.405166, 0.047912, -0.109709) |e|*Ang

Energy contributions relative to reference atoms: (reference = -24663.074771)

Kinetic:       +114.932334
Potential:     -122.602671
External:        +0.000000
XC:            -179.081324
Entropy (-ST):   -0.116053
Local:           +3.007361
Free energy:   -183.860353
Extrapolated:  -183.802327

Fermi level: -4.26563

 Band  Eigenvalues  Occupancy
    0    -23.36756    2.00000
    1    -22.45682    2.00000
    2    -21.96774    2.00000
    3    -20.78662    2.00000
    4    -20.75971    2.00000
    5    -20.36942    2.00000
    6    -19.51226    2.00000
    7    -19.34511    2.00000
    8    -19.12835    2.00000
    9    -18.37373    2.00000
   10    -17.62264    2.00000
   11    -17.07620    2.00000
   12    -16.90593    2.00000
   13    -16.57554    2.00000
   14    -15.45657    2.00000
   15    -14.85379    2.00000
   16    -14.52657    2.00000
   17    -14.02695    2.00000
   18    -13.33360    2.00000
   19    -12.61597    2.00000
   20    -12.41639    2.00000
   21    -12.27721    2.00000
   22    -11.97335    2.00000
   23    -11.35003    2.00000
   24    -10.99919    2.00000
   25    -10.65012    2.00000
   26    -10.63935    2.00000
   27    -10.24137    2.00000
   28    -10.00659    2.00000
   29     -9.84326    2.00000
   30     -9.76505    2.00000
   31     -9.10728    2.00000
   32     -8.98010    2.00000
   33     -8.87032    2.00000
   34     -8.52281    2.00000
   35     -8.20481    2.00000
   36     -8.17386    2.00000
   37     -7.16255    2.00000
   38     -7.13648    2.00000
   39     -6.91506    2.00000
   40     -6.88049    2.00000
   41     -6.84935    2.00000
   42     -6.41471    2.00000
   43     -6.03488    2.00000
   44     -5.56900    2.00000
   45     -5.04789    1.99920
   46     -4.73519    1.98189
   47     -4.53631    1.87484
   48     -3.99407    0.12411
   49     -3.79895    0.01863
   50     -3.52709    0.00124
   51     -3.26102    0.00009
   52     -2.74827    0.00000
   53     -2.18936    0.00000
   54     -1.86122    0.00000
   55     -1.36450    0.00000
   56     -1.30169    0.00000
   57     -1.19035    0.00000
   58     -0.52849    0.00000
   59     -0.25343    0.00000
[...]
   83      8.66890    0.00000
   84      8.79441    0.00000
   85      9.15827    0.00000
   86      9.16239    0.00000
   87      9.25248    0.00000
   88      9.28595    0.00000
   89      9.48268    0.00000
   90      9.67877    0.00000
   91      9.76470    0.00000
   92      9.93960    0.00000
   93     10.00689    0.00000
   94     10.12751    0.00000
   95     10.34298    0.00000
   96     10.35632    0.00000
   97     10.45941    0.00000

Forces in eV/Ang:
  0 C    -0.03100   -0.00340   -0.05871
  1 C    -0.02485   -0.00688   -0.03151
  2 C     0.00906   -0.00389    0.03315
  3 C    -0.05963    0.00561   -0.01226
  4 C     0.00793   -0.08058    0.01631
  5 C     0.02203    0.02660   -0.03711
  6 C     0.03241   -0.01596    0.02062
  7 C    -0.03174    0.00256    0.00274
  8 C     0.01256    0.06524    0.07308
  9 C    -0.00922   -0.00447    0.02797
 10 C    -0.03710    0.01159   -0.02455
 11 C     0.04117   -0.02148    0.03142
 12 C    -0.01983    0.05358   -0.06335
 13 C    -0.01552    0.01642   -0.02347
 14 C     0.01370   -0.01308    0.01756
 15 C    -0.04762    0.01683   -0.00386
 16 C     0.06663    0.00964    0.04557
 17 C     0.01388    0.00068   -0.03820
 18 C     0.03311   -0.00415    0.02448
 19 C    -0.02028    0.00660    0.00433
 20 C    -0.00889   -0.06148    0.02805
 21 C    -0.01473   -0.01225    0.02646
 22 C    -0.04486    0.00735   -0.01959
 23 C     0.04544   -0.00558    0.03947