User:   esb@s65n63.grendel.cscaa.dk
Date:   Wed Nov  8 15:13:06 2017
Arch:   x86_64
Pid:    72581
Python: 2.7.13
gpaw:   /home/esb/DFT/gpaw_git/gpaw
_gpaw:  /home/esb/DFT/gpaw_git/build/bin.linux-x86_64-2.7/gpaw-python
ase:    /home/esb/DFT/ase_git/ase (version 3.15.0b1)
numpy:  /comm/swstack/core/python/2.7.13/lib/python2.7/site-packages/numpy (version 1.13.3)
scipy:  /comm/swstack/core/python/2.7.13/lib/python2.7/site-packages/scipy (version 0.19.1)
units:  Angstrom and eV
cores:  16
Extra parameters: {'blacs': True}

Input parameters:
  basis: dzp
  gpts: [80 80 48]
  kpts: [1 1 1]
  maxiter: 99
  mixer: {backend: pulay,
          beta: 0.05,
          method: separate,
          nmaxold: 5,
          weight: 75}
  mode: lcao
  nbands: -50
  occupations: {name: fermi-dirac,
                width: 0.1}
  poissonsolver: {eps: 1e-07,
                  name: fd,
                  nn: 3,
                  relax: GS}
  xc: PBE

System changes: positions, numbers, cell, pbc, initial_charges, initial_magmoms

Initialize ...

C-setup:
  name: Carbon
  id: 4aa54d4b901d75f77cc0ea3eec22967b
  Z: 6
  valence: 4
  core: 2
  charge: 0.0
  file: /home/esb/DFT/gpaw-setups-0.8.7929/C.PBE.gz
  cutoffs: 0.64(comp), 1.14(filt), 1.14(core), lmax=2
  valence states:
                energy  radius
    2s(2.00)   -13.751   0.635
    2p(2.00)    -5.284   0.635
    *s          13.461   0.635
    *p          21.927   0.635
    *d           0.000   0.635

  LCAO basis set for C:
    Name: dzp
    File: /home/esb/DFT/gpaw-setups-0.8.7929/C.dzp.basis.gz
    Number of radial functions: 5
    Number of spherical harmonics: 13
      l=0, rc=5.5469 Bohr: 2s-sz confined orbital
      l=1, rc=6.6719 Bohr: 2p-sz confined orbital
      l=0, rc=3.0312 Bohr: 2s-dz split-valence wave
      l=1, rc=3.7500 Bohr: 2p-dz split-valence wave
      l=2, rc=6.6719 Bohr: d-type Gaussian polarization

Reference energy: -24663.074771

Spin-paired calculation

Occupation numbers:
  Fermi-Dirac: width=0.1000 eV

Convergence criteria:
  Maximum total energy change: 0.0005 eV / electron
  Maximum integral of absolute density change: 0.0001 electrons
  Maximum integral of absolute eigenstate change: 4e-08 eV^2
  Maximum number of iterations: 99

Symmetries present (total): 1

  ( 1  0  0)
  ( 0  1  0)
  ( 0  0  1)

1 k-point (Gamma)
1 k-point in the irreducible part of the Brillouin zone
       k-points in crystal coordinates                weights
   0:     0.00000000    0.00000000    0.00000000          1/1

Wave functions: LCAO
  Diagonalizer: Serial LAPACK
  Atomic Correction: dense with blas
  Datatype: float
  Eigensolver: None

LCAO using direct dense diagonalizer

Densities:
  Coarse grid: 80*80*48 grid
  Fine grid: 160*160*96 grid
  Total Charge: 0.000000

Density mixing:
  Method: separate
  Backend: pulay
  Linear mixing parameter: 0.05
  Mixing with 5 old densities
  Damping of long wave oscillations: 75

Hamiltonian:
  XC and Coulomb potentials evaluated on a 160*160*96 grid
  Using the PBE Exchange-Correlation functional
  Interpolation: tri-quintic (5. degree polynomial)
  Poisson solver: Gauss-Seidel solver with 6 multi-grid levels
    Coarsest grid: 5 x 5 x 3 points
    Stencil: 6*3+1=19 point O(h^6) finite-difference Laplacian
    Max iterations: 1000
    Tolerance: 1.000000e-07

Total number of cores used: 16
Domain decomposition: 2 x 4 x 2

Number of atoms: 24
Number of atomic orbitals: 312
Number of bands in calculation: 98
Bands to converge: occupied states only
Number of valence electrons: 96

... initialized

Initializing position-dependent things.

Density initialized from atomic densities
  /        |         C                            |
 *         |   C  C   C  C C C                    |
 |         |   C   C      C      C                |
 |         .--C---C--C--C-C---C-CC----------------.
 |        /       C  C   C C  C                  /

Positions:
   0 C     10.872300    4.514127    5.498020
   1 C      9.797182    3.743825    5.377461
   2 C      8.937181    5.905373    5.137234
   3 C      6.228950    3.484839    5.352089
   4 C      5.592609   10.697064    4.934427
   5 C      7.077464    4.521270    5.260729
   6 C      6.196441    9.369705    4.973827
   7 C      7.624148    9.273641    4.974592
   8 C      5.261609    8.206315    4.998056
   9 C     11.307218    5.744021    5.281585
  10 C      8.256760    7.997170    4.922259
  11 C      7.790663    6.705296    4.998825
  12 C      6.603809    5.963939    5.099948
  13 C      5.394288    6.676307    5.084566
  14 C      8.620241    4.547324    5.313149
  15 C     10.191917    6.641906    5.154016
  16 C      3.487152    8.984722    5.080027
  17 C     10.599348    9.365001    4.436524
  18 C     10.914834    8.132074    4.308480
  19 C      4.363609    9.903943    5.045482
  20 C      3.669618    6.279387    4.734094
  21 C      8.179097   10.388685    4.888688
  22 C      3.622345    7.610403    5.328322
  23 C      9.208450    9.466950    4.782842

Unit cell:
           periodic     x           y           z      points  spacing
  1. axis:    yes   16.000000    0.000000    0.000000    80     0.2000
  2. axis:    yes    0.000000   16.000000    0.000000    80     0.2000
  3. axis:    yes    0.000000    0.000000   10.000000    48     0.2083

Effective grid spacing dv^(1/3) = 0.2027

                     log10-error:    total        iterations:
           time      wfs    density  energy       fermi  poisson
iter:   1  15:13:08          +inf  -171.736038    2      6
iter:   2  15:13:08         -0.86  -169.775861    3      3
iter:   3  15:13:09         -0.90  -169.176434    3      3
iter:   4  15:13:09         -0.96  -168.640880    3      2
iter:   5  15:13:10         -0.98  -167.584342    4      2
iter:   6  15:13:11         -1.04  -167.683249    35     3
iter:   7  15:13:11         -1.14  -166.705669    4      3
iter:   8  15:13:12         -1.26  -165.897057    4      3
iter:   9  15:13:12         -1.42  -166.038794    3      3
iter:  10  15:13:13         -1.51  -165.994416    3      3
iter:  11  15:13:13         -1.61  -165.971370    3      3
iter:  12  15:13:14         -1.70  -165.825832    4      3
iter:  13  15:13:14         -1.91  -165.808623    4      2
iter:  14  15:13:15         -2.09  -165.793402    4      2
iter:  15  15:13:15         -2.28  -165.785123    3      2
iter:  16  15:13:16         -2.43  -165.781678    3      2
iter:  17  15:13:16         -2.58  -165.780349    3      2
iter:  18  15:13:17         -2.65  -165.797183    3      1
iter:  19  15:13:17         -2.71  -165.780981    3      2
iter:  20  15:13:18         -2.86  -165.786753    2      1
iter:  21  15:13:18         -3.01  -165.779218    2      2
iter:  22  15:13:19         -3.44  -165.775969    2      1
iter:  23  15:13:19         -3.51  -165.775113    2      1
iter:  24  15:13:20         -3.63  -165.772128    3      1
iter:  25  15:13:20         -3.84  -165.775937    2      1
iter:  26  15:13:21         -3.90  -165.776966    2      1
iter:  27  15:13:21         -4.04  -165.776350    2      1

Converged after 27 iterations.

Dipole moment: (-0.400339, -0.099185, 0.154522) |e|*Ang

Energy contributions relative to reference atoms: (reference = -24663.074771)

Kinetic:       +126.625211
Potential:     -124.059166
External:        +0.000000
XC:            -171.062047
Entropy (-ST):   -0.377779
Local:           +2.908541
Free energy:   -165.965240
Extrapolated:  -165.776350

Fermi level: -4.77965

 Band  Eigenvalues  Occupancy
    0    -24.25851    2.00000
    1    -23.73452    2.00000
    2    -22.99601    2.00000
    3    -21.37914    2.00000
    4    -21.02332    2.00000
    5    -20.13078    2.00000
    6    -20.03734    2.00000
    7    -19.61613    2.00000
    8    -18.65594    2.00000
    9    -18.33651    2.00000
   10    -17.77750    2.00000
   11    -16.95641    2.00000
   12    -16.70095    2.00000
   13    -15.94207    2.00000
   14    -15.59057    2.00000
   15    -15.13281    2.00000
   16    -14.14399    2.00000
   17    -14.01827    2.00000
   18    -13.58168    2.00000
   19    -12.82914    2.00000
   20    -12.41316    2.00000
   21    -11.65276    2.00000
   22    -11.30260    2.00000
   23    -11.14762    2.00000
   24    -11.01032    2.00000
   25    -10.70929    2.00000
   26    -10.49136    2.00000
   27    -10.25815    2.00000
   28     -9.85083    2.00000
   29     -9.60634    2.00000
   30     -9.20780    2.00000
   31     -9.00831    2.00000
   32     -8.46416    2.00000
   33     -8.22035    2.00000
   34     -7.72155    2.00000
   35     -7.61546    2.00000
   36     -7.20572    2.00000
   37     -7.10680    2.00000
   38     -6.72248    2.00000
   39     -6.63030    2.00000
   40     -6.47511    2.00000
   41     -6.25764    2.00000
   42     -6.08883    2.00000
   43     -5.92436    1.99998
   44     -5.70881    1.99982
   45     -5.16328    1.95777
   46     -4.99208    1.78649
   47     -4.82587    1.22709
   48     -4.77911    0.99730
   49     -4.35935    0.02946
   50     -4.08012    0.00183
   51     -3.88865    0.00027
   52     -3.53573    0.00001
   53     -3.09990    0.00000
   54     -2.59165    0.00000
   55     -2.26189    0.00000
   56     -2.01351    0.00000
   57     -1.89871    0.00000
   58     -1.25767    0.00000
   59     -1.03036    0.00000
[...]
   83      8.46127    0.00000
   84      8.67717    0.00000
   85      8.70019    0.00000
   86      8.85779    0.00000
   87      8.91118    0.00000
   88      9.10310    0.00000
   89      9.25153    0.00000
   90      9.28795    0.00000
   91      9.48594    0.00000
   92      9.51190    0.00000
   93      9.54291    0.00000
   94      9.63166    0.00000
   95      9.82015    0.00000
   96      9.98199    0.00000
   97     10.04736    0.00000

Forces in eV/Ang:
  0 C    -0.40734   -0.79847    0.17062
  1 C     0.02124    0.01323    0.27810
  2 C     0.96559    1.99290   -0.71799
  3 C    -0.12201   -0.14217    0.00447
  4 C    -3.45427   -2.07148    0.47941
  5 C     0.36811    0.26765    0.04293
  6 C    -4.16378   -1.48640   -0.13858
  7 C   -10.28953   -9.36911    0.69508
  8 C     3.20297   -3.75548    0.53891
  9 C    -1.16117   -0.46274    0.37903
 10 C    -1.74461    2.83372    0.45839
 11 C     1.81409    2.19150    0.02508
 12 C    -1.42732   -0.46504    0.16955
 13 C    -2.48382    1.71372   -1.74634
 14 C     0.53402   -0.45695    0.00539
 15 C     5.05547   -0.88416   -1.70034
 16 C    -1.56506   -3.85777    0.48601
 17 C    -0.46865   -0.67583    0.15455
 18 C    -1.73558   -2.68345    1.30449
 19 C     3.61543    7.14547   -0.64890
 20 C     2.60364    3.14769    2.58460
 21 C     7.08284    8.83880   -0.09840
 22 C    -1.67251   -2.07403   -1.77378
 23 C     5.33518    1.00190   -0.93099

System changes: positions

[...]

Density initialized from wave functions
  /        |         C                            |
 *         |   C  C   C  C C C                    |
 |         |   C   C      C      C                |
 |         .--C---C--C--C-C---C-CC----------------.
 |        /       C  C   C C  C                  /

[...]

Density initialized from wave functions
  /        |         C                            |
 *         |   C  C   C  C  CC                    |
 |         |   C   C      C      C                |
 |         .--C---C--C--C--C--C-CC----------------.
 |        /       C  C   C C  C                  /

[...]

Density initialized from wave functions
  /        |         C                            |
 *         |   C  C   C  C  C C                   |
 |         |   C   C      C      C                |
 |         .--C---C--C--C--C--C-CC----------------.
 |        /       C  C   C C  C                  /

[...]

Density initialized from wave functions
  /        |         C                            |
 *         |   C  C   C  C  C C                   |
 |         |  C    C      C      C                |
 |         .--C---C--C--C--C--C-C-----------------.
 |        /       C  C   C C  C                  /

[...]

Density initialized from wave functions
  /        |         C                            |
 *         |   C  C  C   C  C C                   |
 |         |  C    C      C      C                |
 |         .--C---C--C--C--C--C-C-----------------.
 |        /       C  C   C C  C                  /

[...]

Density initialized from wave functions
  /        |         C                            |
 *         |   C C   C   C  C C                   |
 |         |  C    C      C      C                |
 |         .---C--C--C--C--C--C-C-----------------.
 |        /       C  C   C C  C                  /

[...]

Density initialized from wave functions
  /        |         C                            |
 *         |   C C   C   C  C C                   |
 |         |  C    C      C      C                |
 |         .---C--C--C--C--C--C-C-----------------.
 |        /       C  C   C C  C                  /

[...]

Density initialized from wave functions
  /        |         C                            |
 *         |   C C   C   C  C C                   |
 |         |  C    C      C      C                |
 |         .---C--C--C--C--C---CC-----------------.
 |        /       C  C   C C  C                  /

[...]

Density initialized from wave functions
  /        |         C                            |
 *         |   C C   C   C  C C                   |
 |         |   C   C      C      C                |
 |         .---C--C--C--C--C---CC-----------------.
 |        /        C C   C C  C                  /

[...]

Density initialized from wave functions
  /        |        C                             |
 *         |   C C   C   C  C C                   |
 |         |   C   C      C      C                |
 |         .---C--C--C---C-C---CC-----------------.
 |        /        C C   C C  C                  /

[...]

Density initialized from wave functions
  /        |        C                             |
 *         |   C C   C   C  C C                   |
 |         |   C   C      C      C                |
 |         .---C--C--C---C-C---CC-----------------.
 |        /        C C   C C  C                  /

[...]

Density initialized from wave functions
  /        |     C  C                             |
 *         |   C     C   C  C C                   |
 |         |   C   C      C      C                |
 |         .---C--C--C---C-C---CC-----------------.
 |        /        C C   C C  C                  /

[...]

Density initialized from wave functions
  /        |     C  C                             |
 *         |   C     C   C  C C                   |
 |         |   C   C      C      C                |
 |         .---C--C--C---C-C---CC-----------------.
 |        /        C C   C C  C                  /

[...]

Density initialized from wave functions
  /        |     C  C                             |
 *         |   C     C   C  C C                   |
 |         |   C   C      C      C                |
 |         .---C--C--C---C-C---CCC----------------.
 |        /        C C   C C  C                  /

[...]

Density initialized from wave functions
  /        |     C  C                             |
 *         |   C     C   C  C C                   |
 |         |   C   C      C      C                |
 |         .---C--C--C---C-C---CCC----------------.
 |        /        C  C  C C  C                  /

[...]

Density initialized from wave functions
  /        |    C   C                             |
 *         |   C     C   C  C C                   |
 |         |   C   C      C      C                |
 |         .---C---C-C---C-C---CCC----------------.
 |        /        C  C  C C  C                  /

[...]

Density initialized from wave functions
  /        |    C   C                             |
 *         |   C     C   C  C                     |
 |         |   C   C      C   C  C                |
 |         .---C---C-C---C-C---CCC----------------.
 |        /        C  C  C C  C                  /

[...]

Density initialized from wave functions
  /        |    C  C                              |
 *         |  C      C   C  C                     |
 |         |   C   C      C  C  C                 |
 |         .---C---C-C---C-C---CCC----------------.
 |        /        C  C  C C  C                  /

[...]

Density initialized from wave functions
  /        |    C  C                              |
 *         |  C      C   C  C                     |
 |         |   C   C      C  C  C                 |
 |         .---C---C--C--C-C---CCC----------------.
 |        /        C  C  C C  C                  /

[...]

Density initialized from wave functions
  /        |    C  C                              |
 *         |  C      C   C  C                     |
 |         |   C   C      C  C  C                 |
 |         .---C---C--C--C-C---CCC----------------.
 |        /        C  C  C C  C                  /

[...]

Density initialized from wave functions
  /        |    C  C        C                     |
 *         |  C      C   C                        |
 |         |   C   C      C  C  C                 |
 |         .---C---C--C--C-C---C-C----------------.
 |        /        C  C  C C  C                  /

[...]

Density initialized from wave functions
  /        |    C  C        C                     |
 *         |  C      C  C                         |
 |         |   C   C      C  C  C                 |
 |         .---C---C--C--C-C---C-C----------------.
 |        /        C  C  C C  C                  /

[...]

Density initialized from wave functions
  /        |       C        C                     |
 *         |  C C    C  C                         |
 |         |   C   C      C  C  C                 |
 |         .---C---C--C--C-C---C-C----------------.
 |        /        C  C  C C  C                  /

[...]

Density initialized from wave functions
  /        |       C        C                     |
 *         |  C C    C  C                         |
 |         |   C   C      C  C  C                 |
 |         .---C---C--C--C-C---C-C----------------.
 |        /        C  C  C C  C                  /

[...]

Density initialized from wave functions
  /        |       C                              |
 *         |  C C    C   C  C                     |
 |         |   C   C      C  C  C                 |
 |         .---C---C--C--C-C---C-C----------------.
 |        /        C  C  C C  C                  /

[...]

Density initialized from wave functions
  /        |       C                              |
 *         |  C C    C   C  C                     |
 |         |   C   C      C  C  C                 |
 |         .---C---C--C--C-C---CCC----------------.
 |        /        C  C  C C  C                  /

[...]

Density initialized from wave functions
  /        |       C                              |
 *         |  C C    C   C  C                     |
 |         |   C   C      C  C  C                 |
 |         .---C---C--C--C-C---CCC----------------.
 |        /        C  C  C C  C                  /

[...]

Density initialized from wave functions
  /        |       C                              |
 *         |  C C    C   C  C                     |
 |         |   C   C      C  C  C                 |
 |         .---C---C--C--C-C---C-C----------------.
 |        /        C  C  C C  C  C               /

[...]

System changes: positions

Initializing position-dependent things.

Density initialized from wave functions
  /        |       C                              |
 *         |  C C    C   C  C                     |
 |         |   C   C      C  C  C                 |
 |         .---C---C--C--C-C---C-C----------------.
 |        /        C  C  C C  C  C               /

Positions:
   0 C     10.848566    4.098992    5.381202
   1 C      9.633996    3.597378    5.459219
   2 C      9.272549    6.033177    5.057209
   3 C      6.292883    3.836930    5.334030
   4 C      4.794805   10.557482    5.003366
   5 C      7.261649    4.774960    5.261090
   6 C      5.785534    9.498777    4.952929
   7 C      7.208921    9.524276    4.854045
   8 C      5.233054    8.171358    4.882227
   9 C     11.609393    5.155216    5.192663
  10 C      8.121110    8.369348    4.803276
  11 C      8.133447    6.972298    4.966444
  12 C      6.906053    6.195158    5.071411
  13 C      5.641974    6.765271    4.996552
  14 C      8.754464    4.703120    5.271839
  15 C     10.722673    6.267509    4.996267
  16 C      2.897184    8.898800    5.051273
  17 C     10.503655    8.794852    4.596831
  18 C     10.990486    7.640908    4.748247
  19 C      3.601659   10.033075    5.100540
  20 C      4.272819    6.451960    5.307364
  21 C      8.330970   10.473323    4.943468
  22 C      3.817087    7.856733    4.981228
  23 C      9.232869    9.347434    4.702709

Unit cell:
           periodic     x           y           z      points  spacing
  1. axis:    yes   16.000000    0.000000    0.000000    80     0.2000
  2. axis:    yes    0.000000   16.000000    0.000000    80     0.2000
  3. axis:    yes    0.000000    0.000000   10.000000    48     0.2083

Effective grid spacing dv^(1/3) = 0.2027

                     log10-error:    total        iterations:
           time      wfs    density  energy       fermi  poisson
iter:   1  15:20:30          +inf  -179.599697    3      5
iter:   2  15:20:30         -2.74  -179.599348    2      1
iter:   3  15:20:31         -2.86  -179.598529    2      1
iter:   4  15:20:31         -2.99  -179.597766    2      1
iter:   5  15:20:32         -3.13  -179.599903    2      2
iter:   6  15:20:32         -3.38  -179.598258    2      1
iter:   7  15:20:33         -3.30  -179.598661    2      1
iter:   8  15:20:33         -3.57  -179.599473    2      1
iter:   9  15:20:34         -3.81  -179.599417    2      1
iter:  10  15:20:34         -3.84  -179.599873    2      1
iter:  11  15:20:35         -3.88  -179.599759    2      1
iter:  12  15:20:35         -4.11  -179.599455    2      1

Converged after 12 iterations.

Dipole moment: (-0.051458, 0.265576, -0.198324) |e|*Ang

Energy contributions relative to reference atoms: (reference = -24663.074771)

Kinetic:       +116.784315
Potential:     -123.554640
External:        +0.000000
XC:            -175.632153
Entropy (-ST):   -0.296901
Local:           +2.951473
Free energy:   -179.747905
Extrapolated:  -179.599455

Fermi level: -4.61360

 Band  Eigenvalues  Occupancy
    0    -23.49663    2.00000
    1    -22.94503    2.00000
    2    -22.49328    2.00000
    3    -21.41965    2.00000
    4    -21.03379    2.00000
    5    -20.34957    2.00000
    6    -19.74880    2.00000
    7    -19.29678    2.00000
    8    -18.64895    2.00000
    9    -18.45798    2.00000
   10    -17.57110    2.00000
   11    -17.09317    2.00000
   12    -16.66846    2.00000
   13    -15.81199    2.00000
   14    -15.23041    2.00000
   15    -15.01783    2.00000
   16    -14.53267    2.00000
   17    -13.76092    2.00000
   18    -13.46605    2.00000
   19    -12.92334    2.00000
   20    -12.16717    2.00000
   21    -11.80102    2.00000
   22    -11.46428    2.00000
   23    -11.10385    2.00000
   24    -11.01933    2.00000
   25    -10.90079    2.00000
   26    -10.54464    2.00000
   27    -10.41053    2.00000
   28    -10.30770    2.00000
   29    -10.03147    2.00000
   30     -9.87846    2.00000
   31     -9.61195    2.00000
   32     -9.21757    2.00000
   33     -9.05865    2.00000
   34     -8.49124    2.00000
   35     -7.92259    2.00000
   36     -7.40270    2.00000
   37     -7.30133    2.00000
   38     -7.18566    2.00000
   39     -6.97600    2.00000
   40     -6.79713    2.00000
   41     -6.46077    2.00000
   42     -6.32168    2.00000
   43     -5.87675    1.99999
   44     -5.71914    1.99997
   45     -5.05190    1.97533
   46     -4.90920    1.90109
   47     -4.73757    1.55102
   48     -4.51147    0.52956
   49     -4.22325    0.03955
   50     -3.97260    0.00328
   51     -3.69492    0.00020
   52     -2.95020    0.00000
   53     -2.77503    0.00000
   54     -2.38567    0.00000
   55     -2.17429    0.00000
   56     -2.10544    0.00000
   57     -1.82806    0.00000
   58     -1.08785    0.00000
   59      0.00636    0.00000
[...]
   83      8.64609    0.00000
   84      8.75332    0.00000
   85      9.00922    0.00000
   86      9.03093    0.00000
   87      9.18717    0.00000
   88      9.24372    0.00000
   89      9.27837    0.00000
   90      9.41226    0.00000
   91      9.53911    0.00000
   92      9.61186    0.00000
   93      9.74485    0.00000
   94      9.84213    0.00000
   95      9.94487    0.00000
   96     10.02062    0.00000
   97     10.25602    0.00000

Forces in eV/Ang:
  0 C     0.04106    0.00391   -0.02518
  1 C     0.01599    0.01901   -0.01276
  2 C    -0.00435    0.00363   -0.02536
  3 C    -0.01581   -0.02581    0.02897
  4 C    -0.02721    0.00366   -0.02655
  5 C     0.03359   -0.02990    0.02936
  6 C    -0.00375   -0.04034   -0.02614
  7 C     0.01457   -0.01928    0.02403
  8 C    -0.00440   -0.00275    0.02458
  9 C     0.02557    0.03321   -0.02938
 10 C     0.03894   -0.01691   -0.02134
 11 C     0.00772   -0.02772   -0.02885
 12 C    -0.01302   -0.03881    0.00167
 13 C     0.03430    0.01163    0.03895
 14 C     0.00081    0.01226   -0.02301
 15 C    -0.00824    0.01036    0.01889
 16 C    -0.01070    0.05663   -0.00983
 17 C    -0.00500   -0.00339    0.05521
 18 C    -0.02291   -0.00132    0.00035
 19 C     0.01635    0.00146   -0.00866
 20 C    -0.06415   -0.00502   -0.02659
 21 C     0.00046   -0.03986    0.03381
 22 C    -0.01457    0.00489   -0.00334
 23 C    -0.02430    0.00217   -0.01496